ITEM: TIMESTEP
2260000
ITEM: NUMBER OF ATOMS
1000
ITEM: BOX BOUNDS pp pp pp
-1.6047647000000001e+01 1.6047647000000001e+01
-1.6047647000000001e+01 1.6047647000000001e+01
-5.0000000000000000e-01 5.0000000000000000e-01
ITEM: ATOMS id type xs ys zs
38 29 0.03446 0.0188407 0.5
891 33 0.0128311 0.045058 0.5
846 33 0.0506666 0.0476318 0.5
483 28 5.96163e-05 0.0142591 0.5
459 35 0.074779 0.0228694 0.5
146 26 0.109769 0.0205858 0.5
813 30 0.0835692 0.0572023 0.5
113 34 0.142617 0.0261966 0.5
339 35 0.17724 0.0309464 0.5
242 35 0.118246 0.0531207 0.5
498 30 0.156373 0.0582846 0.5
197 29 0.198715 0.0041643 0.5
168 36 0.211838 0.0372259 0.5
257 33 0.233182 0.0102651 0.5
819 30 0.265898 0.0153391 0.5
941 29 0.244957 0.0432076 0.5
738 32 0.27772 0.0463979 0.5
451 32 0.299906 0.0204131 0.5
921 36 0.333806 0.0256946 0.5
255 29 0.312346 0.0517927 0.5
831 29 0.350388 0.0548014 0.5
78 22 0.390569 0.000156567 0.5
473 31 0.368144 0.0283003 0.5
230 31 0.400306 0.0299644 0.5
863 27 0.420616 0.00500962 0.5
148 33 0.461991 0.0194539 0.5
523 23 0.432072 0.0317676 0.5
509 27 0.450952 0.0544402 0.5
253 30 0.497808 0.0153191 0.5
896 30 0.519281 0.0417917 0.5
993 30 0.482533 0.045595 0.5
390 32 0.534352 0.0112201 0.5
408 28 0.57067 0.0113914 0.5
844 32 0.552643 0.0396466 0.5
178 24 0.58714 0.038213 0.5
173 30 0.603035 0.0103775 0.5
708 27 0.636366 0.00811731 0.5
107 30 0.622008 0.0375916 0.5
782 28 0.669551 0.00613924 0.5
444 33 0.654884 0.0356642 0.5
551 30 0.688545 0.0326832 0.5
591 27 0.700081 0.00353977 0.5
930 27 0.738869 0.000851175 0.5
482 30 0.72193 0.0280361 0.5
415 25 0.75206 0.0279251 0.5
746 25 0.738707 0.0551641 0.5
63 29 0.783484 0.0230775 0.5
583 25 0.816809 0.0195905 0.5
836 29 0.770148 0.0522332 0.5
229 32 0.806007 0.0485521 0.5
703 30 0.861022 0.00278455 0.5
895 29 0.839784 0.0412372 0.5
89 30 0.872507 0.0333537 0.5
258 37 0.897407 0.00923833 0.5
55 28 0.918753 0.0352217 0.5
689 30 0.934807 0.00843591 0.5
182 32 0.968263 0.0104547 0.5
223 21 0.981782 0.0403139 0.5
396 31 0.951404 0.0380535 0.5
262 32 0.0301638 0.0753767 0.5
905 30 0.0111407 0.104687 0.5
143 30 0.044818 0.104308 0.5
976 24 0.0607359 0.0776992 0.5
193 28 0.104217 0.0831741 0.5
298 37 0.0791659 0.106224 0.5
694 31 0.114096 0.112624 0.5
685 30 0.135732 0.0823165 0.5
215 28 0.168731 0.0890894 0.5
487 30 0.147359 0.113252 0.5
743 32 0.190882 0.0643037 0.5
984 32 0.225133 0.0709287 0.5
37 29 0.201157 0.0958891 0.5
442 34 0.235108 0.10269 0.5
565 28 0.259293 0.0734504 0.5
380 37 0.271294 0.104864 0.5
455 31 0.292739 0.0778611 0.5
180 32 0.32869 0.0802376 0.5
659 34 0.309364 0.108545 0.5
900 26 0.341784 0.109911 0.5
860 30 0.382753 0.0603462 0.5
58 28 0.361631 0.083972 0.5
430 33 0.404991 0.0938304 0.5
536 28 0.376254 0.109818 0.5
414 34 0.416224 0.0595849 0.5
467 31 0.438036 0.0847111 0.5
763 33 0.471374 0.0792368 0.5
769 29 0.459511 0.110078 0.5
649 35 0.505657 0.0711789 0.5
752 27 0.527521 0.0956824 0.5
934 26 0.492687 0.102566 0.5
715 24 0.537699 0.0675168 0.5
413 27 0.57209 0.0653823 0.5
102 24 0.557047 0.0896836 0.5
241 33 0.584921 0.102467 0.5
824 31 0.604845 0.0655337 0.5
582 29 0.639454 0.0667291 0.5
214 33 0.621129 0.0960482 0.5
52 36 0.673582 0.0645301 0.5
926 33 0.65652 0.0957516 0.5
211 21 0.692028 0.0940348 0.5
164 33 0.707832 0.0612577 0.5
420 33 0.755927 0.0848008 0.5
655 29 0.72301 0.0902937 0.5
990 38 0.791456 0.0793834 0.5
940 28 0.813294 0.106245 0.5
485 34 0.778164 0.111696 0.5
397 32 0.859506 0.0677421 0.5
528 33 0.826956 0.0748121 0.5
569 32 0.85003 0.100203 0.5
379 27 0.882262 0.0964658 0.5
943 42 0.895521 0.061953 0.5
998 31 0.932907 0.0652604 0.5
849 34 0.914881 0.0941171 0.5
589 25 0.998561 0.0748753 0.5
873 32 0.968036 0.0674364 0.5
328 24 0.948322 0.0923929 0.5
987 34 0.978119 0.102861 0.5
712 29 0.0297403 0.132533 0.5
393 37 0.0192827 0.16522 0.5
80 30 0.0584948 0.164154 0.5
350 19 0.0581098 0.130563 0.5
706 32 0.0869603 0.141006 0.5
513 28 0.0986345 0.170488 0.5
811 27 0.118628 0.145113 0.5
18 39 0.153757 0.145911 0.5
279 32 0.132344 0.173359 0.5
227 31 0.17931 0.11991 0.5
461 32 0.213614 0.129447 0.5
608 30 0.188955 0.151134 0.5
469 35 0.225466 0.161371 0.5
511 36 0.251332 0.135527 0.5
577 35 0.288231 0.13521 0.5
809 27 0.271325 0.164674 0.5
852 33 0.325128 0.138963 0.5
71 33 0.303735 0.166353 0.5
389 38 0.343801 0.17315 0.5
203 38 0.36092 0.139317 0.5
14 29 0.398573 0.132473 0.5
31 24 0.387282 0.160782 0.5
409 30 0.429134 0.118382 0.5
629 26 0.452183 0.142378 0.5
953 29 0.422259 0.153711 0.5
699 24 0.443057 0.175975 0.5
961 30 0.516621 0.124838 0.5
798 34 0.484225 0.134428 0.5
114 26 0.509278 0.155265 0.5
592 26 0.473064 0.165746 0.5
671 26 0.548466 0.117342 0.5
445 34 0.573964 0.136304 0.5
898 28 0.542052 0.147522 0.5
580 28 0.564699 0.169292 0.5
425 32 0.607041 0.128676 0.5
301 35 0.641486 0.125665 0.5
372 27 0.596438 0.162037 0.5
452 33 0.630444 0.157546 0.5
250 30 0.675812 0.124104 0.5
838 24 0.662473 0.15289 0.5
744 33 0.695172 0.152496 0.5
158 34 0.70872 0.120692 0.5
912 37 0.743415 0.119326 0.5
75 23 0.727983 0.148357 0.5
737 33 0.750532 0.170923 0.5
994 29 0.768324 0.14404 0.5
561 31 0.799779 0.137576 0.5
138 31 0.819949 0.163254 0.5
365 28 0.787848 0.168278 0.5
208 31 0.870253 0.127339 0.5
312 37 0.835521 0.132098 0.5
676 31 0.857064 0.160317 0.5
644 30 0.90397 0.126959 0.5
115 24 0.929204 0.147018 0.5
332 27 0.888874 0.15414 0.5
648 26 0.936601 0.118234 0.5
857 38 0.913686 0.176559 0.5
538 33 0.996843 0.135885 0.5
272 35 0.962614 0.138039 0.5
964 33 0.984408 0.167599 0.5
378 31 0.949626 0.171772 0.5
210 28 0.00362115 0.195326 0.5
249 33 0.0413204 0.192596 0.5
762 32 0.0238899 0.222429 0.5
33 30 0.0567369 0.222181 0.5
754 31 0.076771 0.193324 0.5
170 33 0.11174 0.201394 0.5
939 36 0.0909428 0.228057 0.5
290 31 0.146501 0.204593 0.5
448 32 0.167594 0.178663 0.5
705 29 0.127168 0.231507 0.5
429 28 0.163378 0.232999 0.5
597 25 0.199462 0.181125 0.5
488 27 0.181588 0.208209 0.5
216 40 0.21771 0.209011 0.5
851 31 0.248296 0.186485 0.5
517 35 0.283806 0.196533 0.5
280 37 0.256073 0.219494 0.5
169 23 0.317606 0.193942 0.5
847 36 0.346242 0.208876 0.5
756 29 0.314508 0.224223 0.5
385 31 0.375966 0.190314 0.5
274 28 0.407504 0.219332 0.5
374 34 0.410008 0.185397 0.5
239 34 0.376508 0.228488 0.5
701 36 0.468918 0.197955 0.5
753 32 0.436307 0.207876 0.5
493 26 0.460756 0.230796 0.5
834 31 0.502368 0.186894 0.5
845 28 0.526943 0.208917 0.5
492 38 0.495974 0.221693 0.5
646 28 0.533145 0.1782 0.5
104 26 0.554651 0.198815 0.5
788 33 0.586042 0.193334 0.5
957 35 0.570399 0.226637 0.5
57 32 0.618586 0.18803 0.5
874 36 0.60722 0.220733 0.5
497 32 0.643136 0.214075 0.5
749 28 0.651748 0.182293 0.5
603 29 0.684889 0.183761 0.5
72 26 0.67491 0.214967 0.5
797 31 0.707953 0.20921 0.5
91 26 0.71631 0.177382 0.5
799 28 0.741013 0.203916 0.5
742 31 0.7597 0.230481 0.5
963 27 0.727901 0.233969 0.5
704 34 0.773655 0.199099 0.5
382 36 0.808358 0.195481 0.5
416 33 0.794249 0.227099 0.5
768 31 0.842294 0.188639 0.5
986 29 0.83109 0.2207 0.5
611 35 0.865647 0.2125 0.5
938 24 0.878994 0.182505 0.5
155 30 0.898884 0.207857 0.5
806 28 0.938604 0.202222 0.5
310 33 0.921717 0.231802 0.5
920 29 0.970203 0.19887 0.5
456 31 0.990684 0.224621 0.5
68 31 0.957695 0.228735 0.5
377 28 0.00752133 0.251822 0.5
700 27 0.0395639 0.25133 0.5
751 25 0.0212786 0.278926 0.5
923 33 0.0527292 0.282554 0.5
34 31 0.0730676 0.257109 0.5
202 37 0.108218 0.260387 0.5
171 33 0.0869084 0.288709 0.5
933 29 0.142328 0.259143 0.5
24 30 0.175201 0.263051 0.5
260 29 0.153466 0.288939 0.5
259 22 0.118764 0.290473 0.5
28 28 0.196058 0.237594 0.5
881 27 0.227751 0.246137 0.5
367 28 0.207572 0.268778 0.5
673 28 0.257968 0.25214 0.5
996 27 0.283448 0.26755 0.5
167 27 0.285541 0.236481 0.5
770 39 0.240503 0.281517 0.5
325 32 0.343287 0.243809 0.5
935 26 0.313124 0.255828 0.5
888 28 0.33929 0.275659 0.5
991 32 0.308289 0.287686 0.5
263 29 0.370431 0.263015 0.5
927 32 0.402534 0.25204 0.5
96 30 0.39456 0.285835 0.5
914 26 0.43204 0.240859 0.5
651 25 0.4565 0.259955 0.5
144 33 0.427491 0.274675 0.5
871 29 0.488051 0.255232 0.5
464 30 0.51496 0.272675 0.5
666 32 0.524983 0.241822 0.5
434 25 0.488236 0.286534 0.5
508 28 0.554432 0.258096 0.5
761 29 0.575534 0.282814 0.5
944 29 0.543144 0.288915 0.5
358 28 0.628697 0.245202 0.5
440 38 0.595456 0.255518 0.5
265 39 0.639047 0.276541 0.5
112 26 0.606092 0.287264 0.5
103 32 0.661237 0.24276 0.5
795 35 0.696384 0.241964 0.5
637 28 0.678223 0.27106 0.5
12 34 0.746131 0.260759 0.5
855 31 0.712221 0.272611 0.5
571 41 0.738031 0.297212 0.5
360 20 0.779482 0.254537 0.5
225 34 0.80745 0.286342 0.5
745 34 0.817168 0.252286 0.5
307 32 0.772917 0.282992 0.5
677 37 0.853573 0.246012 0.5
615 28 0.843129 0.279002 0.5
346 29 0.877342 0.27148 0.5
270 31 0.887324 0.239599 0.5
353 29 0.908624 0.26321 0.5
901 36 0.929963 0.291218 0.5
803 31 0.941812 0.258912 0.5
97 24 0.973201 0.254568 0.5
936 26 0.991729 0.278436 0.5
574 23 0.962867 0.281566 0.5
130 29 0.0310813 0.308277 0.5
733 36 0.0171274 0.33892 0.5
245 23 0.0496963 0.345311 0.5
199 35 0.0644702 0.316012 0.5
596 28 0.0993973 0.317458 0.5
848 29 0.0817722 0.344399 0.5
766 29 0.11499 0.345701 0.5
917 37 0.136106 0.318107 0.5
555 30 0.173965 0.324437 0.5
548 35 0.149307 0.351079 0.5
132 31 0.184839 0.293621 0.5
66 31 0.214122 0.306458 0.5
124 28 0.20853 0.3378 0.5
802 34 0.275133 0.299524 0.5
84 28 0.245712 0.315604 0.5
54 29 0.271026 0.334508 0.5
966 26 0.240747 0.345948 0.5
823 29 0.334521 0.307853 0.5
293 35 0.303244 0.321765 0.5
564 27 0.332019 0.338889 0.5
621 28 0.364034 0.294515 0.5
841 31 0.362057 0.325292 0.5
995 26 0.391391 0.335829 0.5
707 43 0.419125 0.312169 0.5
457 36 0.456266 0.294666 0.5
90 38 0.451262 0.332413 0.5
4 32 0.419256 0.350519 0.5
94 26 0.512105 0.305477 0.5
674 28 0.48204 0.316331 0.5
950 31 0.507757 0.336512 0.5
424 24 0.565896 0.309761 0.5
174 31 0.538653 0.322839 0.5
566 31 0.567249 0.340929 0.5
305 30 0.628746 0.310724 0.5
383 34 0.596045 0.319007 0.5
101 28 0.621964 0.340787 0.5
988 21 0.649099 0.332642 0.5
779 36 0.664215 0.30222 0.5
832 39 0.701012 0.308955 0.5
892 24 0.675186 0.333447 0.5
653 25 0.702458 0.342914 0.5
529 29 0.731234 0.331432 0.5
100 33 0.757435 0.350165 0.5
540 34 0.769408 0.317836 0.5
85 24 0.80182 0.318036 0.5
530 29 0.79078 0.345463 0.5
363 26 0.822403 0.341631 0.5
661 30 0.866112 0.301837 0.5
952 33 0.832659 0.31089 0.5
859 38 0.858014 0.335644 0.5
106 22 0.896772 0.294874 0.5
776 31 0.890557 0.325149 0.5
736 26 0.921941 0.322634 0.5
686 30 0.996876 0.309623 0.5
618 35 0.957155 0.313837 0.5
652 39 0.981169 0.341317 0.5
983 31 0.943715 0.34615 0.5
252 34 0.0310474 0.370745 0.5
345 32 0.0464429 0.400522 0.5
662 32 0.0134537 0.40262 0.5
87 29 0.0650482 0.371938 0.5
369 34 0.0981423 0.374169 0.5
886 28 0.0783857 0.400584 0.5
2 29 0.110355 0.405211 0.5
428 28 0.129969 0.378882 0.5
628 31 0.161574 0.383147 0.5
787 27 0.141078 0.409723 0.5
951 30 0.182778 0.356035 0.5
120 30 0.219939 0.367998 0.5
750 32 0.194523 0.388319 0.5
140 30 0.235878 0.395803 0.5
376 38 0.265887 0.370437 0.5
786 37 0.268765 0.407626 0.5
427 31 0.30012 0.356143 0.5
897 31 0.329859 0.37135 0.5
837 32 0.299218 0.38962 0.5
162 31 0.330572 0.405306 0.5
273 28 0.358185 0.356922 0.5
331 27 0.387784 0.36881 0.5
856 28 0.357768 0.388024 0.5
36 36 0.386721 0.403809 0.5
73 31 0.448455 0.368059 0.5
607 36 0.417302 0.385662 0.5
794 31 0.448695 0.405298 0.5
368 32 0.479576 0.353432 0.5
645 32 0.506905 0.372226 0.5
740 33 0.477119 0.387709 0.5
949 33 0.505431 0.406669 0.5
658 35 0.536842 0.357004 0.5
734 32 0.566161 0.375265 0.5
491 30 0.535423 0.391 0.5
568 31 0.595802 0.358689 0.5
402 36 0.627417 0.374802 0.5
421 33 0.596059 0.392483 0.5
206 31 0.626486 0.410489 0.5
166 30 0.659527 0.360645 0.5
317 36 0.691498 0.37404 0.5
329 33 0.659406 0.393122 0.5
278 33 0.687183 0.410888 0.5
176 32 0.725602 0.363732 0.5
165 24 0.747343 0.385392 0.5
431 31 0.717941 0.397038 0.5
141 32 0.811379 0.371111 0.5
264 31 0.778154 0.37622 0.5
6 17 0.769261 0.403602 0.5
521 32 0.79815 0.40175 0.5
375 30 0.842989 0.36748 0.5
443 28 0.830626 0.398347 0.5
364 32 0.862665 0.394238 0.5
879 33 0.877915 0.364704 0.5
313 33 0.909362 0.352949 0.5
614 29 0.929607 0.37975 0.5
519 25 0.899245 0.387809 0.5
27 33 0.921329 0.41204 0.5
233 28 0.998115 0.37289 0.5
822 34 0.963123 0.373939 0.5
698 23 0.983187 0.398901 0.5
244 29 0.953641 0.405195 0.5
729 24 0.0165373 0.433702 0.5
672 31 0.0502903 0.432374 0.5
544 28 0.0331684 0.459623 0.5
723 29 0.00237261 0.461756 0.5
326 41 0.0879756 0.433605 0.5
288 35 0.067374 0.464554 0.5
196 31 0.104276 0.465449 0.5
407 27 0.123291 0.435456 0.5
929 33 0.155855 0.438608 0.5
885 26 0.174447 0.412249 0.5
542 32 0.137369 0.467489 0.5
812 28 0.21088 0.416314 0.5
792 31 0.189505 0.441014 0.5
636 24 0.218915 0.445955 0.5
405 29 0.242587 0.427765 0.5
720 29 0.272645 0.442291 0.5
783 27 0.244007 0.460718 0.5
815 30 0.300993 0.424884 0.5
785 33 0.330957 0.43815 0.5
902 30 0.300963 0.457884 0.5
403 26 0.358688 0.423179 0.5
361 32 0.389327 0.438662 0.5
400 34 0.361088 0.456673 0.5
977 35 0.418369 0.422244 0.5
664 31 0.448304 0.439982 0.5
458 35 0.418546 0.457971 0.5
333 30 0.476466 0.423467 0.5
228 28 0.506136 0.439518 0.5
692 28 0.476548 0.455927 0.5
232 28 0.533906 0.422999 0.5
500 39 0.564918 0.410818 0.5
105 31 0.536361 0.453876 0.5
348 28 0.569368 0.447264 0.5
887 32 0.597059 0.427927 0.5
476 23 0.624832 0.442515 0.5
251 31 0.597755 0.46173 0.5
121 32 0.656391 0.426747 0.5
309 33 0.688602 0.4456 0.5
21 31 0.65879 0.459607 0.5
821 27 0.744482 0.41464 0.5
478 29 0.718498 0.431404 0.5
727 35 0.748357 0.447638 0.5
70 28 0.71684 0.463597 0.5
136 36 0.780937 0.432103 0.5
47 31 0.810564 0.456281 0.5
426 24 0.815689 0.426553 0.5
625 32 0.777676 0.467268 0.5
679 40 0.848533 0.427584 0.5
44 33 0.872736 0.454167 0.5
39 27 0.84181 0.463223 0.5
557 36 0.886478 0.419451 0.5
283 35 0.908973 0.445489 0.5
960 38 0.932657 0.471472 0.5
545 37 0.98264 0.431766 0.5
606 33 0.945967 0.437691 0.5
533 34 0.967329 0.465412 0.5
480 27 0.0208569 0.488213 0.5
807 24 0.0508109 0.492253 0.5
971 22 0.0346015 0.514933 0.5
512 31 0.0062585 0.519191 0.5
41 31 0.0823117 0.494241 0.5
781 29 0.0619839 0.522003 0.5
716 30 0.117667 0.49591 0.5
962 43 0.0969396 0.526942 0.5
336 35 0.152717 0.497991 0.5
179 31 0.173102 0.469203 0.5
26 38 0.134564 0.528981 0.5
534 33 0.213767 0.476218 0.5
687 32 0.188852 0.500181 0.5
967 25 0.219995 0.509106 0.5
965 30 0.27226 0.475198 0.5
8 26 0.243942 0.491775 0.5
882 35 0.271951 0.51073 0.5
201 33 0.330594 0.472868 0.5
728 33 0.301666 0.491546 0.5
693 29 0.332499 0.506062 0.5
826 30 0.303078 0.524517 0.5
702 28 0.388595 0.47578 0.5
690 27 0.359396 0.489812 0.5
668 24 0.390131 0.507129 0.5
303 29 0.360894 0.521494 0.5
556 29 0.44663 0.474297 0.5
875 33 0.419118 0.49368 0.5
709 30 0.450308 0.506475 0.5
349 39 0.505508 0.472987 0.5
593 26 0.476995 0.490831 0.5
504 37 0.507008 0.509363 0.5
893 30 0.476528 0.527482 0.5
581 24 0.571044 0.478066 0.5
175 41 0.540048 0.490595 0.5
626 34 0.569719 0.51204 0.5
296 30 0.538491 0.52714 0.5
665 39 0.628616 0.476399 0.5
866 29 0.598852 0.495899 0.5
587 35 0.630289 0.512757 0.5
133 31 0.599657 0.529147 0.5
531 27 0.687248 0.477913 0.5
83 31 0.658666 0.492478 0.5
42 39 0.687145 0.512668 0.5
277 27 0.746947 0.481083 0.5
125 30 0.7174 0.494712 0.5
910 30 0.744024 0.514264 0.5
578 29 0.802585 0.486874 0.5
217 32 0.773358 0.500829 0.5
980 28 0.802149 0.518399 0.5
829 26 0.866145 0.487417 0.5
35 36 0.833487 0.497062 0.5
156 26 0.857605 0.51793 0.5
177 25 0.886988 0.509896 0.5
553 32 0.897111 0.478542 0.5
191 36 0.919463 0.505248 0.5
575 32 0.986811 0.492282 0.5
911 29 0.954001 0.499764 0.5
294 30 0.974453 0.52587 0.5
725 37 0.0351073 0.547999 0.5
187 33 0.0179357 0.581568 0.5
748 34 0.0523456 0.582045 0.5
95 32 0.0707368 0.553087 0.5
579 28 0.112768 0.558521 0.5
764 36 0.0887659 0.582825 0.5
641 30 0.169012 0.527657 0.5
959 28 0.144444 0.56076 0.5
586 40 0.178762 0.560501 0.5
631 30 0.202248 0.533153 0.5
793 29 0.214616 0.564871 0.5
410 38 0.242683 0.533194 0.5
116 24 0.276868 0.5431 0.5
616 30 0.24623 0.568822 0.5
532 29 0.278074 0.573003 0.5
51 31 0.332993 0.539016 0.5
594 33 0.30531 0.556887 0.5
186 31 0.33239 0.576495 0.5
446 29 0.389786 0.538655 0.5
928 32 0.360661 0.555054 0.5
77 22 0.388051 0.570161 0.5
357 35 0.423109 0.527132 0.5
412 29 0.416412 0.561049 0.5
384 40 0.450359 0.552625 0.5
814 31 0.512131 0.544646 0.5
765 25 0.484595 0.558185 0.5
560 29 0.510052 0.576421 0.5
730 31 0.567573 0.545809 0.5
771 26 0.538578 0.559545 0.5
864 26 0.567698 0.576555 0.5
1000 35 0.629015 0.548218 0.5
619 32 0.597196 0.563428 0.5
915 27 0.62992 0.581338 0.5
805 28 0.658901 0.532434 0.5
157 32 0.686439 0.549574 0.5
311 28 0.658234 0.565558 0.5
318 34 0.687977 0.582668 0.5
137 33 0.717475 0.53424 0.5
9 28 0.745366 0.548946 0.5
688 27 0.719236 0.566044 0.5
772 32 0.748516 0.581879 0.5
267 27 0.773421 0.533335 0.5
590 26 0.800172 0.549019 0.5
17 27 0.773921 0.563656 0.5
110 30 0.80053 0.582211 0.5
282 28 0.830819 0.532637 0.5
973 23 0.875733 0.538781 0.5
338 29 0.827338 0.563522 0.5
418 33 0.860199 0.567028 0.5
974 27 0.905702 0.535218 0.5
343 33 0.926615 0.559253 0.5
438 28 0.892206 0.564506 0.5
777 27 0.94233 0.529978 0.5
713 36 0.997742 0.553124 0.5
503 36 0.96258 0.557016 0.5
188 31 0.983128 0.584651 0.5
135 29 0.0333406 0.610654 0.5
789 28 -0.00037896 0.6119 0.5
790 32 0.0130696 0.642465 0.5
827 39 0.0486104 0.642314 0.5
359 33 0.0679904 0.612348 0.5
22 33 0.102822 0.615762 0.5
854 28 0.0846929 0.642343 0.5
600 35 0.125916 0.58904 0.5
60 27 0.159154 0.590904 0.5
422 30 0.137461 0.620032 0.5
833 32 0.171394 0.622319 0.5
791 27 0.118601 0.645886 0.5
234 33 0.191616 0.593533 0.5
563 35 0.225357 0.597191 0.5
154 29 0.206102 0.624944 0.5
524 33 0.260393 0.600627 0.5
111 29 0.238035 0.628698 0.5
441 30 0.270798 0.63282 0.5
541 32 0.302082 0.593375 0.5
506 36 0.332666 0.610356 0.5
576 32 0.303005 0.628354 0.5
10 29 0.331642 0.644088 0.5
20 34 0.363023 0.590643 0.5
275 32 0.38664 0.616791 0.5
92 28 0.408176 0.591014 0.5
300 35 0.366247 0.644317 0.5
406 30 0.44003 0.587398 0.5
126 31 0.420746 0.62149 0.5
306 28 0.452689 0.618491 0.5
767 38 0.475676 0.59114 0.5
62 29 0.508372 0.607307 0.5
958 24 0.482036 0.623093 0.5
796 27 0.506009 0.640046 0.5
549 30 0.538746 0.59173 0.5
347 42 0.570489 0.6101 0.5
324 37 0.537421 0.627832 0.5
23 28 0.602514 0.596949 0.5
323 30 0.6318 0.61274 0.5
595 34 0.600707 0.630157 0.5
691 37 0.632041 0.646239 0.5
281 26 0.659876 0.598315 0.5
118 27 0.690253 0.614618 0.5
496 30 0.662833 0.630145 0.5
870 30 0.718715 0.598688 0.5
584 26 0.747677 0.613802 0.5
573 30 0.719927 0.629878 0.5
289 24 0.776294 0.605497 0.5
760 27 0.80481 0.615924 0.5
853 21 0.779942 0.633683 0.5
999 35 0.83733 0.595115 0.5
341 26 0.863911 0.615881 0.5
295 33 0.835355 0.630606 0.5
471 25 0.87982 0.592207 0.5
778 25 0.867006 0.646172 0.5
381 32 0.912261 0.590111 0.5
119 29 0.929863 0.617531 0.5
968 36 0.895972 0.620718 0.5
585 32 0.947251 0.588034 0.5
632 30 0.96703 0.61373 0.5
818 26 0.949898 0.639821 0.5
212 26 0.979982 0.642013 0.5
918 38 0.028464 0.674245 0.5
398 36 0.0469353 0.70437 0.5
514 26 0.0637049 0.672671 0.5
872 37 0.0986922 0.673377 0.5
830 29 0.113871 0.706933 0.5
447 36 0.152383 0.649812 0.5
151 36 0.133583 0.679123 0.5
465 28 0.167564 0.678245 0.5
925 24 0.18519 0.653266 0.5
543 33 0.217645 0.65433 0.5
972 29 0.199755 0.681805 0.5
475 27 0.232425 0.686243 0.5
722 33 0.252076 0.661946 0.5
40 38 0.288491 0.663137 0.5
287 35 0.266216 0.693561 0.5
985 26 0.319062 0.672798 0.5
535 26 0.298501 0.697153 0.5
620 28 0.349074 0.674334 0.5
948 35 0.330451 0.702803 0.5
29 29 0.399811 0.647458 0.5
7 34 0.381513 0.676594 0.5
388 27 0.363728 0.703073 0.5
956 33 0.438352 0.649998 0.5
152 33 0.415524 0.676607 0.5
117 31 0.450491 0.682854 0.5
11 36 0.47505 0.656365 0.5
479 22 0.50632 0.668765 0.5
25 32 0.48281 0.689019 0.5
65 31 0.516346 0.697434 0.5
128 31 0.568261 0.64663 0.5
266 34 0.53696 0.663185 0.5
820 30 0.576891 0.679343 0.5
394 30 0.548582 0.693996 0.5
209 27 0.60344 0.664191 0.5
404 31 0.630388 0.681343 0.5
755 26 0.604286 0.696394 0.5
64 31 0.69166 0.646414 0.5
904 33 0.661623 0.663173 0.5
981 30 0.691114 0.680967 0.5
432 29 0.660444 0.695223 0.5
46 33 0.750418 0.64528 0.5
711 34 0.720705 0.664399 0.5
522 35 0.750312 0.682063 0.5
334 33 0.719568 0.699395 0.5
784 28 0.808218 0.647163 0.5
43 34 0.780175 0.664898 0.5
867 36 0.811245 0.681816 0.5
997 34 0.780431 0.701331 0.5
269 31 0.841268 0.665113 0.5
134 33 0.874847 0.678228 0.5
93 40 0.846412 0.701184 0.5
601 31 0.899031 0.65412 0.5
916 26 0.929744 0.662755 0.5
271 30 0.90822 0.686106 0.5
869 32 0.940078 0.693586 0.5
862 26 0.994342 0.670348 0.5
633 30 0.961706 0.668582 0.5
190 38 0.975756 0.700809 0.5
546 32 0.0112303 0.705745 0.5
401 26 0.0309595 0.731534 0.5
450 25 0.0157803 0.757408 0.5
946 30 0.0457131 0.759149 0.5
194 31 0.0805142 0.703864 0.5
684 26 0.0619952 0.733064 0.5
19 29 0.0950456 0.733407 0.5
617 33 0.0781712 0.760916 0.5
205 28 0.110621 0.762194 0.5
1 27 0.146675 0.71056 0.5
680 29 0.127666 0.735718 0.5
460 34 0.161128 0.739067 0.5
204 33 0.179182 0.70911 0.5
472 27 0.212144 0.711856 0.5
714 29 0.195029 0.738151 0.5
804 29 0.226179 0.741096 0.5
550 26 0.242411 0.714634 0.5
127 24 0.28411 0.72263 0.5
286 31 0.259876 0.742163 0.5
640 36 0.292239 0.754759 0.5
32 23 0.312568 0.728761 0.5
717 30 0.344438 0.732318 0.5
99 26 0.325526 0.758599 0.5
45 29 0.395029 0.707305 0.5
634 20 0.374835 0.734829 0.5
235 34 0.40446 0.739971 0.5
399 33 0.357817 0.761769 0.5
423 33 0.42681 0.709207 0.5
226 31 0.459848 0.716013 0.5
470 30 0.438277 0.740536 0.5
732 29 0.470768 0.746651 0.5
371 29 0.49191 0.720111 0.5
758 24 0.520207 0.729699 0.5
79 36 0.502112 0.756357 0.5
184 27 0.54919 0.725261 0.5
108 33 0.580027 0.71647 0.5
327 31 0.538222 0.755074 0.5
816 32 0.570439 0.750202 0.5
908 23 0.631598 0.714312 0.5
638 44 0.607525 0.74342 0.5
297 30 0.643232 0.751272 0.5
49 28 0.688 0.712851 0.5
602 26 0.659536 0.725411 0.5
185 35 0.683871 0.74865 0.5
635 24 0.748296 0.712921 0.5
322 24 0.711818 0.729712 0.5
123 20 0.737325 0.738305 0.5
163 26 0.715929 0.758874 0.5
392 30 0.812629 0.715217 0.5
50 32 0.769944 0.737016 0.5
630 31 0.802616 0.74575 0.5
861 34 0.836056 0.73939 0.5
654 26 0.868014 0.742341 0.5
109 40 0.88412 0.712084 0.5
675 28 0.917604 0.717033 0.5
435 25 0.89742 0.743824 0.5
285 30 0.928332 0.749056 0.5
231 31 0.950479 0.725176 0.5
906 37 0.991737 0.735327 0.5
240 29 0.961552 0.756285 0.5
643 28 0.027179 0.785975 0.5
567 29 0.0402168 0.813401 0.5
237 34 0.00197449 0.805851 0.5
801 27 0.0588408 0.788439 0.5
160 29 0.0913617 0.790522 0.5
351 31 0.0735407 0.819601 0.5
718 22 0.105167 0.817469 0.5
624 25 0.141547 0.764826 0.5
610 30 0.123203 0.79085 0.5
942 26 0.154525 0.793752 0.5
145 26 0.17187 0.769603 0.5
74 34 0.136987 0.820452 0.5
970 24 0.168821 0.82064 0.5
129 35 0.204697 0.769689 0.5
344 23 0.186778 0.796986 0.5
82 33 0.218925 0.801586 0.5
739 40 0.242026 0.772241 0.5
554 29 0.275094 0.782768 0.5
320 33 0.252035 0.807167 0.5
913 29 0.28536 0.811926 0.5
449 27 0.307274 0.785018 0.5
13 31 0.340378 0.789849 0.5
53 34 0.318675 0.816637 0.5
246 33 0.391331 0.771342 0.5
417 26 0.372171 0.798055 0.5
370 36 0.407348 0.803116 0.5
86 30 0.351433 0.823525 0.5
486 36 0.428172 0.772838 0.5
883 35 0.462908 0.779749 0.5
284 34 0.44146 0.808399 0.5
840 27 0.494966 0.787947 0.5
800 24 0.476044 0.812843 0.5
337 29 0.52478 0.784853 0.5
411 31 0.512236 0.815069 0.5
932 28 0.557307 0.78158 0.5
978 24 0.543576 0.809551 0.5
362 32 0.576565 0.808748 0.5
520 31 0.590044 0.777124 0.5
198 34 0.624706 0.778688 0.5
604 23 0.606677 0.804958 0.5
850 25 0.641335 0.806031 0.5
454 31 0.659226 0.779648 0.5
195 36 0.69273 0.78376 0.5
292 29 0.672315 0.811134 0.5
527 29 0.705141 0.819802 0.5
678 30 0.749049 0.764789 0.5
354 34 0.726125 0.792273 0.5
599 33 0.7613 0.794729 0.5
605 25 0.780001 0.768275 0.5
695 23 0.808978 0.775577 0.5
474 28 0.792001 0.799901 0.5
56 28 0.82436 0.800719 0.5
142 31 0.840006 0.773643 0.5
254 32 0.873354 0.775118 0.5
299 26 0.856631 0.80284 0.5
683 33 0.907411 0.775463 0.5
726 30 0.891941 0.803997 0.5
489 23 0.922747 0.804163 0.5
696 28 0.939732 0.779278 0.5
477 31 0.989559 0.7735 0.5
868 37 0.966865 0.799748 0.5
342 38 0.0166648 0.8388 0.5
647 30 0.0514643 0.843673 0.5
992 36 0.0330641 0.87141 0.5
207 31 0.0842012 0.850032 0.5
248 26 0.114997 0.84637 0.5
131 28 0.0661243 0.877173 0.5
747 25 0.0968644 0.881009 0.5
828 29 0.145335 0.852197 0.5
894 28 0.125749 0.874807 0.5
989 34 0.177326 0.851309 0.5
48 26 0.199956 0.826963 0.5
315 29 0.211467 0.856431 0.5
907 28 0.230853 0.832123 0.5
909 28 0.188747 0.88091 0.5
865 23 0.263043 0.836074 0.5
439 28 0.243301 0.862709 0.5
213 31 0.275599 0.867048 0.5
903 31 0.296811 0.842764 0.5
657 26 0.329542 0.848117 0.5
387 29 0.307725 0.872752 0.5
552 30 0.34095 0.876996 0.5
572 33 0.384416 0.829384 0.5
667 27 0.3627 0.853828 0.5
291 27 0.394769 0.858844 0.5
547 33 0.420682 0.837576 0.5
437 32 0.457269 0.839877 0.5
386 35 0.437657 0.868476 0.5
526 30 0.473166 0.870443 0.5
69 34 0.490693 0.841278 0.5
59 25 0.52338 0.843729 0.5
481 30 0.506685 0.870713 0.5
507 29 0.554334 0.838179 0.5
937 32 0.540875 0.86981 0.5
808 27 0.573728 0.867731 0.5
321 31 0.588039 0.840268 0.5
159 33 0.621138 0.832631 0.5
979 34 0.64158 0.860631 0.5
3 33 0.607772 0.866284 0.5
773 22 0.653369 0.833471 0.5
30 32 0.682657 0.843704 0.5
268 41 0.672599 0.878772 0.5
335 33 0.738456 0.823961 0.5
373 34 0.716707 0.855153 0.5
774 33 0.753662 0.854371 0.5
570 33 0.773279 0.827187 0.5
147 30 0.8061 0.828498 0.5
463 27 0.788048 0.855915 0.5
308 27 0.819467 0.857722 0.5
276 34 0.839629 0.831306 0.5
98 34 0.874305 0.832369 0.5
221 24 0.857554 0.859577 0.5
876 31 0.909007 0.832611 0.5
319 30 0.891574 0.86269 0.5
495 32 0.928973 0.860592 0.5
880 38 0.944967 0.828919 0.5
468 28 0.980727 0.833723 0.5
149 28 0.961557 0.860234 0.5
724 38 0.995177 0.868737 0.5
200 34 0.0136946 0.900572 0.5
969 29 0.0480467 0.904977 0.5
238 26 0.0295419 0.9316 0.5
219 28 0.0810188 0.9078 0.5
236 39 0.116894 0.907563 0.5
515 29 0.0618505 0.9343 0.5
642 31 0.0959846 0.936796 0.5
539 31 0.157398 0.883499 0.5
261 36 0.154908 0.918645 0.5
161 28 0.128814 0.940161 0.5
775 33 0.221566 0.888953 0.5
466 40 0.191543 0.91508 0.5
518 30 0.226703 0.921818 0.5
433 26 0.254194 0.89237 0.5
419 33 0.285672 0.89941 0.5
947 33 0.26002 0.924431 0.5
670 33 0.318754 0.904192 0.5
884 35 0.297639 0.931523 0.5
639 23 0.331913 0.935556 0.5
316 37 0.354119 0.909158 0.5
352 28 0.375039 0.882939 0.5
954 25 0.388736 0.911422 0.5
627 32 0.407895 0.887067 0.5
15 33 0.455346 0.898873 0.5
5 33 0.425314 0.916911 0.5
494 24 0.453163 0.929965 0.5
189 16 0.490014 0.894244 0.5
825 35 0.52517 0.900292 0.5
391 26 0.483233 0.920482 0.5
735 28 0.512869 0.930805 0.5
256 33 0.560685 0.896935 0.5
192 35 0.546549 0.928478 0.5
598 33 0.580347 0.924514 0.5
453 26 0.592561 0.894982 0.5
395 28 0.635535 0.892768 0.5
817 35 0.615674 0.919744 0.5
302 27 0.653603 0.918749 0.5
562 36 0.686869 0.912896 0.5
681 25 0.706721 0.886029 0.5
810 31 0.737967 0.884958 0.5
76 27 0.721293 0.9131 0.5
899 24 0.751653 0.913437 0.5
975 28 0.771026 0.883334 0.5
183 28 0.803363 0.885328 0.5
484 33 0.783541 0.913796 0.5
501 34 0.818704 0.914664 0.5
759 35 0.837477 0.885029 0.5
780 29 0.871289 0.887887 0.5
436 31 0.853896 0.91573 0.5
88 39 0.911555 0.890951 0.5
922 35 0.88845 0.918078 0.5
656 23 0.922105 0.922795 0.5
612 28 0.997404 0.928478 0.5
839 28 0.946263 0.888864 0.5
931 30 0.979352 0.899498 0.5
878 32 0.954231 0.920656 0.5
697 35 0.0228081 0.986335 0.5
502 26 0.0443473 0.960342 0.5
613 28 0.00977817 0.955802 0.5
710 36 0.0574952 0.992073 0.5
505 32 0.0927696 0.993122 0.5
889 28 0.0766894 0.963791 0.5
67 30 0.111913 0.966561 0.5
224 30 0.129387 0.99518 0.5
81 28 0.165091 0.99948 0.5
516 38 0.152643 0.966618 0.5
172 22 0.17711 0.94408 0.5
462 29 0.219794 0.978948 0.5
721 28 0.186181 0.975277 0.5
490 31 0.206549 0.948308 0.5
247 25 0.25387 0.984868 0.5
731 34 0.273704 0.957289 0.5
61 32 0.239643 0.952958 0.5
623 35 0.287157 0.988893 0.5
181 31 0.32363 0.993068 0.5
222 32 0.309556 0.962947 0.5
559 32 0.342728 0.965598 0.5
835 32 0.358019 0.996755 0.5
650 29 0.377821 0.970837 0.5
330 28 0.365812 0.941327 0.5
150 37 0.399828 0.943501 0.5
122 30 0.410584 0.97556 0.5
220 30 0.443145 0.983629 0.5
218 24 0.432338 0.949351 0.5
304 28 0.461886 0.957484 0.5
682 35 0.477348 0.987533 0.5
525 27 0.511059 0.985595 0.5
890 33 0.493443 0.956913 0.5
982 32 0.529209 0.958274 0.5
355 31 0.551749 0.983017 0.5
366 29 0.585017 0.982602 0.5
537 28 0.567226 0.955029 0.5
243 32 0.618223 0.97936 0.5
16 31 0.599876 0.95092 0.5
741 33 0.636308 0.948903 0.5
877 29 0.651745 0.979834 0.5
919 25 0.683459 0.979212 0.5
153 36 0.671718 0.947761 0.5
558 31 0.706557 0.941666 0.5
669 38 0.7171 0.973804 0.5
139 29 0.750922 0.971748 0.5
955 28 0.73855 0.941589 0.5
340 23 0.768867 0.996917 0.5
356 26 0.799271 0.994614 0.5
499 21 0.768112 0.939883 0.5
609 30 0.782295 0.969294 0.5
314 31 0.800155 0.942567 0.5
719 24 0.816615 0.968252 0.5
660 28 0.829877 0.993829 0.5
924 26 0.849724 0.97166 0.5
588 27 0.836144 0.943177 0.5
842 28 0.868288 0.945985 0.5
945 34 0.882078 0.97626 0.5
622 29 0.917937 0.980473 0.5
843 34 0.90243 0.949534 0.5
858 32 0.935929 0.949842 0.5
510 34 0.987542 0.982822 0.5
663 32 0.951983 0.979923 0.5
757 37 0.972109 0.951393 0.5
