ITEM: TIMESTEP
2250000
ITEM: NUMBER OF ATOMS
1000
ITEM: BOX BOUNDS pp pp pp
-1.6047647000000001e+01 1.6047647000000001e+01
-1.6047647000000001e+01 1.6047647000000001e+01
-5.0000000000000000e-01 5.0000000000000000e-01
ITEM: ATOMS id type xs ys zs
38 29 0.0352998 0.0173524 0.5
891 33 0.0144101 0.0461091 0.5
846 33 0.0513391 0.0479588 0.5
459 35 0.073652 0.0220083 0.5
146 26 0.106992 0.0220598 0.5
505 32 0.0930204 -0.00674376 0.5
224 30 0.12538 -0.00344889 0.5
81 28 0.165161 -3.61035e-05 0.5
113 34 0.141388 0.0258094 0.5
339 35 0.175598 0.0309751 0.5
197 29 0.196274 0.00394319 0.5
168 36 0.210445 0.0356129 0.5
257 33 0.231892 0.00863772 0.5
819 30 0.264718 0.0152514 0.5
941 29 0.243468 0.0413412 0.5
738 32 0.277928 0.0461323 0.5
451 32 0.299037 0.0195027 0.5
921 36 0.333315 0.0245952 0.5
255 29 0.311216 0.0514504 0.5
181 31 0.320549 -0.00832403 0.5
835 32 0.355422 -0.00213229 0.5
78 22 0.386487 0.0030426 0.5
473 31 0.367798 0.0280475 0.5
230 31 0.399384 0.0327697 0.5
863 27 0.416787 0.00681961 0.5
148 33 0.458686 0.0189607 0.5
523 23 0.430157 0.0323227 0.5
253 30 0.498336 0.0160359 0.5
896 30 0.518647 0.0424126 0.5
993 30 0.483868 0.0462245 0.5
390 32 0.532591 0.0131786 0.5
408 28 0.568438 0.0137653 0.5
844 32 0.552027 0.0405797 0.5
178 24 0.584803 0.0393453 0.5
173 30 0.60088 0.00927253 0.5
708 27 0.632884 0.00968159 0.5
107 30 0.616269 0.0371778 0.5
782 28 0.668126 0.007331 0.5
444 33 0.650983 0.0353438 0.5
551 30 0.686665 0.0341819 0.5
591 27 0.700441 0.00611647 0.5
930 27 0.740334 0.00139759 0.5
482 30 0.72164 0.0300465 0.5
415 25 0.754016 0.0278527 0.5
340 23 0.76965 -0.00351402 0.5
356 26 0.802434 -0.00429047 0.5
63 29 0.785378 0.022394 0.5
583 25 0.817046 0.0209815 0.5
836 29 0.770805 0.0528768 0.5
229 32 0.80447 0.048845 0.5
660 28 0.833258 -0.00358019 0.5
703 30 0.862478 0.00605747 0.5
895 29 0.839164 0.0412297 0.5
89 30 0.87315 0.0364172 0.5
258 37 0.899227 0.0107719 0.5
55 28 0.919546 0.0367572 0.5
689 30 0.935604 0.00951009 0.5
483 28 1.00202 0.0146734 0.5
182 32 0.970362 0.0107552 0.5
223 21 0.984888 0.0392404 0.5
396 31 0.952489 0.0388595 0.5
262 32 0.0309208 0.0760923 0.5
905 30 0.0128396 0.103917 0.5
143 30 0.0462295 0.104422 0.5
813 30 0.0844043 0.0544364 0.5
976 24 0.0636921 0.0773232 0.5
193 28 0.101508 0.0827182 0.5
298 37 0.0798616 0.108073 0.5
242 35 0.118879 0.0539007 0.5
498 30 0.153582 0.0572866 0.5
685 30 0.134516 0.0834538 0.5
215 28 0.167427 0.088015 0.5
743 32 0.189039 0.0630458 0.5
984 32 0.222909 0.0691188 0.5
37 29 0.200712 0.0941583 0.5
442 34 0.234012 0.101509 0.5
565 28 0.256209 0.072107 0.5
380 37 0.269642 0.102827 0.5
455 31 0.292261 0.0771254 0.5
180 32 0.32755 0.0799064 0.5
659 34 0.307264 0.107315 0.5
831 29 0.349107 0.0551076 0.5
900 26 0.342682 0.110411 0.5
860 30 0.383431 0.0624449 0.5
58 28 0.35992 0.0843232 0.5
430 33 0.400501 0.0931241 0.5
414 34 0.417808 0.0620717 0.5
509 27 0.451469 0.0524391 0.5
467 31 0.436246 0.0903787 0.5
763 33 0.469168 0.079852 0.5
649 35 0.503952 0.0728977 0.5
752 27 0.525007 0.0966753 0.5
934 26 0.489694 0.104292 0.5
715 24 0.536541 0.0685113 0.5
413 27 0.569675 0.066558 0.5
102 24 0.554776 0.0923097 0.5
241 33 0.586308 0.0983712 0.5
824 31 0.602684 0.0672663 0.5
582 29 0.636041 0.0652843 0.5
214 33 0.621415 0.0944687 0.5
52 36 0.67077 0.0640308 0.5
926 33 0.656429 0.0949694 0.5
211 21 0.690111 0.0890784 0.5
164 33 0.706505 0.0603499 0.5
746 25 0.739284 0.0566876 0.5
420 33 0.75612 0.0845698 0.5
655 29 0.723047 0.0886566 0.5
990 38 0.790672 0.0800493 0.5
940 28 0.813665 0.105553 0.5
397 32 0.860631 0.0671439 0.5
528 33 0.826412 0.0736353 0.5
569 32 0.849496 0.100305 0.5
379 27 0.881351 0.0958903 0.5
943 42 0.896822 0.0629983 0.5
998 31 0.933196 0.0658248 0.5
849 34 0.914976 0.0944073 0.5
589 25 0.998828 0.0763303 0.5
873 32 0.967875 0.0686114 0.5
328 24 0.94857 0.0931242 0.5
987 34 0.978776 0.103747 0.5
712 29 0.0293887 0.132673 0.5
393 37 0.0211434 0.166012 0.5
350 19 0.0589396 0.131619 0.5
706 32 0.0855703 0.14335 0.5
80 30 0.0571447 0.162969 0.5
694 31 0.11535 0.112926 0.5
487 30 0.147773 0.112549 0.5
811 27 0.117976 0.145705 0.5
18 39 0.153567 0.14571 0.5
227 31 0.178915 0.120664 0.5
461 32 0.211382 0.127846 0.5
608 30 0.188697 0.15332 0.5
469 35 0.223156 0.159806 0.5
511 36 0.249726 0.133978 0.5
577 35 0.287028 0.135767 0.5
809 27 0.268904 0.164324 0.5
852 33 0.325084 0.137829 0.5
71 33 0.302745 0.165577 0.5
536 28 0.373915 0.111032 0.5
203 38 0.36159 0.141821 0.5
14 29 0.396869 0.13222 0.5
31 24 0.387578 0.162211 0.5
409 30 0.427706 0.122135 0.5
769 29 0.458291 0.112465 0.5
629 26 0.451007 0.146205 0.5
953 29 0.420012 0.154016 0.5
961 30 0.514966 0.127488 0.5
798 34 0.482179 0.135891 0.5
114 26 0.506186 0.157896 0.5
592 26 0.475387 0.167498 0.5
671 26 0.545222 0.119486 0.5
445 34 0.573657 0.135336 0.5
898 28 0.537722 0.149142 0.5
425 32 0.606496 0.127081 0.5
301 35 0.640349 0.12532 0.5
372 27 0.597223 0.159033 0.5
452 33 0.629921 0.156919 0.5
250 30 0.674863 0.123532 0.5
838 24 0.662688 0.154798 0.5
744 33 0.693771 0.151151 0.5
158 34 0.706156 0.117788 0.5
912 37 0.741764 0.117661 0.5
75 23 0.725951 0.147511 0.5
737 33 0.747949 0.170364 0.5
994 29 0.765664 0.142479 0.5
485 34 0.77663 0.112421 0.5
561 31 0.798993 0.136522 0.5
138 31 0.820177 0.162378 0.5
365 28 0.786199 0.166659 0.5
208 31 0.869328 0.127097 0.5
312 37 0.83554 0.132114 0.5
676 31 0.857876 0.15857 0.5
644 30 0.903279 0.126451 0.5
115 24 0.928055 0.146183 0.5
332 27 0.888085 0.153271 0.5
648 26 0.934688 0.118337 0.5
538 33 0.996749 0.134994 0.5
272 35 0.961156 0.137065 0.5
210 28 0.00347046 0.196178 0.5
249 33 0.0407266 0.195045 0.5
762 32 0.022281 0.224407 0.5
33 30 0.0549991 0.224925 0.5
513 28 0.0986353 0.171608 0.5
754 31 0.0742747 0.194303 0.5
170 33 0.111753 0.200526 0.5
279 32 0.132786 0.174559 0.5
290 31 0.146215 0.204776 0.5
448 32 0.167109 0.17918 0.5
597 25 0.199162 0.184413 0.5
488 27 0.181792 0.209495 0.5
216 40 0.21576 0.213623 0.5
851 31 0.243606 0.1858 0.5
517 35 0.283486 0.197239 0.5
280 37 0.254003 0.218652 0.5
389 38 0.340811 0.17207 0.5
169 23 0.316329 0.193988 0.5
847 36 0.343624 0.210306 0.5
756 29 0.312256 0.224541 0.5
385 31 0.371914 0.188582 0.5
274 28 0.40486 0.220195 0.5
374 34 0.407026 0.186825 0.5
699 24 0.440448 0.176074 0.5
701 36 0.466221 0.199438 0.5
753 32 0.434403 0.210006 0.5
834 31 0.499527 0.188215 0.5
646 28 0.53056 0.179574 0.5
845 28 0.526163 0.209835 0.5
492 38 0.495036 0.224171 0.5
580 28 0.562178 0.167896 0.5
104 26 0.55463 0.198524 0.5
788 33 0.586962 0.189555 0.5
57 32 0.620919 0.188814 0.5
874 36 0.602896 0.2198 0.5
497 32 0.640917 0.214528 0.5
749 28 0.652781 0.183347 0.5
603 29 0.683677 0.181747 0.5
72 26 0.672718 0.211761 0.5
797 31 0.704553 0.207666 0.5
91 26 0.716066 0.177317 0.5
799 28 0.736289 0.201668 0.5
742 31 0.756259 0.226972 0.5
704 34 0.77018 0.19668 0.5
382 36 0.805953 0.194028 0.5
416 33 0.791489 0.226474 0.5
768 31 0.841784 0.186973 0.5
986 29 0.82852 0.21778 0.5
611 35 0.864095 0.211185 0.5
938 24 0.878883 0.182677 0.5
857 38 0.913538 0.175732 0.5
155 30 0.899156 0.20655 0.5
806 28 0.937801 0.200406 0.5
964 33 0.984669 0.167466 0.5
378 31 0.95075 0.17145 0.5
920 29 0.969582 0.198066 0.5
456 31 0.988336 0.225598 0.5
377 28 0.00679453 0.25292 0.5
700 27 0.0383137 0.254347 0.5
751 25 0.0195049 0.282224 0.5
923 33 0.0506515 0.285429 0.5
939 36 0.088842 0.22672 0.5
34 31 0.0697195 0.25549 0.5
202 37 0.104078 0.259709 0.5
705 29 0.124224 0.230546 0.5
429 28 0.159514 0.233873 0.5
933 29 0.137973 0.258595 0.5
24 30 0.170383 0.263665 0.5
260 29 0.148658 0.288363 0.5
28 28 0.191732 0.240923 0.5
881 27 0.2233 0.248657 0.5
367 28 0.203331 0.272872 0.5
673 28 0.254744 0.251265 0.5
996 27 0.28013 0.26894 0.5
167 27 0.283082 0.236828 0.5
770 39 0.240222 0.282125 0.5
325 32 0.340496 0.244858 0.5
935 26 0.308792 0.256545 0.5
888 28 0.335651 0.276198 0.5
239 34 0.372653 0.2295 0.5
263 29 0.367497 0.26351 0.5
927 32 0.400827 0.252952 0.5
96 30 0.39294 0.285686 0.5
914 26 0.432784 0.244596 0.5
651 25 0.457042 0.263732 0.5
493 26 0.461298 0.233352 0.5
144 33 0.425579 0.276243 0.5
871 29 0.487395 0.256543 0.5
464 30 0.514136 0.27463 0.5
666 32 0.525472 0.242536 0.5
957 35 0.567739 0.228132 0.5
508 28 0.553836 0.259007 0.5
761 29 0.573911 0.282974 0.5
358 28 0.62589 0.244088 0.5
440 38 0.592831 0.253929 0.5
265 39 0.638299 0.27553 0.5
103 32 0.65829 0.242832 0.5
795 35 0.692277 0.240509 0.5
637 28 0.676891 0.270998 0.5
963 27 0.725211 0.23278 0.5
12 34 0.747816 0.258823 0.5
855 31 0.71056 0.268396 0.5
360 20 0.784067 0.25506 0.5
225 34 0.805501 0.283519 0.5
745 34 0.817866 0.250941 0.5
307 32 0.771206 0.283978 0.5
677 37 0.853025 0.244584 0.5
615 28 0.839512 0.275571 0.5
346 29 0.876879 0.269631 0.5
270 31 0.887998 0.237232 0.5
310 33 0.921722 0.230624 0.5
353 29 0.908838 0.263315 0.5
68 31 0.95645 0.228339 0.5
803 31 0.941591 0.257136 0.5
97 24 0.973575 0.254855 0.5
936 26 0.990494 0.280044 0.5
574 23 0.960935 0.28023 0.5
130 29 0.0332007 0.312209 0.5
733 36 0.0170169 0.340812 0.5
245 23 0.0489806 0.345244 0.5
171 33 0.0847334 0.287648 0.5
199 35 0.0656466 0.317185 0.5
596 28 0.0990502 0.319699 0.5
848 29 0.0811393 0.345846 0.5
259 22 0.118255 0.288737 0.5
917 37 0.133239 0.318915 0.5
555 30 0.172346 0.326624 0.5
132 31 0.1802 0.295434 0.5
66 31 0.212 0.304581 0.5
124 28 0.205615 0.33725 0.5
802 34 0.272829 0.301703 0.5
84 28 0.241244 0.317233 0.5
54 29 0.269718 0.33723 0.5
991 32 0.30461 0.288859 0.5
823 29 0.332236 0.307784 0.5
293 35 0.300838 0.323561 0.5
564 27 0.330729 0.33926 0.5
621 28 0.362005 0.294437 0.5
841 31 0.359738 0.325962 0.5
995 26 0.388117 0.339451 0.5
707 43 0.415457 0.314107 0.5
457 36 0.453235 0.297434 0.5
90 38 0.449753 0.334864 0.5
434 25 0.484422 0.287653 0.5
94 26 0.5094 0.304475 0.5
674 28 0.481136 0.319095 0.5
950 31 0.508347 0.337301 0.5
944 29 0.542228 0.289867 0.5
424 24 0.565474 0.310973 0.5
174 31 0.536746 0.322241 0.5
566 31 0.567715 0.341279 0.5
112 26 0.604925 0.286505 0.5
305 30 0.629669 0.30895 0.5
383 34 0.595945 0.319785 0.5
101 28 0.621546 0.340452 0.5
988 21 0.648148 0.331829 0.5
779 36 0.663245 0.30263 0.5
832 39 0.699492 0.307029 0.5
892 24 0.675601 0.332855 0.5
653 25 0.701422 0.342317 0.5
571 41 0.735803 0.294068 0.5
529 29 0.729994 0.328337 0.5
540 34 0.765492 0.31862 0.5
85 24 0.798561 0.315539 0.5
530 29 0.788823 0.344202 0.5
363 26 0.820013 0.33831 0.5
661 30 0.864104 0.299251 0.5
952 33 0.830492 0.306798 0.5
859 38 0.854118 0.333092 0.5
106 22 0.898743 0.294672 0.5
776 31 0.888577 0.324815 0.5
736 26 0.920714 0.32306 0.5
901 36 0.930641 0.290503 0.5
686 30 0.99845 0.310716 0.5
618 35 0.959102 0.313617 0.5
652 39 0.980008 0.342431 0.5
252 34 0.0304868 0.372725 0.5
345 32 0.0459982 0.402766 0.5
662 32 0.0123831 0.402432 0.5
87 29 0.0632773 0.373518 0.5
369 34 0.097303 0.375914 0.5
886 28 0.0783529 0.401208 0.5
766 29 0.113962 0.34673 0.5
548 35 0.148643 0.352576 0.5
428 28 0.129224 0.381708 0.5
628 31 0.161433 0.384613 0.5
951 30 0.182877 0.359039 0.5
120 30 0.216992 0.368309 0.5
750 32 0.194945 0.392039 0.5
140 30 0.236596 0.395724 0.5
966 26 0.239954 0.347417 0.5
376 38 0.264762 0.371697 0.5
427 31 0.29622 0.357439 0.5
897 31 0.326169 0.371338 0.5
837 32 0.298075 0.390965 0.5
273 28 0.356298 0.358041 0.5
331 27 0.385875 0.370043 0.5
856 28 0.355398 0.388791 0.5
4 32 0.417675 0.352651 0.5
73 31 0.448071 0.369985 0.5
607 36 0.418886 0.387612 0.5
368 32 0.479347 0.353774 0.5
645 32 0.50681 0.372985 0.5
740 33 0.476979 0.388427 0.5
658 35 0.537396 0.356564 0.5
734 32 0.567303 0.375911 0.5
491 30 0.536089 0.390352 0.5
568 31 0.595594 0.358808 0.5
402 36 0.627971 0.374439 0.5
421 33 0.596596 0.393245 0.5
166 30 0.660737 0.358593 0.5
317 36 0.691588 0.37487 0.5
329 33 0.658795 0.392521 0.5
176 32 0.725246 0.362952 0.5
165 24 0.748372 0.38485 0.5
100 33 0.75543 0.35092 0.5
431 31 0.71936 0.395539 0.5
141 32 0.811297 0.368542 0.5
264 31 0.777412 0.374571 0.5
6 17 0.76977 0.402478 0.5
521 32 0.798832 0.400279 0.5
375 30 0.844144 0.365866 0.5
443 28 0.831629 0.396307 0.5
364 32 0.863318 0.392265 0.5
879 33 0.877187 0.359904 0.5
313 33 0.910869 0.353106 0.5
614 29 0.932336 0.377561 0.5
519 25 0.897662 0.384887 0.5
983 31 0.943531 0.346049 0.5
233 28 0.998746 0.371294 0.5
822 34 0.964893 0.374199 0.5
698 23 0.982199 0.39872 0.5
729 24 0.0176303 0.434259 0.5
672 31 0.0499654 0.435096 0.5
544 28 0.0328851 0.461471 0.5
326 41 0.0862862 0.434576 0.5
2 29 0.109689 0.408211 0.5
288 35 0.0656679 0.465663 0.5
787 27 0.141942 0.410162 0.5
407 27 0.121896 0.436756 0.5
929 33 0.15563 0.441455 0.5
885 26 0.172348 0.413945 0.5
812 28 0.212683 0.418032 0.5
792 31 0.189508 0.442365 0.5
636 24 0.218825 0.446678 0.5
786 37 0.269381 0.409103 0.5
405 29 0.242187 0.428348 0.5
720 29 0.270444 0.442831 0.5
783 27 0.243922 0.460464 0.5
815 30 0.300649 0.423812 0.5
162 31 0.328738 0.40638 0.5
785 33 0.330765 0.441009 0.5
902 30 0.299971 0.457325 0.5
403 26 0.356735 0.421241 0.5
36 36 0.386253 0.404131 0.5
361 32 0.388772 0.439992 0.5
400 34 0.360893 0.457831 0.5
977 35 0.419238 0.422619 0.5
794 31 0.449009 0.406267 0.5
664 31 0.446353 0.442677 0.5
458 35 0.417173 0.458733 0.5
333 30 0.476633 0.423642 0.5
949 33 0.505803 0.407304 0.5
228 28 0.505092 0.43998 0.5
692 28 0.474899 0.457329 0.5
232 28 0.533686 0.424015 0.5
500 39 0.566457 0.412168 0.5
105 31 0.53443 0.455877 0.5
348 28 0.56581 0.447684 0.5
206 31 0.630013 0.409248 0.5
887 32 0.59974 0.427208 0.5
476 23 0.629625 0.440309 0.5
251 31 0.597428 0.460413 0.5
278 33 0.689197 0.410317 0.5
121 32 0.658724 0.425684 0.5
309 33 0.688869 0.44462 0.5
21 31 0.660276 0.459999 0.5
821 27 0.745509 0.414095 0.5
478 29 0.718749 0.429609 0.5
727 35 0.748252 0.447357 0.5
136 36 0.781631 0.431194 0.5
47 31 0.810471 0.456161 0.5
426 24 0.815217 0.425064 0.5
679 40 0.849683 0.428111 0.5
44 33 0.873775 0.453966 0.5
39 27 0.84084 0.464063 0.5
557 36 0.885568 0.417569 0.5
27 33 0.919518 0.409567 0.5
283 35 0.90891 0.443798 0.5
244 29 0.953133 0.405694 0.5
723 29 1.00052 0.46083 0.5
545 37 0.982198 0.430185 0.5
606 33 0.944966 0.437634 0.5
533 34 0.967103 0.464546 0.5
480 27 0.0194502 0.490283 0.5
807 24 0.0493389 0.492667 0.5
971 22 0.0330517 0.517679 0.5
512 31 0.00438337 0.520681 0.5
196 31 0.102351 0.467171 0.5
41 31 0.0827537 0.493571 0.5
781 29 0.062115 0.520489 0.5
716 30 0.115807 0.498276 0.5
542 32 0.135866 0.467237 0.5
336 35 0.150395 0.497699 0.5
179 31 0.172567 0.471277 0.5
534 33 0.209138 0.476253 0.5
687 32 0.187314 0.501981 0.5
967 25 0.217829 0.508203 0.5
965 30 0.270835 0.476882 0.5
8 26 0.241644 0.490877 0.5
882 35 0.268918 0.510227 0.5
201 33 0.331338 0.474847 0.5
728 33 0.301166 0.493849 0.5
693 29 0.331497 0.50774 0.5
702 28 0.386842 0.47709 0.5
690 27 0.359428 0.491812 0.5
668 24 0.388448 0.507312 0.5
556 29 0.448809 0.476604 0.5
875 33 0.418026 0.493966 0.5
709 30 0.44935 0.509653 0.5
349 39 0.503487 0.474659 0.5
593 26 0.474545 0.492783 0.5
504 37 0.506109 0.510983 0.5
581 24 0.57175 0.478516 0.5
175 41 0.53928 0.491059 0.5
626 34 0.569828 0.510193 0.5
665 39 0.629376 0.47387 0.5
866 29 0.600176 0.4939 0.5
587 35 0.629505 0.511504 0.5
531 27 0.688919 0.478326 0.5
83 31 0.659764 0.493308 0.5
42 39 0.68797 0.513416 0.5
70 28 0.717842 0.46258 0.5
277 27 0.747782 0.480141 0.5
125 30 0.7186 0.495162 0.5
910 30 0.744915 0.516414 0.5
625 32 0.777867 0.465495 0.5
578 29 0.802203 0.486346 0.5
217 32 0.773435 0.49964 0.5
980 28 0.802936 0.517093 0.5
829 26 0.864578 0.4865 0.5
35 36 0.832756 0.498354 0.5
156 26 0.857951 0.518084 0.5
177 25 0.886524 0.508938 0.5
553 32 0.897305 0.47775 0.5
960 38 0.932449 0.470511 0.5
191 36 0.91939 0.505494 0.5
575 32 0.986033 0.491994 0.5
911 29 0.954242 0.497482 0.5
725 37 0.0327829 0.550322 0.5
187 33 0.0168331 0.583032 0.5
748 34 0.050945 0.58304 0.5
962 43 0.0960945 0.527892 0.5
95 32 0.0682648 0.553525 0.5
579 28 0.112853 0.558861 0.5
26 38 0.13363 0.52906 0.5
641 30 0.168882 0.529667 0.5
959 28 0.144512 0.561789 0.5
586 40 0.178517 0.562783 0.5
631 30 0.200993 0.533049 0.5
793 29 0.214967 0.562675 0.5
410 38 0.238082 0.534097 0.5
116 24 0.273225 0.542161 0.5
616 30 0.245928 0.567486 0.5
532 29 0.276831 0.57342 0.5
826 30 0.300806 0.526122 0.5
51 31 0.331726 0.53874 0.5
594 33 0.304825 0.559722 0.5
186 31 0.332851 0.578672 0.5
303 29 0.362365 0.52409 0.5
446 29 0.388829 0.539808 0.5
928 32 0.358804 0.557213 0.5
77 22 0.386371 0.569324 0.5
357 35 0.4216 0.529569 0.5
412 29 0.41613 0.562427 0.5
384 40 0.450462 0.554264 0.5
893 30 0.476466 0.527772 0.5
814 31 0.51246 0.543839 0.5
765 25 0.484815 0.558969 0.5
560 29 0.509992 0.576344 0.5
296 30 0.540225 0.526349 0.5
730 31 0.568557 0.544313 0.5
771 26 0.540722 0.558977 0.5
864 26 0.566681 0.576017 0.5
133 31 0.599346 0.528191 0.5
1000 35 0.627902 0.547119 0.5
619 32 0.597651 0.564131 0.5
915 27 0.631803 0.580509 0.5
805 28 0.658278 0.530645 0.5
157 32 0.686907 0.547186 0.5
311 28 0.658778 0.565292 0.5
137 33 0.716748 0.533798 0.5
9 28 0.746529 0.548672 0.5
688 27 0.722023 0.567527 0.5
267 27 0.776099 0.531908 0.5
590 26 0.80187 0.54939 0.5
17 27 0.77486 0.563217 0.5
110 30 0.801297 0.582184 0.5
282 28 0.831482 0.532662 0.5
973 23 0.880025 0.538347 0.5
338 29 0.829133 0.564378 0.5
418 33 0.860864 0.563771 0.5
974 27 0.908722 0.53693 0.5
343 33 0.927216 0.562407 0.5
438 28 0.894028 0.56441 0.5
777 27 0.940082 0.532422 0.5
713 36 0.996256 0.554169 0.5
294 30 0.971317 0.523101 0.5
503 36 0.961041 0.55791 0.5
135 29 0.0337478 0.613799 0.5
764 36 0.0879421 0.582781 0.5
359 33 0.0690417 0.61312 0.5
22 33 0.102784 0.614925 0.5
600 35 0.125234 0.589481 0.5
60 27 0.159515 0.591047 0.5
422 30 0.137369 0.619919 0.5
833 32 0.172329 0.622511 0.5
234 33 0.19217 0.59562 0.5
563 35 0.224979 0.596418 0.5
154 29 0.206509 0.626429 0.5
524 33 0.258536 0.59972 0.5
111 29 0.23947 0.627427 0.5
441 30 0.270724 0.631063 0.5
541 32 0.302866 0.593845 0.5
506 36 0.336339 0.613439 0.5
576 32 0.305377 0.628588 0.5
20 34 0.365902 0.592762 0.5
275 32 0.387868 0.617708 0.5
92 28 0.407147 0.591744 0.5
406 30 0.439728 0.589279 0.5
126 31 0.421964 0.619142 0.5
306 28 0.453886 0.619476 0.5
767 38 0.475972 0.590786 0.5
62 29 0.50968 0.607633 0.5
958 24 0.483778 0.623504 0.5
549 30 0.53949 0.592048 0.5
347 42 0.571021 0.609376 0.5
324 37 0.539372 0.628523 0.5
23 28 0.604477 0.59663 0.5
323 30 0.633192 0.612123 0.5
595 34 0.600566 0.630706 0.5
281 26 0.660843 0.596825 0.5
318 34 0.690031 0.58206 0.5
118 27 0.691997 0.615395 0.5
496 30 0.662855 0.629517 0.5
870 30 0.721018 0.598843 0.5
772 32 0.750407 0.584068 0.5
584 26 0.748038 0.614847 0.5
573 30 0.72171 0.630962 0.5
289 24 0.77615 0.60343 0.5
760 27 0.804806 0.614724 0.5
853 21 0.779007 0.63238 0.5
999 35 0.834124 0.598011 0.5
341 26 0.86152 0.61599 0.5
295 33 0.835284 0.633587 0.5
471 25 0.879402 0.591093 0.5
381 32 0.912287 0.5917 0.5
119 29 0.926609 0.621988 0.5
968 36 0.893618 0.62315 0.5
789 28 1.00089 0.612285 0.5
188 31 0.982419 0.58598 0.5
585 32 0.947003 0.5904 0.5
632 30 0.967402 0.615729 0.5
818 26 0.951274 0.64167 0.5
790 32 0.0135374 0.641282 0.5
918 38 0.0279937 0.673364 0.5
827 39 0.0511156 0.64448 0.5
854 28 0.0862065 0.642305 0.5
514 26 0.0618533 0.676584 0.5
872 37 0.094647 0.675186 0.5
791 27 0.118047 0.645504 0.5
447 36 0.152302 0.649636 0.5
151 36 0.130969 0.67734 0.5
465 28 0.166068 0.679397 0.5
925 24 0.185295 0.651529 0.5
543 33 0.218624 0.656728 0.5
972 29 0.199289 0.683181 0.5
475 27 0.231261 0.686504 0.5
722 33 0.250908 0.658449 0.5
40 38 0.287684 0.661413 0.5
287 35 0.265871 0.690742 0.5
10 29 0.33247 0.646079 0.5
985 26 0.318093 0.672774 0.5
535 26 0.297481 0.695415 0.5
620 28 0.349012 0.672991 0.5
300 35 0.365976 0.642712 0.5
29 29 0.403266 0.647774 0.5
7 34 0.38201 0.674585 0.5
956 33 0.437458 0.650708 0.5
152 33 0.416499 0.677531 0.5
117 31 0.450058 0.683149 0.5
11 36 0.472848 0.655677 0.5
796 27 0.508607 0.639606 0.5
479 22 0.504606 0.668715 0.5
25 32 0.483115 0.690701 0.5
128 31 0.570169 0.648134 0.5
266 34 0.537818 0.664299 0.5
820 30 0.577804 0.68101 0.5
394 30 0.549483 0.695655 0.5
691 37 0.632877 0.646057 0.5
209 27 0.604089 0.664035 0.5
404 31 0.634078 0.680628 0.5
755 26 0.606535 0.695401 0.5
64 31 0.693346 0.647441 0.5
904 33 0.66313 0.662853 0.5
981 30 0.692174 0.682071 0.5
432 29 0.663373 0.696345 0.5
46 33 0.750269 0.647369 0.5
711 34 0.721249 0.665729 0.5
522 35 0.749963 0.684552 0.5
784 28 0.805347 0.648107 0.5
43 34 0.779386 0.666194 0.5
867 36 0.810354 0.682954 0.5
778 25 0.868138 0.645529 0.5
269 31 0.8422 0.667313 0.5
134 33 0.874113 0.67902 0.5
601 31 0.899508 0.656234 0.5
916 26 0.931028 0.663545 0.5
271 30 0.908354 0.688386 0.5
869 32 0.940016 0.694645 0.5
862 26 0.994545 0.673538 0.5
212 26 0.982451 0.644411 0.5
633 30 0.963161 0.669625 0.5
190 38 0.976001 0.701685 0.5
546 32 0.0104224 0.706577 0.5
398 36 0.044892 0.704665 0.5
401 26 0.0279054 0.732304 0.5
450 25 0.0143277 0.758657 0.5
194 31 0.0789214 0.705999 0.5
684 26 0.0611791 0.732975 0.5
19 29 0.0943118 0.733676 0.5
830 29 0.112327 0.705372 0.5
1 27 0.146597 0.706677 0.5
680 29 0.127188 0.73562 0.5
460 34 0.159799 0.737762 0.5
204 33 0.178968 0.70805 0.5
472 27 0.213094 0.711538 0.5
714 29 0.194543 0.737255 0.5
804 29 0.227272 0.741888 0.5
550 26 0.244455 0.715837 0.5
127 24 0.286202 0.722697 0.5
286 31 0.261437 0.741621 0.5
640 36 0.293733 0.754384 0.5
948 35 0.331542 0.702564 0.5
32 23 0.314809 0.730088 0.5
717 30 0.347533 0.731121 0.5
388 27 0.363515 0.702629 0.5
45 29 0.395456 0.706977 0.5
634 20 0.376924 0.734904 0.5
235 34 0.408042 0.739229 0.5
423 33 0.429314 0.70979 0.5
226 31 0.462612 0.715833 0.5
470 30 0.44097 0.740986 0.5
732 29 0.473324 0.746665 0.5
65 31 0.516836 0.696732 0.5
371 29 0.493629 0.722813 0.5
758 24 0.522915 0.72805 0.5
184 27 0.552396 0.727357 0.5
108 33 0.581803 0.714882 0.5
327 31 0.539724 0.755906 0.5
816 32 0.572603 0.752026 0.5
908 23 0.631261 0.712376 0.5
638 44 0.610312 0.741085 0.5
297 30 0.645811 0.753049 0.5
49 28 0.687719 0.714731 0.5
602 26 0.659103 0.72586 0.5
185 35 0.680965 0.749454 0.5
334 33 0.718146 0.702952 0.5
635 24 0.747979 0.716849 0.5
322 24 0.710704 0.733837 0.5
123 20 0.737393 0.741556 0.5
997 34 0.779123 0.705096 0.5
392 30 0.811015 0.717891 0.5
50 32 0.769624 0.739439 0.5
630 31 0.80197 0.74838 0.5
93 40 0.84562 0.703872 0.5
861 34 0.835872 0.741914 0.5
654 26 0.868816 0.74449 0.5
109 40 0.88536 0.714709 0.5
675 28 0.920129 0.720352 0.5
435 25 0.899622 0.74568 0.5
285 30 0.931671 0.751023 0.5
231 31 0.953593 0.727261 0.5
906 37 0.989819 0.737042 0.5
240 29 0.962397 0.759486 0.5
946 30 0.0449371 0.759614 0.5
643 28 0.0277184 0.785599 0.5
567 29 0.0411835 0.814138 0.5
801 27 0.0597526 0.788985 0.5
617 33 0.0776448 0.761692 0.5
160 29 0.0914934 0.7906 0.5
205 28 0.110778 0.762206 0.5
624 25 0.141609 0.765702 0.5
610 30 0.123647 0.790352 0.5
942 26 0.156522 0.793471 0.5
145 26 0.172357 0.768042 0.5
129 35 0.205801 0.768272 0.5
344 23 0.186687 0.795678 0.5
82 33 0.220817 0.799513 0.5
739 40 0.243858 0.772842 0.5
554 29 0.276127 0.782277 0.5
320 33 0.254426 0.80648 0.5
913 29 0.286352 0.812297 0.5
99 26 0.327392 0.756238 0.5
449 27 0.3089 0.785867 0.5
13 31 0.341275 0.788832 0.5
399 33 0.359334 0.761499 0.5
246 33 0.391341 0.7706 0.5
417 26 0.372697 0.79678 0.5
370 36 0.406092 0.801811 0.5
486 36 0.427477 0.772228 0.5
883 35 0.461952 0.778611 0.5
284 34 0.440594 0.807815 0.5
79 36 0.505549 0.755178 0.5
840 27 0.493678 0.786412 0.5
800 24 0.47384 0.810914 0.5
337 29 0.525008 0.785729 0.5
932 28 0.558833 0.782767 0.5
978 24 0.541513 0.811992 0.5
362 32 0.573498 0.811626 0.5
520 31 0.589859 0.779472 0.5
198 34 0.622644 0.778088 0.5
604 23 0.606344 0.806294 0.5
850 25 0.637272 0.807734 0.5
454 31 0.657202 0.784055 0.5
195 36 0.69208 0.783537 0.5
292 29 0.672516 0.812531 0.5
163 26 0.717754 0.761571 0.5
678 30 0.750107 0.767079 0.5
354 34 0.725719 0.792751 0.5
599 33 0.759795 0.799114 0.5
605 25 0.780643 0.773735 0.5
695 23 0.8098 0.778629 0.5
474 28 0.793514 0.803646 0.5
56 28 0.827845 0.804577 0.5
142 31 0.842546 0.775216 0.5
254 32 0.876083 0.775613 0.5
299 26 0.859782 0.804132 0.5
683 33 0.909708 0.777112 0.5
726 30 0.893112 0.80509 0.5
489 23 0.924128 0.807121 0.5
696 28 0.941754 0.782016 0.5
237 34 1.00222 0.807525 0.5
477 31 0.990106 0.776467 0.5
868 37 0.967373 0.803117 0.5
342 38 0.0174343 0.84083 0.5
647 30 0.05342 0.843882 0.5
992 36 0.0332676 0.872744 0.5
351 31 0.0736008 0.818628 0.5
718 22 0.106198 0.816353 0.5
207 31 0.0868812 0.84853 0.5
248 26 0.117044 0.844941 0.5
74 34 0.138992 0.820764 0.5
828 29 0.147916 0.851894 0.5
970 24 0.170973 0.819134 0.5
989 34 0.180364 0.848749 0.5
48 26 0.200789 0.824734 0.5
315 29 0.21236 0.855477 0.5
907 28 0.232779 0.831413 0.5
865 23 0.266212 0.835961 0.5
439 28 0.24425 0.860993 0.5
213 31 0.275863 0.865633 0.5
53 34 0.319847 0.816407 0.5
903 31 0.298473 0.84194 0.5
657 26 0.330562 0.848268 0.5
387 29 0.309942 0.87183 0.5
86 30 0.353226 0.822923 0.5
572 33 0.385671 0.83012 0.5
667 27 0.363473 0.855142 0.5
291 27 0.396464 0.862276 0.5
547 33 0.418646 0.836643 0.5
437 32 0.454468 0.839524 0.5
386 35 0.434338 0.868141 0.5
526 30 0.468509 0.871068 0.5
411 31 0.509175 0.813356 0.5
69 34 0.489113 0.839838 0.5
59 25 0.5241 0.840996 0.5
481 30 0.504234 0.871161 0.5
507 29 0.55423 0.839381 0.5
937 32 0.538937 0.86879 0.5
808 27 0.572706 0.868524 0.5
321 31 0.586791 0.841029 0.5
159 33 0.619405 0.834581 0.5
979 34 0.642116 0.861811 0.5
3 33 0.607808 0.867944 0.5
773 22 0.651229 0.832616 0.5
30 32 0.680896 0.844715 0.5
527 29 0.704799 0.821379 0.5
335 33 0.736624 0.827336 0.5
373 34 0.713892 0.853952 0.5
774 33 0.750161 0.858375 0.5
570 33 0.772494 0.83144 0.5
147 30 0.807463 0.831951 0.5
463 27 0.788478 0.858905 0.5
308 27 0.819963 0.862261 0.5
276 34 0.840578 0.834804 0.5
98 34 0.876002 0.833833 0.5
221 24 0.861279 0.861305 0.5
876 31 0.910833 0.83413 0.5
319 30 0.893128 0.862577 0.5
495 32 0.928875 0.862438 0.5
880 38 0.946171 0.8321 0.5
468 28 0.980559 0.834404 0.5
149 28 0.963004 0.861422 0.5
724 38 0.996261 0.870136 0.5
200 34 0.0146594 0.901451 0.5
969 29 0.0497285 0.904502 0.5
238 26 0.0292747 0.930669 0.5
131 28 0.0669236 0.874436 0.5
747 25 0.0977549 0.878843 0.5
219 28 0.0817865 0.905929 0.5
236 39 0.117273 0.907409 0.5
894 28 0.126493 0.874933 0.5
539 31 0.158787 0.882416 0.5
261 36 0.154124 0.917103 0.5
909 28 0.190988 0.878958 0.5
775 33 0.222545 0.887401 0.5
466 40 0.191358 0.914628 0.5
518 30 0.226926 0.920434 0.5
433 26 0.255402 0.891121 0.5
419 33 0.285815 0.898038 0.5
947 33 0.260719 0.922865 0.5
552 30 0.342806 0.878924 0.5
670 33 0.31979 0.903508 0.5
884 35 0.297145 0.929999 0.5
316 37 0.353281 0.913385 0.5
352 28 0.376231 0.887412 0.5
954 25 0.386257 0.91541 0.5
627 32 0.40811 0.892148 0.5
15 33 0.453523 0.900502 0.5
5 33 0.426988 0.920807 0.5
494 24 0.45587 0.932747 0.5
189 16 0.485857 0.893824 0.5
825 35 0.522065 0.900322 0.5
391 26 0.483195 0.919776 0.5
735 28 0.511559 0.932467 0.5
256 33 0.557248 0.897214 0.5
192 35 0.545075 0.928994 0.5
598 33 0.57863 0.925232 0.5
453 26 0.590488 0.895217 0.5
395 28 0.63488 0.892445 0.5
817 35 0.613472 0.919936 0.5
302 27 0.65106 0.92069 0.5
268 41 0.672965 0.879666 0.5
562 36 0.68469 0.915179 0.5
681 25 0.70658 0.885641 0.5
810 31 0.738197 0.889709 0.5
76 27 0.719618 0.916212 0.5
899 24 0.751648 0.919833 0.5
975 28 0.770379 0.88462 0.5
183 28 0.801257 0.887733 0.5
484 33 0.784676 0.916004 0.5
501 34 0.820609 0.914828 0.5
759 35 0.841442 0.886823 0.5
780 29 0.875063 0.890112 0.5
436 31 0.854341 0.918219 0.5
88 39 0.911066 0.893799 0.5
922 35 0.887962 0.920989 0.5
656 23 0.920382 0.925007 0.5
612 28 0.995657 0.927217 0.5
839 28 0.946994 0.89038 0.5
931 30 0.978161 0.901352 0.5
878 32 0.951224 0.922439 0.5
515 29 0.0628196 0.935047 0.5
697 35 0.0232533 0.986999 0.5
502 26 0.0424231 0.960036 0.5
613 28 0.01059 0.955257 0.5
710 36 0.0580431 0.990524 0.5
889 28 0.0781128 0.962309 0.5
642 31 0.096213 0.935687 0.5
67 30 0.111275 0.966657 0.5
516 38 0.147812 0.968804 0.5
161 28 0.128825 0.939511 0.5
172 22 0.173512 0.945621 0.5
462 29 0.217257 0.978885 0.5
721 28 0.184783 0.972466 0.5
490 31 0.205223 0.948059 0.5
247 25 0.251846 0.982182 0.5
731 34 0.27249 0.955444 0.5
61 32 0.238144 0.952439 0.5
623 35 0.284402 0.987508 0.5
222 32 0.307655 0.961335 0.5
639 23 0.329462 0.936925 0.5
559 32 0.34232 0.966523 0.5
650 29 0.379163 0.97348 0.5
330 28 0.365541 0.944947 0.5
150 37 0.400245 0.94469 0.5
122 30 0.411384 0.97677 0.5
220 30 0.443359 0.989222 0.5
218 24 0.432817 0.952603 0.5
304 28 0.461384 0.962337 0.5
682 35 0.47762 0.990765 0.5
525 27 0.511527 0.98698 0.5
890 33 0.493912 0.958355 0.5
982 32 0.529871 0.959978 0.5
355 31 0.552514 0.986104 0.5
366 29 0.584249 0.980759 0.5
537 28 0.564367 0.956068 0.5
243 32 0.61706 0.979979 0.5
16 31 0.598638 0.952308 0.5
741 33 0.632693 0.950457 0.5
877 29 0.651176 0.981116 0.5
919 25 0.684241 0.979922 0.5
153 36 0.668097 0.950715 0.5
558 31 0.70341 0.944173 0.5
669 38 0.718037 0.977017 0.5
139 29 0.751942 0.971749 0.5
955 28 0.734646 0.945421 0.5
499 21 0.767325 0.943812 0.5
609 30 0.784398 0.970553 0.5
314 31 0.802306 0.944221 0.5
719 24 0.818871 0.970852 0.5
924 26 0.850691 0.972808 0.5
588 27 0.837237 0.945421 0.5
842 28 0.867992 0.94748 0.5
945 34 0.883327 0.978927 0.5
622 29 0.919749 0.981676 0.5
843 34 0.901623 0.951422 0.5
858 32 0.936 0.952918 0.5
510 34 0.9893 0.982191 0.5
663 32 0.954567 0.981793 0.5
757 37 0.971575 0.95107 0.5
