ITEM: TIMESTEP
1270000
ITEM: NUMBER OF ATOMS
1000
ITEM: BOX BOUNDS pp pp pp
-1.6583404999999999e+01 1.6583404999999999e+01
-1.6583404999999999e+01 1.6583404999999999e+01
-5.0000000000000000e-01 5.0000000000000000e-01
ITEM: ATOMS id type xs ys zs
712 29 0.045542 0.0215155 0.5
367 28 0.0219141 0.0428118 0.5
920 28 0.015122 0.0124193 0.5
245 22 0.0490954 0.054713 0.5
124 27 0.0763211 0.0308632 0.5
736 25 0.10112 0.0113096 0.5
743 33 0.107173 0.0422068 0.5
813 30 0.134561 0.0205415 0.5
298 38 0.167353 0.0291411 0.5
754 31 0.140536 0.0530446 0.5
498 29 0.192505 0.00643846 0.5
227 32 0.222457 0.0236289 0.5
756 28 0.198227 0.0460546 0.5
455 31 0.256056 0.0376776 0.5
461 32 0.251398 0.0047966 0.5
577 36 0.284022 0.0174829 0.5
385 32 0.286077 0.0517028 0.5
809 27 0.317282 0.0270659 0.5
473 31 0.341574 0.00671004 0.5
71 34 0.348489 0.039367 0.5
608 29 0.373214 0.0169002 0.5
280 38 0.382801 0.0490998 0.5
414 34 0.405982 0.0219076 0.5
860 30 0.436603 0.0379327 0.5
847 38 0.435841 0.00145369 0.5
330 27 0.46791 0.0105626 0.5
798 34 0.470776 0.0427111 0.5
835 33 0.498614 0.0202531 0.5
430 33 0.506015 0.0543993 0.5
769 28 0.531095 0.0294221 0.5
871 28 0.553954 0.00647124 0.5
900 25 0.559587 0.0358494 0.5
898 28 0.585408 0.0183249 0.5
580 27 0.595963 0.0482267 0.5
14 28 0.616502 0.0255225 0.5
178 23 0.643531 0.00502832 0.5
699 23 0.644828 0.0323305 0.5
57 32 0.673708 0.0198795 0.5
211 18 0.679002 0.048941 0.5
138 31 0.705649 0.0302718 0.5
420 34 0.732657 0.00842855 0.5
317 37 0.738011 0.0454327 0.5
229 32 0.763532 0.0208893 0.5
768 31 0.793524 0.00263741 0.5
571 43 0.794055 0.0405042 0.5
676 31 0.824334 0.0185275 0.5
677 39 0.856028 0.000967695 0.5
382 38 0.854434 0.0384118 0.5
663 33 0.89064 0.0299558 0.5
378 31 0.920837 0.012084 0.5
938 23 0.935088 0.0408101 0.5
68 31 0.909127 0.0586723 0.5
644 30 0.954375 0.0173886 0.5
310 33 0.986232 0.0262358 0.5
700 26 0.961887 0.0489948 0.5
886 28 0.0245195 0.0741352 0.5
210 27 0.0529492 0.0838054 0.5
933 29 0.0272666 0.106674 0.5
202 39 0.05976 0.116997 0.5
369 35 0.0795304 0.0645417 0.5
80 29 0.0868454 0.0961655 0.5
448 32 0.113473 0.0767316 0.5
488 26 0.14478 0.0833333 0.5
517 36 0.172709 0.0665915 0.5
881 27 0.118026 0.108412 0.5
290 31 0.23038 0.0587151 0.5
132 31 0.204927 0.0804419 0.5
694 31 0.176708 0.102658 0.5
279 32 0.235862 0.0926326 0.5
274 27 0.211275 0.112143 0.5
81 27 0.26098 0.0726916 0.5
239 35 0.267302 0.105452 0.5
260 28 0.293375 0.0836975 0.5
442 35 0.319946 0.0608673 0.5
927 32 0.32643 0.0944767 0.5
167 27 0.300057 0.11384 0.5
991 33 0.353516 0.0730093 0.5
841 31 0.385401 0.0843987 0.5
753 32 0.358345 0.107405 0.5
181 32 0.390864 0.116343 0.5
995 25 0.414883 0.0590824 0.5
961 30 0.443667 0.0696689 0.5
856 28 0.418467 0.090144 0.5
629 25 0.448242 0.0998103 0.5
649 36 0.47698 0.0784497 0.5
492 40 0.513195 0.0915632 0.5
607 37 0.482628 0.114573 0.5
914 25 0.537036 0.0588977 0.5
104 25 0.546579 0.0863684 0.5
16 32 0.569409 0.0658715 0.5
445 35 0.578291 0.0982085 0.5
358 28 0.603301 0.0772065 0.5
845 27 0.625576 0.0562057 0.5
832 41 0.642963 0.0902371 0.5
795 36 0.611781 0.110588 0.5
102 22 0.654445 0.0578118 0.5
485 35 0.676949 0.0796614 0.5
704 35 0.679 0.116018 0.5
744 33 0.707383 0.0642911 0.5
307 33 0.711472 0.0989359 0.5
582 28 0.739901 0.0786128 0.5
208 32 0.741951 0.111813 0.5
986 28 0.767766 0.0631656 0.5
408 27 0.76703 0.0933386 0.5
797 31 0.796472 0.0765998 0.5
615 28 0.823929 0.0937144 0.5
661 30 0.795254 0.10912 0.5
456 31 0.825826 0.0587072 0.5
365 27 0.87912 0.0627499 0.5
27 33 0.852481 0.0799329 0.5
393 39 0.883987 0.0963882 0.5
106 20 0.91388 0.0875412 0.5
751 24 0.939833 0.0680434 0.5
589 24 0.939196 0.0970416 0.5
849 35 0.99221 0.060353 0.5
2 28 0.966263 0.0821536 0.5
923 33 0.995476 0.0939975 0.5
733 38 0.965955 0.11507 0.5
155 30 0.0321841 0.140237 0.5
597 24 0.00524054 0.156072 0.5
130 28 0.0394028 0.170512 0.5
705 29 0.0649073 0.151016 0.5
199 36 0.0932238 0.131206 0.5
345 32 0.0949324 0.164593 0.5
851 31 0.148243 0.118718 0.5
66 32 0.124437 0.144738 0.5
672 31 0.157254 0.151887 0.5
259 20 0.126353 0.174012 0.5
596 27 0.187735 0.131455 0.5
87 28 0.216281 0.142095 0.5
762 33 0.189188 0.163915 0.5
673 27 0.240675 0.124877 0.5
28 27 0.273951 0.138215 0.5
513 27 0.251579 0.160233 0.5
935 25 0.280031 0.169125 0.5
293 36 0.305399 0.148368 0.5
823 28 0.331049 0.125739 0.5
325 32 0.339904 0.157584 0.5
464 30 0.366849 0.137637 0.5
409 30 0.398075 0.14873 0.5
389 39 0.371702 0.171281 0.5
763 34 0.423454 0.124541 0.5
977 36 0.430345 0.162513 0.5
701 38 0.455741 0.137719 0.5
368 33 0.465264 0.173618 0.5
944 29 0.489265 0.149883 0.5
174 31 0.514796 0.128819 0.5
934 25 0.517641 0.161475 0.5
457 37 0.548201 0.119837 0.5
734 32 0.547947 0.155824 0.5
90 39 0.580802 0.135296 0.5
372 27 0.592304 0.166408 0.5
305 29 0.615027 0.145317 0.5
779 37 0.645384 0.128475 0.5
425 32 0.64987 0.163877 0.5
103 33 0.680607 0.151004 0.5
91 25 0.710439 0.133099 0.5
994 28 0.709527 0.164744 0.5
912 39 0.741054 0.147571 0.5
829 24 0.768776 0.128338 0.5
530 29 0.774284 0.162735 0.5
270 31 0.798352 0.141724 0.5
976 22 0.821749 0.123295 0.5
377 27 0.830371 0.151275 0.5
939 37 0.853397 0.11692 0.5
653 24 0.859691 0.148669 0.5
353 29 0.885349 0.132916 0.5
611 36 0.885336 0.16721 0.5
776 31 0.912676 0.116717 0.5
97 23 0.913535 0.150867 0.5
346 29 0.940679 0.137202 0.5
244 29 1.00239 0.127461 0.5
313 33 0.974963 0.148625 0.5
85 23 0.945824 0.167109 0.5
662 32 0.0407145 0.201733 0.5
24 29 0.0125684 0.18445 0.5
288 36 0.00813705 0.217498 0.5
480 26 0.0450268 0.232928 0.5
729 23 0.0665245 0.179318 0.5
936 25 0.104146 0.192826 0.5
917 39 0.0750862 0.209813 0.5
787 27 0.107808 0.225588 0.5
628 31 0.132635 0.206065 0.5
706 32 0.158021 0.185818 0.5
720 28 0.161197 0.218645 0.5
18 42 0.224702 0.179347 0.5
216 42 0.192987 0.202239 0.5
403 25 0.234664 0.213764 0.5
564 26 0.257803 0.190808 0.5
837 33 0.288715 0.198226 0.5
252 35 0.264785 0.223627 0.5
400 34 0.295821 0.237014 0.5
848 28 0.316591 0.17937 0.5
888 28 0.318551 0.213032 0.5
646 27 0.344104 0.193883 0.5
144 34 0.347431 0.23155 0.5
376 40 0.376464 0.2093 0.5
621 27 0.403475 0.182142 0.5
440 39 0.413437 0.21516 0.5
114 25 0.445254 0.198709 0.5
263 29 0.4445 0.229519 0.5
434 24 0.496572 0.180121 0.5
949 34 0.475385 0.206022 0.5
493 25 0.508137 0.206438 0.5
333 30 0.538691 0.188653 0.5
424 23 0.566342 0.178603 0.5
671 25 0.562328 0.211909 0.5
950 32 0.533967 0.223798 0.5
834 31 0.590349 0.197276 0.5
121 32 0.620189 0.180148 0.5
329 34 0.620243 0.213856 0.5
568 31 0.587967 0.231145 0.5
799 27 0.648429 0.197559 0.5
742 31 0.677277 0.185409 0.5
666 33 0.683263 0.2175 0.5
4 33 0.649585 0.230383 0.5
94 24 0.707585 0.195716 0.5
603 29 0.726061 0.219594 0.5
265 42 0.743276 0.187903 0.5
277 26 0.758042 0.218635 0.5
963 27 0.779183 0.196372 0.5
855 31 0.805596 0.17329 0.5
136 37 0.812984 0.206916 0.5
443 28 0.787236 0.225875 0.5
312 38 0.848526 0.180463 0.5
859 40 0.847277 0.218808 0.5
803 31 0.880018 0.201261 0.5
745 35 0.918609 0.182326 0.5
557 37 0.912278 0.216894 0.5
806 27 0.947327 0.204098 0.5
652 41 0.976843 0.185359 0.5
233 27 0.97343 0.220008 0.5
548 37 0.0484354 0.266348 0.5
614 29 0.0190572 0.250759 0.5
983 32 -0.000516999 0.275528 0.5
542 32 0.0798197 0.244377 0.5
929 33 0.111855 0.258971 0.5
723 28 0.083005 0.275677 0.5
407 26 0.136856 0.236841 0.5
428 28 0.148866 0.265031 0.5
171 34 0.179388 0.244621 0.5
54 29 0.209129 0.232197 0.5
429 27 0.210718 0.263623 0.5
770 41 0.179674 0.281142 0.5
140 30 0.238307 0.244781 0.5
783 26 0.267713 0.256581 0.5
616 30 0.24114 0.276905 0.5
750 32 0.271342 0.288863 0.5
273 28 0.326109 0.254031 0.5
802 35 0.299411 0.271528 0.5
555 30 0.332707 0.284189 0.5
966 25 0.357589 0.265771 0.5
96 30 0.377963 0.244336 0.5
690 26 0.385722 0.276594 0.5
707 46 0.414168 0.254038 0.5
651 24 0.448477 0.260221 0.5
73 31 0.431783 0.287698 0.5
303 28 0.464703 0.284236 0.5
664 32 0.474681 0.240618 0.5
674 27 0.505572 0.237254 0.5
500 41 0.49548 0.268835 0.5
309 34 0.525029 0.292232 0.5
491 29 0.53023 0.257744 0.5
761 29 0.558872 0.244745 0.5
497 32 0.555695 0.277581 0.5
72 25 0.585238 0.263453 0.5
21 31 0.616101 0.247822 0.5
637 28 0.644974 0.264467 0.5
887 33 0.614189 0.280925 0.5
452 33 0.675915 0.25058 0.5
988 19 0.705983 0.240274 0.5
508 28 0.703876 0.268851 0.5
874 38 0.674289 0.28499 0.5
416 34 0.735054 0.251096 0.5
225 35 0.760505 0.277908 0.5
892 23 0.728935 0.282213 0.5
360 17 0.764518 0.245804 0.5
540 35 0.78988 0.259747 0.5
426 22 0.787884 0.292615 0.5
679 43 0.820703 0.282571 0.5
264 31 0.820168 0.243792 0.5
166 30 0.852232 0.257199 0.5
901 37 0.8793 0.236072 0.5
217 32 0.882338 0.270539 0.5
12 35 0.912068 0.252641 0.5
363 25 0.910272 0.287667 0.5
521 32 0.947855 0.239087 0.5
618 36 0.940303 0.274755 0.5
165 22 0.989333 0.244291 0.5
574 22 0.96828 0.261459 0.5
41 31 0.971237 0.293403 0.5
822 35 0.0285696 0.298324 0.5
713 37 0.0248878 0.333214 0.5
686 30 0.0587601 0.32504 0.5
807 23 0.061381 0.296014 0.5
973 21 0.0853646 0.30934 0.5
326 43 0.0892128 0.342181 0.5
545 38 0.112716 0.294119 0.5
534 33 0.146458 0.29808 0.5
26 40 0.125226 0.330163 0.5
84 27 0.161478 0.327941 0.5
792 31 0.215203 0.295521 0.5
897 31 0.189777 0.315539 0.5
586 42 0.218795 0.334508 0.5
111 28 0.183688 0.347728 0.5
162 32 0.245127 0.309636 0.5
965 29 0.275777 0.320312 0.5
636 22 0.252039 0.340991 0.5
458 37 0.306238 0.307772 0.5
169 21 0.338318 0.313038 0.5
201 34 0.293233 0.34973 0.5
967 24 0.321687 0.335885 0.5
120 30 0.361803 0.29682 0.5
427 31 0.365678 0.328593 0.5
815 30 0.391013 0.307706 0.5
728 34 0.397736 0.341367 0.5
331 26 0.419556 0.31748 0.5
175 44 0.454431 0.31822 0.5
740 34 0.431228 0.349907 0.5
645 33 0.490972 0.30439 0.5
658 36 0.52262 0.326377 0.5
619 32 0.490266 0.337034 0.5
176 33 0.554462 0.31214 0.5
566 31 0.583092 0.29674 0.5
105 31 0.551898 0.347517 0.5
232 27 0.582713 0.331551 0.5
587 36 0.611718 0.315174 0.5
44 33 0.644122 0.303054 0.5
402 37 0.610505 0.350794 0.5
529 28 0.642862 0.336755 0.5
383 35 0.673775 0.322558 0.5
421 34 0.699363 0.348961 0.5
952 34 0.704334 0.306515 0.5
821 26 0.726903 0.330812 0.5
9 27 0.744455 0.305922 0.5
177 24 0.754403 0.338195 0.5
531 26 0.771986 0.315999 0.5
980 28 0.805894 0.314715 0.5
267 27 0.785885 0.342036 0.5
578 29 0.816925 0.347286 0.5
364 32 0.836216 0.319791 0.5
418 34 0.856583 0.290893 0.5
716 30 0.86958 0.320811 0.5
137 33 0.85181 0.348285 0.5
6 14 0.885832 0.298359 0.5
879 33 0.902773 0.321088 0.5
606 34 0.934612 0.30971 0.5
283 37 0.927475 0.349057 0.5
294 29 0.996179 0.313878 0.5
191 37 0.963986 0.328266 0.5
575 32 0.993056 0.348245 0.5
343 33 0.0235363 0.368769 0.5
781 29 0.0554437 0.355848 0.5
503 37 0.0521026 0.388316 0.5
764 37 0.0160001 0.404995 0.5
196 31 0.0857421 0.379928 0.5
631 30 0.118138 0.366652 0.5
791 27 0.111879 0.400732 0.5
405 29 0.149925 0.356322 0.5
154 28 0.174281 0.378589 0.5
95 32 0.142915 0.38958 0.5
60 27 0.204576 0.370396 0.5
116 22 0.195949 0.397965 0.5
925 22 0.223039 0.393434 0.5
951 29 0.236684 0.367571 0.5
885 25 0.26621 0.364289 0.5
22 34 0.290042 0.384885 0.5
563 36 0.255941 0.399374 0.5
532 28 0.319865 0.370143 0.5
668 22 0.346096 0.351176 0.5
902 30 0.347364 0.386629 0.5
875 34 0.318823 0.403542 0.5
785 33 0.373347 0.366519 0.5
36 37 0.40747 0.3781 0.5
794 31 0.378004 0.401023 0.5
228 27 0.440621 0.383447 0.5
112 25 0.464094 0.360857 0.5
593 25 0.471497 0.392204 0.5
730 32 0.495088 0.369183 0.5
581 23 0.523585 0.358216 0.5
549 30 0.501594 0.40117 0.5
306 27 0.54422 0.378665 0.5
665 42 0.579569 0.3732 0.5
404 31 0.561866 0.405088 0.5
476 21 0.612069 0.381683 0.5
864 24 0.637244 0.369713 0.5
626 35 0.595656 0.408341 0.5
406 30 0.631272 0.403791 0.5
431 31 0.667324 0.359894 0.5
893 30 0.661821 0.391703 0.5
100 33 0.708021 0.382505 0.5
688 26 0.687088 0.408826 0.5
348 27 0.733159 0.359621 0.5
101 27 0.765985 0.365654 0.5
866 28 0.74414 0.38857 0.5
590 24 0.795896 0.369203 0.5
282 27 0.774128 0.395369 0.5
910 30 0.8061 0.398035 0.5
156 24 0.831293 0.375166 0.5
141 33 0.861789 0.380424 0.5
206 32 0.838615 0.405034 0.5
999 36 0.886629 0.350961 0.5
911 29 0.895545 0.384469 0.5
375 30 0.927716 0.384652 0.5
544 28 0.963378 0.361631 0.5
188 31 0.990302 0.381008 0.5
632 30 0.958684 0.393363 0.5
971 20 0.982798 0.409345 0.5
675 27 0.0448871 0.421218 0.5
119 29 0.019958 0.438797 0.5
187 33 0.0409784 0.464112 0.5
789 28 0.00936751 0.470906 0.5
641 29 0.0766795 0.411453 0.5
714 29 0.100552 0.433929 0.5
336 36 0.0688176 0.444577 0.5
793 29 0.0950892 0.467078 0.5
972 29 0.169063 0.410773 0.5
748 35 0.135102 0.424327 0.5
962 47 0.131697 0.464968 0.5
600 36 0.165802 0.445947 0.5
882 36 0.196699 0.429315 0.5
812 27 0.228661 0.420741 0.5
594 33 0.223835 0.452565 0.5
186 31 0.192635 0.46613 0.5
179 31 0.254587 0.437838 0.5
786 38 0.287179 0.42002 0.5
410 40 0.285277 0.45774 0.5
357 37 0.318186 0.440765 0.5
709 30 0.351248 0.425851 0.5
361 33 0.349734 0.459754 0.5
384 42 0.382275 0.444984 0.5
296 30 0.408408 0.416605 0.5
504 39 0.44367 0.416655 0.5
65 31 0.424148 0.445572 0.5
62 28 0.456949 0.449571 0.5
126 32 0.478147 0.425394 0.5
814 31 0.51118 0.432462 0.5
117 31 0.489881 0.456949 0.5
595 35 0.524359 0.466754 0.5
765 24 0.530606 0.404523 0.5
771 25 0.541543 0.431336 0.5
251 32 0.575363 0.43721 0.5
620 28 0.558535 0.465425 0.5
349 41 0.621968 0.437453 0.5
209 26 0.628403 0.470367 0.5
691 39 0.594565 0.465394 0.5
42 41 0.658919 0.426472 0.5
157 32 0.691721 0.439765 0.5
324 39 0.665072 0.465756 0.5
17 27 0.721017 0.413015 0.5
278 33 0.723863 0.44514 0.5
478 29 0.751173 0.419647 0.5
1000 36 0.760816 0.452031 0.5
727 36 0.786112 0.426573 0.5
289 22 0.816976 0.428046 0.5
760 26 0.793657 0.459098 0.5
39 26 0.868785 0.411916 0.5
625 32 0.848743 0.436665 0.5
519 24 0.8796 0.43909 0.5
23 28 0.822701 0.456831 0.5
47 31 0.854143 0.467845 0.5
974 26 0.900809 0.416373 0.5
585 32 0.931304 0.416738 0.5
553 32 0.912678 0.445097 0.5
698 21 0.961177 0.422276 0.5
725 39 0.94863 0.450925 0.5
533 35 0.986758 0.439943 0.5
918 40 0.0284571 0.500045 0.5
906 38 0.06536 0.488984 0.5
135 29 0.0704295 0.52341 0.5
109 43 0.100967 0.503885 0.5
524 33 0.166114 0.485312 0.5
696 27 0.137617 0.501054 0.5
854 28 0.164841 0.51633 0.5
512 31 0.219309 0.488848 0.5
985 24 0.192436 0.504613 0.5
441 30 0.217265 0.522336 0.5
541 33 0.251924 0.470282 0.5
8 25 0.281638 0.492474 0.5
872 39 0.250981 0.505904 0.5
833 33 0.317228 0.476223 0.5
45 28 0.343718 0.496281 0.5
51 31 0.308139 0.510736 0.5
10 29 0.335299 0.528152 0.5
556 29 0.37316 0.483628 0.5
275 32 0.406189 0.475193 0.5
687 33 0.367869 0.518519 0.5
506 37 0.403276 0.510826 0.5
928 33 0.440218 0.477856 0.5
77 20 0.470014 0.477682 0.5
412 29 0.436607 0.510821 0.5
446 28 0.468816 0.508174 0.5
20 35 0.498776 0.492652 0.5
692 28 0.523233 0.516274 0.5
128 31 0.545549 0.493694 0.5
125 30 0.578798 0.497168 0.5
281 25 0.611775 0.496605 0.5
79 38 0.645212 0.49733 0.5
870 30 0.626682 0.526077 0.5
820 29 0.593437 0.53008 0.5
133 32 0.681421 0.497641 0.5
311 27 0.703671 0.469339 0.5
816 32 0.736483 0.475872 0.5
522 36 0.714419 0.502 0.5
997 34 0.749352 0.507363 0.5
805 27 0.773216 0.482722 0.5
772 32 0.80525 0.487141 0.5
46 34 0.783543 0.513629 0.5
471 24 0.816682 0.517056 0.5
118 26 0.8351 0.494314 0.5
110 30 0.846926 0.522728 0.5
784 28 0.867311 0.49752 0.5
35 37 0.888713 0.470346 0.5
438 27 0.924166 0.474593 0.5
338 29 0.898953 0.503359 0.5
777 26 0.929719 0.504154 0.5
862 24 0.953064 0.484311 0.5
778 24 0.977479 0.470149 0.5
818 25 0.955918 0.513143 0.5
960 40 0.988312 0.501355 0.5
212 24 0.0422389 0.532204 0.5
271 30 0.011174 0.53129 0.5
489 21 0.0280885 0.555763 0.5
869 32 0.0363802 0.585406 0.5
495 33 0.0957367 0.544296 0.5
968 38 0.0614343 0.560307 0.5
684 25 0.0916218 0.574729 0.5
826 30 0.127659 0.530514 0.5
790 32 0.156146 0.548509 0.5
477 31 0.123466 0.562227 0.5
970 22 0.149427 0.578481 0.5
234 34 0.189588 0.538145 0.5
74 35 0.180814 0.571563 0.5
151 38 0.216341 0.562928 0.5
423 34 0.279883 0.528475 0.5
447 37 0.246452 0.542744 0.5
450 24 0.248228 0.575857 0.5
680 29 0.276271 0.561863 0.5
640 37 0.308853 0.550398 0.5
543 34 0.300364 0.585355 0.5
948 37 0.336899 0.579347 0.5
92 27 0.357373 0.55032 0.5
702 28 0.386324 0.547 0.5
693 28 0.369915 0.577753 0.5
7 35 0.404823 0.577124 0.5
40 39 0.420873 0.543216 0.5
246 33 0.457257 0.539285 0.5
287 36 0.438751 0.574036 0.5
11 37 0.493197 0.53234 0.5
394 29 0.525201 0.546856 0.5
226 31 0.473107 0.569189 0.5
958 23 0.503017 0.5651 0.5
767 40 0.558524 0.529789 0.5
602 25 0.550274 0.565292 0.5
371 29 0.579615 0.559443 0.5
479 20 0.600134 0.582526 0.5
432 29 0.612947 0.555902 0.5
470 29 0.629677 0.583584 0.5
411 31 0.645858 0.554425 0.5
83 31 0.664487 0.527479 0.5
323 30 0.696778 0.531365 0.5
297 30 0.664237 0.583342 0.5
560 28 0.681246 0.557952 0.5
899 22 0.693359 0.58387 0.5
573 30 0.728858 0.534407 0.5
70 28 0.760117 0.53717 0.5
64 31 0.714318 0.563008 0.5
123 18 0.742614 0.559783 0.5
43 35 0.79316 0.547846 0.5
584 25 0.767897 0.565311 0.5
392 30 0.808481 0.577057 0.5
981 30 0.827052 0.551036 0.5
381 32 0.88208 0.530275 0.5
295 33 0.841352 0.585659 0.5
134 34 0.860838 0.55693 0.5
711 34 0.91457 0.534086 0.5
946 30 0.894107 0.560557 0.5
318 35 0.930699 0.566332 0.5
853 19 0.946626 0.538249 0.5
601 31 0.977181 0.535375 0.5
633 30 0.998831 0.561165 0.5
254 33 0.965952 0.567514 0.5
916 25 0.00579494 0.593507 0.5
724 40 0.0305653 0.620456 0.5
514 25 0.0661945 0.593961 0.5
959 27 0.0954524 0.60337 0.5
190 40 0.0682603 0.626182 0.5
472 26 0.10055 0.634141 0.5
465 27 0.124956 0.593 0.5
129 37 0.166831 0.60425 0.5
422 30 0.130028 0.629746 0.5
913 29 0.160689 0.637877 0.5
617 33 0.203614 0.599193 0.5
624 24 0.190845 0.627882 0.5
320 33 0.221003 0.634068 0.5
942 25 0.234886 0.600882 0.5
344 21 0.268858 0.592773 0.5
29 29 0.253122 0.625001 0.5
284 35 0.286002 0.618564 0.5
722 33 0.321564 0.612377 0.5
286 31 0.343379 0.641523 0.5
550 25 0.392408 0.609088 0.5
486 37 0.358364 0.609034 0.5
956 33 0.378018 0.637825 0.5
883 36 0.41182 0.634488 0.5
526 30 0.426136 0.604419 0.5
796 26 0.461239 0.59879 0.5
732 28 0.444719 0.628661 0.5
220 30 0.493634 0.596939 0.5
386 36 0.52766 0.590752 0.5
507 29 0.477844 0.624773 0.5
266 35 0.512114 0.623886 0.5
347 45 0.569136 0.596304 0.5
840 26 0.544898 0.621514 0.5
25 33 0.577859 0.631575 0.5
800 23 0.551865 0.650327 0.5
370 37 0.609409 0.612212 0.5
437 32 0.644876 0.610609 0.5
604 22 0.631392 0.637072 0.5
678 30 0.660376 0.646306 0.5
49 27 0.676824 0.614872 0.5
850 23 0.689894 0.640971 0.5
334 33 0.742983 0.590289 0.5
904 34 0.71287 0.608187 0.5
322 23 0.716798 0.639108 0.5
195 37 0.747623 0.627263 0.5
867 37 0.777436 0.596512 0.5
474 28 0.782343 0.628481 0.5
93 43 0.815284 0.612685 0.5
341 25 0.87371 0.58841 0.5
861 35 0.854108 0.616808 0.5
654 25 0.836391 0.644735 0.5
612 27 0.907404 0.589605 0.5
276 35 0.891596 0.618261 0.5
546 32 0.925147 0.617548 0.5
695 21 0.946401 0.593996 0.5
435 23 0.97521 0.596078 0.5
643 28 0.957713 0.621168 0.5
237 35 0.992048 0.623719 0.5
401 25 0.0446961 0.652429 0.5
359 34 0.0124838 0.652255 0.5
801 26 0.0303154 0.678404 0.5
398 38 0.0597153 0.695664 0.5
992 37 0.0765858 0.662074 0.5
19 28 0.10967 0.663105 0.5
240 29 0.0951773 0.691098 0.5
579 27 0.139712 0.659098 0.5
830 29 0.128551 0.689537 0.5
747 24 0.15728 0.680701 0.5
194 31 0.183536 0.659437 0.5
399 34 0.214643 0.673736 0.5
419 33 0.186489 0.694452 0.5
909 27 0.244953 0.659903 0.5
460 34 0.276692 0.652781 0.5
145 25 0.242409 0.688463 0.5
865 21 0.268871 0.681885 0.5
576 33 0.310324 0.646104 0.5
352 27 0.302392 0.678045 0.5
907 27 0.319291 0.702104 0.5
13 31 0.333153 0.672344 0.5
32 21 0.349319 0.699272 0.5
127 23 0.3654 0.666523 0.5
86 30 0.378897 0.696383 0.5
300 37 0.397823 0.6682 0.5
152 34 0.432796 0.662559 0.5
804 29 0.465835 0.656358 0.5
15 33 0.420087 0.697788 0.5
937 32 0.456406 0.687268 0.5
634 18 0.493834 0.649944 0.5
572 34 0.522129 0.658648 0.5
235 35 0.490718 0.680775 0.5
758 22 0.520948 0.690053 0.5
321 31 0.578671 0.665553 0.5
932 27 0.547677 0.678461 0.5
184 27 0.571348 0.696816 0.5
481 30 0.605131 0.650051 0.5
915 26 0.634982 0.664508 0.5
335 34 0.607655 0.683068 0.5
163 25 0.638355 0.693302 0.5
843 35 0.66849 0.679101 0.5
496 30 0.702934 0.669731 0.5
354 34 0.695384 0.703097 0.5
269 32 0.739094 0.662299 0.5
599 33 0.727434 0.694316 0.5
810 31 0.762101 0.688779 0.5
50 33 0.772528 0.658239 0.5
878 32 0.805655 0.650856 0.5
183 28 0.795096 0.682797 0.5
142 31 0.8702 0.644708 0.5
605 24 0.822886 0.676358 0.5
635 22 0.841299 0.697916 0.5
319 29 0.85427 0.671346 0.5
147 30 0.86933 0.700484 0.5
759 36 0.909544 0.64832 0.5
774 33 0.886918 0.673366 0.5
683 34 0.92141 0.681601 0.5
868 38 0.945676 0.654834 0.5
726 29 0.979693 0.654519 0.5
876 31 0.958822 0.68672 0.5
200 35 0.996821 0.683528 0.5
515 29 0.0200863 0.708298 0.5
98 35 0.0445329 0.730289 0.5
231 32 0.0124805 0.742083 0.5
539 31 0.082385 0.721027 0.5
204 34 0.116814 0.719554 0.5
223 19 0.0696089 0.746348 0.5
894 27 0.0997304 0.747207 0.5
827 41 0.15713 0.715739 0.5
468 27 0.131124 0.74986 0.5
1 26 0.160492 0.749983 0.5
342 39 0.217637 0.714214 0.5
205 27 0.187851 0.730633 0.5
518 30 0.217822 0.751142 0.5
439 28 0.188329 0.760839 0.5
462 29 0.25541 0.715143 0.5
947 34 0.286529 0.706515 0.5
351 31 0.249411 0.746392 0.5
48 25 0.280139 0.741667 0.5
717 30 0.308247 0.732373 0.5
475 26 0.33877 0.726875 0.5
449 26 0.33068 0.756722 0.5
639 21 0.365685 0.722403 0.5
954 23 0.359921 0.750355 0.5
82 33 0.389371 0.7617 0.5
731 35 0.396691 0.725694 0.5
417 25 0.444502 0.717303 0.5
291 27 0.425586 0.73938 0.5
150 39 0.456467 0.750846 0.5
825 36 0.476829 0.715661 0.5
554 29 0.510538 0.718919 0.5
388 26 0.491437 0.745546 0.5
304 27 0.532253 0.741927 0.5
198 35 0.54275 0.711367 0.5
327 31 0.563532 0.736202 0.5
337 29 0.588031 0.755548 0.5
638 48 0.598546 0.720056 0.5
108 33 0.620409 0.751795 0.5
908 21 0.633998 0.724529 0.5
454 32 0.662688 0.714479 0.5
520 31 0.653969 0.746341 0.5
373 35 0.688422 0.736975 0.5
185 36 0.750277 0.721058 0.5
395 27 0.720139 0.732092 0.5
153 37 0.709886 0.766577 0.5
570 34 0.743576 0.755109 0.5
463 26 0.783521 0.711615 0.5
314 32 0.814316 0.711189 0.5
669 40 0.778377 0.746045 0.5
746 24 0.811808 0.742371 0.5
501 34 0.842527 0.730346 0.5
719 23 0.873686 0.730453 0.5
924 25 0.866702 0.758734 0.5
630 32 0.834776 0.7636 0.5
880 40 0.90182 0.712128 0.5
149 27 0.937442 0.710576 0.5
975 27 0.895199 0.750015 0.5
285 30 0.925446 0.738498 0.5
757 39 0.984253 0.717836 0.5
238 25 0.956891 0.735053 0.5
969 28 0.981957 0.752869 0.5
236 41 0.042825 0.76633 0.5
642 31 0.00585936 0.774465 0.5
697 36 0.0288473 0.801388 0.5
839 27 0.0622773 0.796386 0.5
647 30 0.0811617 0.771485 0.5
160 29 0.0929825 0.801129 0.5
610 30 0.113432 0.775835 0.5
213 32 0.126457 0.806035 0.5
207 31 0.146286 0.778748 0.5
131 27 0.159253 0.810341 0.5
718 19 0.176032 0.786767 0.5
387 29 0.236841 0.778501 0.5
247 24 0.207743 0.782921 0.5
315 28 0.190157 0.811434 0.5
811 26 0.222812 0.807324 0.5
989 34 0.270093 0.774738 0.5
903 31 0.254592 0.80588 0.5
61 32 0.290196 0.803756 0.5
433 25 0.300259 0.763001 0.5
884 36 0.320903 0.787911 0.5
218 23 0.337887 0.814831 0.5
739 43 0.3583 0.784092 0.5
567 29 0.368272 0.820033 0.5
316 38 0.396168 0.797364 0.5
547 33 0.422943 0.772904 0.5
627 33 0.431125 0.807289 0.5
667 26 0.45246 0.783627 0.5
808 26 0.480533 0.774245 0.5
69 35 0.51424 0.769105 0.5
99 25 0.473883 0.802691 0.5
525 26 0.502018 0.798423 0.5
755 25 0.526703 0.81421 0.5
890 33 0.551688 0.76732 0.5
189 12 0.532872 0.789911 0.5
292 28 0.556761 0.800747 0.5
523 21 0.579474 0.782972 0.5
159 34 0.64457 0.779196 0.5
59 23 0.590476 0.809234 0.5
30 32 0.60962 0.784644 0.5
482 29 0.632291 0.809339 0.5
782 28 0.676273 0.769656 0.5
3 33 0.670688 0.801381 0.5
527 28 0.703632 0.79957 0.5
681 24 0.728683 0.81738 0.5
415 24 0.736059 0.787407 0.5
858 33 0.758044 0.809584 0.5
703 30 0.802271 0.77086 0.5
56 27 0.768098 0.778128 0.5
484 34 0.790311 0.801406 0.5
340 22 0.809552 0.824273 0.5
780 29 0.822868 0.794635 0.5
158 35 0.85601 0.790905 0.5
258 38 0.880646 0.815054 0.5
436 31 0.920361 0.771453 0.5
502 25 0.889271 0.782459 0.5
308 26 0.911734 0.801933 0.5
219 28 0.951884 0.763179 0.5
689 30 0.944428 0.79462 0.5
328 23 0.998106 0.806685 0.5
613 27 0.97512 0.785262 0.5
931 30 0.968864 0.817747 0.5
146 24 0.027305 0.834908 0.5
828 29 0.0175584 0.862578 0.5
248 25 0.0469796 0.857392 0.5
459 36 0.0630488 0.829917 0.5
466 43 0.102655 0.836576 0.5
505 33 0.0788126 0.8649 0.5
905 30 0.122167 0.867244 0.5
510 35 0.141225 0.837694 0.5
261 38 0.156777 0.869392 0.5
224 30 0.176043 0.839584 0.5
257 33 0.208938 0.837352 0.5
490 32 0.191869 0.868871 0.5
197 29 0.225086 0.865828 0.5
391 25 0.272601 0.829733 0.5
552 30 0.241765 0.837688 0.5
775 33 0.257305 0.866513 0.5
657 25 0.287146 0.855806 0.5
451 33 0.311628 0.831285 0.5
5 34 0.316624 0.868719 0.5
339 36 0.344092 0.846171 0.5
863 26 0.376652 0.856325 0.5
670 34 0.351269 0.87965 0.5
122 30 0.398241 0.832412 0.5
738 32 0.406437 0.866002 0.5
78 20 0.45834 0.825879 0.5
921 37 0.432687 0.841922 0.5
896 29 0.438935 0.876728 0.5
230 31 0.464855 0.855026 0.5
53 35 0.493029 0.829189 0.5
222 33 0.496563 0.864645 0.5
993 30 0.524122 0.844593 0.5
494 22 0.549535 0.828995 0.5
978 22 0.554461 0.856145 0.5
773 20 0.575101 0.83353 0.5
979 35 0.584614 0.863929 0.5
268 44 0.612494 0.838379 0.5
598 34 0.616637 0.877799 0.5
453 25 0.6412 0.858605 0.5
362 32 0.656425 0.831437 0.5
562 37 0.69274 0.831713 0.5
173 30 0.671821 0.860627 0.5
250 30 0.696018 0.879776 0.5
52 38 0.720541 0.853666 0.5
302 26 0.754406 0.842903 0.5
299 25 0.755598 0.872877 0.5
221 23 0.779457 0.831124 0.5
945 35 0.786301 0.862754 0.5
569 33 0.819032 0.856222 0.5
88 42 0.84306 0.827466 0.5
588 26 0.84958 0.865155 0.5
955 28 0.876464 0.848518 0.5
583 24 0.873345 0.88157 0.5
113 35 0.93716 0.828481 0.5
749 28 0.899829 0.869406 0.5
895 29 0.905594 0.836543 0.5
182 33 0.931505 0.861836 0.5
34 31 0.99436 0.839362 0.5
998 31 0.964285 0.849966 0.5
842 28 0.987791 0.871824 0.5
964 33 0.0517408 0.887828 0.5
262 32 0.0368867 0.918127 0.5
38 29 0.015727 0.894275 0.5
656 21 0.0578865 0.939927 0.5
249 34 0.0052973 0.928199 0.5
922 36 0.0997937 0.893836 0.5
889 28 0.0720676 0.914132 0.5
37 28 0.116267 0.923618 0.5
891 33 0.136249 0.898082 0.5
215 28 0.148487 0.929936 0.5
987 35 0.172896 0.9067 0.5
161 27 0.177627 0.939631 0.5
721 27 0.204506 0.898182 0.5
984 32 0.207375 0.930612 0.5
623 37 0.237654 0.897624 0.5
565 27 0.266557 0.915185 0.5
659 35 0.240587 0.935226 0.5
511 38 0.28776 0.888591 0.5
168 37 0.322818 0.902159 0.5
852 34 0.297032 0.925991 0.5
380 38 0.332744 0.936472 0.5
535 25 0.383341 0.886135 0.5
941 29 0.360514 0.913403 0.5
559 33 0.391919 0.925199 0.5
374 35 0.41432 0.899911 0.5
509 26 0.446148 0.909082 0.5
58 27 0.4243 0.930888 0.5
31 23 0.452894 0.937251 0.5
366 29 0.526109 0.877021 0.5
650 29 0.469331 0.887749 0.5
390 32 0.477236 0.919604 0.5
467 31 0.501104 0.89672 0.5
752 26 0.506304 0.934658 0.5
192 36 0.53207 0.911169 0.5
817 36 0.558594 0.887991 0.5
551 30 0.564978 0.920717 0.5
877 29 0.589514 0.902105 0.5
708 26 0.596189 0.933175 0.5
926 34 0.621672 0.911397 0.5
741 34 0.651477 0.887717 0.5
139 29 0.654578 0.922719 0.5
715 22 0.678314 0.904113 0.5
609 30 0.688102 0.932984 0.5
76 26 0.727792 0.884696 0.5
655 29 0.709068 0.907966 0.5
107 29 0.719859 0.939104 0.5
301 36 0.743263 0.914153 0.5
919 23 0.805738 0.888619 0.5
558 31 0.775144 0.897825 0.5
243 33 0.783885 0.932264 0.5
63 29 0.811689 0.917292 0.5
836 29 0.83558 0.893482 0.5
591 26 0.841501 0.926424 0.5
499 18 0.861246 0.905814 0.5
528 33 0.872532 0.933223 0.5
396 31 0.892452 0.904747 0.5
55 28 0.923047 0.893009 0.5
115 22 0.91897 0.923207 0.5
622 28 0.957375 0.88186 0.5
164 34 0.948096 0.913556 0.5
873 32 0.982493 0.903839 0.5
33 30 0.972446 0.936598 0.5
143 30 0.0393633 0.990185 0.5
242 36 0.0296335 0.956216 0.5
648 25 0.00957005 0.983813 0.5
710 37 0.0900073 0.943309 0.5
766 28 0.0711137 0.998782 0.5
89 30 0.064103 0.968588 0.5
538 34 0.0965436 0.978001 0.5
193 28 0.164187 0.993892 0.5
685 30 0.121251 0.955928 0.5
170 33 0.131214 0.988038 0.5
846 34 0.154007 0.96336 0.5
67 30 0.221321 0.990203 0.5
516 40 0.190939 0.97221 0.5
172 20 0.220619 0.95886 0.5
255 29 0.272526 0.948126 0.5
487 30 0.246975 0.970775 0.5
469 37 0.279717 0.98299 0.5
819 30 0.311223 0.995331 0.5
180 33 0.305703 0.959281 0.5
203 40 0.340544 0.971919 0.5
148 34 0.367696 0.948314 0.5
953 29 0.373163 0.98301 0.5
536 28 0.399634 0.957985 0.5
996 26 0.404236 0.988671 0.5
682 36 0.43235 0.96463 0.5
592 24 0.460415 0.980563 0.5
982 32 0.522235 0.997144 0.5
831 29 0.488718 0.988641 0.5
256 33 0.47952 0.952342 0.5
844 33 0.511233 0.96616 0.5
537 27 0.534704 0.943809 0.5
444 33 0.545832 0.974204 0.5
735 27 0.570326 0.950896 0.5
957 36 0.579357 0.983496 0.5
413 26 0.631995 0.943296 0.5
788 34 0.610416 0.995455 0.5
253 29 0.605958 0.96185 0.5
824 31 0.637192 0.973908 0.5
561 32 0.669161 0.986173 0.5
355 31 0.663483 0.952678 0.5
241 33 0.698955 0.997655 0.5
838 22 0.692192 0.963171 0.5
214 34 0.724627 0.973228 0.5
930 26 0.759599 0.988148 0.5
990 40 0.753924 0.952535 0.5
737 34 0.786044 0.968809 0.5
75 21 0.815129 0.949725 0.5
857 40 0.823474 0.982428 0.5
940 27 0.847864 0.956056 0.5
397 33 0.876964 0.969119 0.5
356 25 0.891471 0.997317 0.5
483 28 0.9022 0.946678 0.5
943 45 0.938641 0.951974 0.5
660 27 0.912909 0.976942 0.5
332 26 0.942323 0.988095 0.5
272 37 0.976847 0.990992 0.5
379 27 0.995419 0.958807 0.5
350 16 0.968609 0.963656 0.5
