ITEM: TIMESTEP
1250000
ITEM: NUMBER OF ATOMS
1000
ITEM: BOX BOUNDS pp pp pp
-1.6583404999999999e+01 1.6583404999999999e+01
-1.6583404999999999e+01 1.6583404999999999e+01
-5.0000000000000000e-01 5.0000000000000000e-01
ITEM: ATOMS id type xs ys zs
712 29 0.0435706 0.0219517 0.5
367 28 0.0202561 0.046252 0.5
920 28 0.0136763 0.0150936 0.5
245 22 0.0496038 0.0504443 0.5
124 27 0.0750351 0.029482 0.5
736 25 0.103739 0.00792149 0.5
743 33 0.10703 0.0408327 0.5
813 30 0.132769 0.0191328 0.5
298 38 0.166665 0.0274038 0.5
193 28 0.160563 -0.00564758 0.5
754 31 0.138374 0.0512992 0.5
498 29 0.193815 0.00809436 0.5
227 32 0.224086 0.0221898 0.5
756 28 0.198517 0.0439988 0.5
455 31 0.256519 0.0383329 0.5
461 32 0.252557 0.00344815 0.5
577 36 0.285699 0.0164825 0.5
385 32 0.287691 0.050042 0.5
809 27 0.316555 0.0278753 0.5
473 31 0.343887 0.00450213 0.5
71 34 0.347399 0.0376637 0.5
608 29 0.374562 0.0138781 0.5
280 38 0.381565 0.0499283 0.5
414 34 0.40805 0.0246579 0.5
860 30 0.438288 0.038031 0.5
847 38 0.435644 0.0029351 0.5
330 27 0.467047 0.0123358 0.5
835 33 0.499749 0.0225469 0.5
798 34 0.471976 0.0443647 0.5
769 28 0.53136 0.0320943 0.5
982 32 0.522735 -0.00107832 0.5
871 28 0.553139 0.00912814 0.5
900 25 0.561236 0.038871 0.5
898 28 0.587342 0.0209419 0.5
580 27 0.594858 0.0526975 0.5
14 28 0.616656 0.0322985 0.5
699 23 0.644553 0.0355148 0.5
178 23 0.64308 0.00611057 0.5
57 32 0.671145 0.0199047 0.5
138 31 0.702986 0.0302822 0.5
211 18 0.680607 0.0499483 0.5
420 34 0.733174 0.00789858 0.5
317 37 0.737867 0.0437685 0.5
229 32 0.763021 0.0211448 0.5
768 31 0.793149 0.00473919 0.5
571 43 0.793255 0.043843 0.5
676 31 0.822918 0.0201054 0.5
677 39 0.857335 0.00187163 0.5
663 33 0.890007 0.0333932 0.5
382 38 0.853202 0.0383527 0.5
356 25 0.891523 0.00142507 0.5
378 31 0.919963 0.0125276 0.5
938 23 0.930792 0.0407977 0.5
644 30 0.95119 0.019107 0.5
310 33 0.984302 0.0294121 0.5
700 26 0.958772 0.0504859 0.5
886 28 0.0209231 0.0782619 0.5
210 27 0.0527587 0.0788271 0.5
933 29 0.0247246 0.109477 0.5
369 35 0.0791456 0.061708 0.5
80 29 0.0885969 0.0941414 0.5
448 32 0.113722 0.0737554 0.5
488 26 0.145408 0.0862694 0.5
517 36 0.169815 0.0648967 0.5
881 27 0.118423 0.106944 0.5
132 31 0.202589 0.0757012 0.5
694 31 0.176732 0.0979724 0.5
290 31 0.231576 0.0587901 0.5
279 32 0.232854 0.0926971 0.5
81 27 0.260875 0.0695246 0.5
239 35 0.266547 0.101502 0.5
260 28 0.293133 0.0817596 0.5
442 35 0.320384 0.0603866 0.5
927 32 0.326139 0.0943185 0.5
991 33 0.353501 0.0721997 0.5
841 31 0.384506 0.0842453 0.5
753 32 0.359214 0.104828 0.5
995 25 0.411209 0.0607568 0.5
961 30 0.441045 0.0715377 0.5
856 28 0.41645 0.0927755 0.5
629 25 0.448821 0.101766 0.5
649 36 0.475449 0.081313 0.5
430 33 0.504181 0.0569488 0.5
492 40 0.511547 0.0942367 0.5
914 25 0.535741 0.0626247 0.5
104 25 0.544693 0.0908028 0.5
16 32 0.567285 0.0694771 0.5
358 28 0.60287 0.0814456 0.5
445 35 0.577265 0.102698 0.5
845 27 0.625248 0.0609656 0.5
102 22 0.655658 0.0605778 0.5
832 41 0.643749 0.0922217 0.5
485 35 0.680496 0.0809776 0.5
744 33 0.710002 0.0636215 0.5
307 33 0.709982 0.0990402 0.5
582 28 0.737382 0.0817021 0.5
986 28 0.763658 0.0646454 0.5
408 27 0.766538 0.0990095 0.5
208 32 0.738269 0.115876 0.5
456 31 0.825303 0.0583452 0.5
797 31 0.794803 0.0799113 0.5
615 28 0.821127 0.0983999 0.5
661 30 0.793725 0.115163 0.5
365 27 0.875783 0.0628778 0.5
27 33 0.849342 0.0818541 0.5
393 39 0.882423 0.0993975 0.5
68 31 0.907131 0.0620519 0.5
106 20 0.913317 0.0915914 0.5
751 24 0.936432 0.0706292 0.5
589 24 0.938499 0.103768 0.5
849 35 0.990999 0.0634447 0.5
2 28 0.964211 0.0871632 0.5
923 33 0.994829 0.098937 0.5
155 30 0.0347776 0.141589 0.5
597 24 0.0106841 0.159452 0.5
202 39 0.0589016 0.11434 0.5
705 29 0.0653403 0.150068 0.5
199 36 0.0926165 0.127555 0.5
345 32 0.0998187 0.161301 0.5
851 31 0.150951 0.117678 0.5
66 32 0.124953 0.138807 0.5
672 31 0.15519 0.150021 0.5
274 27 0.20574 0.109324 0.5
596 27 0.1825 0.130403 0.5
87 28 0.212335 0.138968 0.5
762 33 0.185633 0.1638 0.5
673 27 0.240753 0.124559 0.5
28 27 0.274501 0.132857 0.5
513 27 0.253434 0.153752 0.5
167 27 0.299058 0.112788 0.5
293 36 0.305195 0.145287 0.5
823 28 0.333777 0.124906 0.5
325 32 0.337208 0.157743 0.5
464 30 0.364295 0.137028 0.5
181 32 0.38979 0.117974 0.5
409 30 0.397561 0.149879 0.5
763 34 0.423812 0.125332 0.5
977 36 0.428339 0.16531 0.5
701 38 0.455298 0.141054 0.5
607 37 0.482626 0.117364 0.5
944 29 0.487757 0.153326 0.5
174 31 0.514744 0.131703 0.5
457 37 0.548188 0.123084 0.5
734 32 0.550148 0.15756 0.5
934 25 0.517916 0.162957 0.5
90 39 0.582328 0.137571 0.5
795 36 0.612016 0.113606 0.5
305 29 0.617218 0.150122 0.5
779 37 0.646336 0.131118 0.5
425 32 0.646464 0.16574 0.5
704 35 0.680467 0.116853 0.5
103 33 0.676522 0.151551 0.5
91 25 0.711725 0.133068 0.5
994 28 0.70711 0.162479 0.5
912 39 0.739445 0.151621 0.5
829 24 0.766081 0.131905 0.5
530 29 0.770683 0.170859 0.5
270 31 0.793278 0.146683 0.5
976 22 0.819526 0.1298 0.5
377 27 0.825484 0.159044 0.5
939 37 0.8512 0.11848 0.5
653 24 0.853923 0.151755 0.5
353 29 0.880906 0.134668 0.5
611 36 0.880877 0.169786 0.5
776 31 0.913435 0.122286 0.5
97 23 0.908356 0.152469 0.5
346 29 0.937635 0.144743 0.5
244 29 1.00067 0.131329 0.5
733 38 0.964879 0.121857 0.5
313 33 0.976438 0.154621 0.5
130 28 0.042382 0.173366 0.5
662 32 0.039851 0.205034 0.5
24 29 0.0109339 0.18801 0.5
288 36 0.00791539 0.221997 0.5
729 23 0.0725952 0.179394 0.5
936 25 0.10353 0.193306 0.5
917 39 0.0752097 0.211387 0.5
259 20 0.131874 0.168665 0.5
628 31 0.132069 0.204624 0.5
706 32 0.159161 0.183084 0.5
720 28 0.162272 0.21586 0.5
216 42 0.194293 0.199972 0.5
18 42 0.223459 0.173752 0.5
403 25 0.229169 0.208165 0.5
564 26 0.256644 0.18669 0.5
935 25 0.28216 0.169658 0.5
837 33 0.28711 0.19989 0.5
848 28 0.314187 0.179337 0.5
888 28 0.315402 0.215554 0.5
646 27 0.340318 0.19556 0.5
389 39 0.368761 0.17232 0.5
376 40 0.373828 0.210091 0.5
621 27 0.401722 0.18343 0.5
114 25 0.438595 0.197259 0.5
440 39 0.410801 0.215985 0.5
368 33 0.462495 0.175347 0.5
434 24 0.493797 0.183133 0.5
949 34 0.473027 0.208628 0.5
493 25 0.505142 0.209157 0.5
333 30 0.53175 0.19301 0.5
424 23 0.559719 0.186889 0.5
671 25 0.560983 0.215715 0.5
372 27 0.584025 0.170578 0.5
834 31 0.58761 0.202062 0.5
121 32 0.615249 0.182603 0.5
329 34 0.617989 0.216698 0.5
799 27 0.64561 0.198156 0.5
742 31 0.676351 0.186549 0.5
94 24 0.705577 0.191193 0.5
666 33 0.685584 0.218319 0.5
603 29 0.722207 0.219643 0.5
265 42 0.740884 0.18948 0.5
963 27 0.776918 0.20055 0.5
277 26 0.753238 0.221906 0.5
855 31 0.801244 0.180408 0.5
136 37 0.811073 0.213105 0.5
312 38 0.845546 0.185028 0.5
803 31 0.879993 0.20476 0.5
859 40 0.848877 0.223353 0.5
745 35 0.915723 0.184107 0.5
806 27 0.943766 0.20373 0.5
557 37 0.912939 0.219984 0.5
85 23 0.948978 0.173129 0.5
652 41 0.976893 0.19185 0.5
480 26 0.0493384 0.234854 0.5
548 37 0.054283 0.267685 0.5
614 29 0.0249348 0.253824 0.5
542 32 0.0821839 0.245811 0.5
787 27 0.107017 0.224646 0.5
929 33 0.114691 0.255784 0.5
407 26 0.140803 0.236646 0.5
428 28 0.144818 0.269011 0.5
171 34 0.176784 0.246562 0.5
54 29 0.20817 0.231297 0.5
429 27 0.207162 0.261898 0.5
140 30 0.236263 0.243981 0.5
252 35 0.257777 0.219567 0.5
783 26 0.264501 0.258894 0.5
400 34 0.288717 0.234717 0.5
273 28 0.318417 0.247011 0.5
802 35 0.295592 0.270663 0.5
144 34 0.344753 0.231211 0.5
96 30 0.379393 0.245588 0.5
966 25 0.35247 0.261295 0.5
690 26 0.385928 0.27629 0.5
707 46 0.415995 0.255231 0.5
263 29 0.443529 0.227189 0.5
651 24 0.449264 0.261485 0.5
664 32 0.471928 0.241692 0.5
674 27 0.50282 0.239287 0.5
500 41 0.49034 0.272968 0.5
950 32 0.531692 0.226467 0.5
491 29 0.527473 0.258891 0.5
761 29 0.55794 0.245373 0.5
497 32 0.554012 0.278564 0.5
568 31 0.588576 0.233582 0.5
72 25 0.583623 0.264665 0.5
21 31 0.615853 0.25022 0.5
4 33 0.649077 0.230724 0.5
637 28 0.645288 0.263542 0.5
452 33 0.676092 0.252097 0.5
988 19 0.70503 0.242404 0.5
508 28 0.702503 0.271111 0.5
416 34 0.732927 0.254632 0.5
360 17 0.76344 0.249155 0.5
225 35 0.759495 0.278456 0.5
443 28 0.781946 0.229536 0.5
540 35 0.793235 0.259647 0.5
264 31 0.824442 0.246288 0.5
166 30 0.853093 0.26086 0.5
901 37 0.880782 0.240374 0.5
217 32 0.88269 0.274572 0.5
12 35 0.91277 0.257342 0.5
521 32 0.942802 0.237859 0.5
618 36 0.943589 0.273845 0.5
233 27 0.974428 0.227133 0.5
165 22 0.995339 0.249597 0.5
574 22 0.973635 0.263747 0.5
822 35 0.0323854 0.296474 0.5
686 30 0.0622477 0.328501 0.5
807 23 0.0667279 0.299068 0.5
723 28 0.0873545 0.277187 0.5
973 21 0.0934036 0.315283 0.5
545 38 0.116559 0.292658 0.5
534 33 0.149283 0.306075 0.5
770 41 0.17671 0.282573 0.5
792 31 0.209954 0.296594 0.5
897 31 0.183807 0.31783 0.5
616 30 0.236216 0.277424 0.5
162 32 0.238652 0.309488 0.5
750 32 0.265709 0.290535 0.5
965 29 0.27372 0.3228 0.5
458 37 0.303114 0.307236 0.5
555 30 0.328161 0.280258 0.5
169 21 0.334295 0.309329 0.5
120 30 0.358786 0.293251 0.5
427 31 0.358504 0.328257 0.5
815 30 0.38898 0.306036 0.5
73 31 0.426466 0.292115 0.5
331 26 0.4204 0.322139 0.5
303 28 0.46122 0.290966 0.5
645 33 0.490101 0.309488 0.5
175 44 0.455524 0.326053 0.5
309 34 0.521654 0.293493 0.5
176 33 0.54942 0.31264 0.5
658 36 0.519938 0.329789 0.5
566 31 0.580485 0.296615 0.5
587 36 0.608477 0.316992 0.5
887 33 0.612427 0.282933 0.5
44 33 0.640667 0.302676 0.5
874 38 0.671902 0.287507 0.5
383 35 0.666687 0.324835 0.5
952 34 0.700245 0.30903 0.5
821 26 0.722443 0.32965 0.5
892 23 0.727332 0.285637 0.5
9 27 0.743401 0.308972 0.5
531 26 0.773035 0.315233 0.5
177 24 0.750049 0.337254 0.5
426 22 0.788568 0.290745 0.5
679 43 0.822053 0.285039 0.5
980 28 0.803155 0.316714 0.5
364 32 0.834578 0.322121 0.5
418 34 0.857802 0.296543 0.5
6 14 0.886552 0.303588 0.5
716 30 0.873841 0.326714 0.5
879 33 0.909244 0.322952 0.5
363 25 0.909871 0.291134 0.5
606 34 0.93916 0.307908 0.5
983 32 1.0018 0.27852 0.5
294 29 0.999584 0.310888 0.5
41 31 0.971535 0.294729 0.5
191 37 0.967658 0.329748 0.5
713 37 0.0274953 0.333797 0.5
343 33 0.0229079 0.369942 0.5
781 29 0.0527746 0.357472 0.5
326 43 0.0884242 0.35169 0.5
631 30 0.12006 0.368785 0.5
196 31 0.0870373 0.387699 0.5
26 40 0.12324 0.330557 0.5
84 27 0.157521 0.335894 0.5
405 29 0.150333 0.365911 0.5
154 28 0.174918 0.3862 0.5
111 28 0.181394 0.354845 0.5
586 42 0.213413 0.337165 0.5
60 27 0.204643 0.373915 0.5
951 29 0.236259 0.36585 0.5
636 22 0.248751 0.339179 0.5
885 25 0.267111 0.361287 0.5
201 34 0.295697 0.346679 0.5
967 24 0.324991 0.334907 0.5
532 28 0.319526 0.367754 0.5
22 34 0.290358 0.384273 0.5
668 22 0.34426 0.354801 0.5
785 33 0.373137 0.367267 0.5
902 30 0.34684 0.387206 0.5
728 34 0.393921 0.339514 0.5
740 34 0.429847 0.353487 0.5
228 27 0.440148 0.385347 0.5
36 37 0.404771 0.379698 0.5
619 32 0.488059 0.343677 0.5
112 25 0.462359 0.361817 0.5
730 32 0.493014 0.375678 0.5
581 23 0.520997 0.360974 0.5
105 31 0.549838 0.348904 0.5
306 27 0.537008 0.385805 0.5
232 27 0.57855 0.33132 0.5
665 42 0.572006 0.376979 0.5
402 37 0.604831 0.352588 0.5
476 21 0.609711 0.383557 0.5
529 28 0.635553 0.3386 0.5
864 24 0.636415 0.374963 0.5
431 31 0.662435 0.358396 0.5
893 30 0.662145 0.390535 0.5
421 34 0.694976 0.346952 0.5
100 33 0.703087 0.381742 0.5
348 27 0.727702 0.358223 0.5
101 27 0.762448 0.365531 0.5
866 28 0.739161 0.386453 0.5
267 27 0.782028 0.3426 0.5
578 29 0.812753 0.345868 0.5
590 24 0.79162 0.369413 0.5
156 24 0.825284 0.373029 0.5
137 33 0.850448 0.351856 0.5
999 36 0.894761 0.355936 0.5
141 33 0.869316 0.380033 0.5
911 29 0.899645 0.389541 0.5
283 37 0.935243 0.346271 0.5
375 30 0.931797 0.381079 0.5
544 28 0.965393 0.36239 0.5
575 32 0.995608 0.349379 0.5
188 31 0.991721 0.382278 0.5
503 37 0.0524275 0.39219 0.5
675 27 0.0445841 0.425656 0.5
764 37 0.017938 0.405529 0.5
119 29 0.0166145 0.438409 0.5
641 29 0.0779431 0.418133 0.5
791 27 0.107466 0.412208 0.5
714 29 0.102016 0.442966 0.5
95 32 0.139453 0.395861 0.5
972 29 0.168018 0.416651 0.5
748 35 0.135475 0.430499 0.5
116 22 0.199434 0.402231 0.5
925 22 0.225134 0.392986 0.5
882 36 0.194897 0.436182 0.5
812 27 0.229544 0.42109 0.5
563 36 0.257292 0.395474 0.5
179 31 0.254019 0.440581 0.5
786 38 0.285587 0.420458 0.5
875 34 0.319082 0.403886 0.5
357 37 0.320102 0.441759 0.5
709 30 0.3509 0.423691 0.5
794 31 0.377596 0.401127 0.5
384 42 0.382351 0.43998 0.5
296 30 0.406723 0.414278 0.5
504 39 0.441337 0.418053 0.5
593 25 0.468346 0.394783 0.5
549 30 0.50005 0.406979 0.5
126 32 0.475118 0.428835 0.5
765 24 0.529194 0.415861 0.5
404 31 0.559383 0.411042 0.5
814 31 0.512177 0.440344 0.5
771 25 0.544396 0.442482 0.5
626 35 0.592686 0.409346 0.5
251 32 0.578751 0.44005 0.5
349 41 0.616621 0.437258 0.5
406 30 0.629717 0.404259 0.5
42 41 0.657625 0.427014 0.5
688 26 0.686927 0.408092 0.5
17 27 0.716729 0.409515 0.5
157 32 0.691775 0.439353 0.5
278 33 0.725861 0.440741 0.5
478 29 0.750901 0.415514 0.5
282 27 0.773925 0.394668 0.5
727 36 0.787206 0.42428 0.5
910 30 0.806809 0.396817 0.5
289 22 0.819848 0.42405 0.5
206 32 0.841585 0.399617 0.5
39 26 0.87405 0.412364 0.5
625 32 0.850194 0.43429 0.5
519 24 0.88216 0.440609 0.5
974 26 0.902031 0.42007 0.5
585 32 0.933963 0.414575 0.5
632 30 0.961106 0.394676 0.5
698 21 0.962148 0.423255 0.5
971 20 0.989058 0.413395 0.5
187 33 0.0358186 0.464902 0.5
789 28 0.00475777 0.471862 0.5
918 40 0.025103 0.50072 0.5
906 38 0.062892 0.489361 0.5
336 36 0.0665048 0.449949 0.5
793 29 0.0914796 0.472136 0.5
962 47 0.128077 0.469888 0.5
600 36 0.163149 0.451266 0.5
524 33 0.163586 0.487406 0.5
186 31 0.192935 0.471395 0.5
594 33 0.223918 0.45407 0.5
512 31 0.222594 0.488929 0.5
541 33 0.253389 0.473808 0.5
410 40 0.28576 0.458052 0.5
8 25 0.28078 0.492256 0.5
833 33 0.316189 0.477396 0.5
45 28 0.340287 0.498595 0.5
361 33 0.351075 0.459522 0.5
556 29 0.369505 0.487411 0.5
275 32 0.399277 0.47417 0.5
65 31 0.419264 0.446862 0.5
928 33 0.434493 0.477651 0.5
62 28 0.453356 0.451622 0.5
77 20 0.466921 0.48023 0.5
117 31 0.487361 0.46042 0.5
20 35 0.494575 0.494752 0.5
595 35 0.524161 0.472619 0.5
128 31 0.548057 0.497649 0.5
620 28 0.562763 0.467529 0.5
691 39 0.597876 0.472073 0.5
125 30 0.580778 0.503245 0.5
281 25 0.610308 0.502683 0.5
209 26 0.631867 0.467594 0.5
324 39 0.666355 0.46658 0.5
79 38 0.643951 0.498644 0.5
311 27 0.700263 0.47007 0.5
816 32 0.738776 0.472689 0.5
1000 36 0.761156 0.447386 0.5
805 27 0.77376 0.478219 0.5
760 26 0.793761 0.457247 0.5
23 28 0.823586 0.453291 0.5
772 32 0.810531 0.4836 0.5
118 26 0.838579 0.496251 0.5
47 31 0.85148 0.468046 0.5
35 37 0.885404 0.471803 0.5
553 32 0.912505 0.449901 0.5
438 27 0.920266 0.480669 0.5
725 39 0.947273 0.451672 0.5
862 24 0.950388 0.487042 0.5
533 35 0.984012 0.443758 0.5
778 24 0.974376 0.472719 0.5
212 24 0.04066 0.529055 0.5
271 30 0.00959124 0.532729 0.5
489 21 0.0262159 0.556129 0.5
135 29 0.0703515 0.524046 0.5
109 43 0.101777 0.505601 0.5
495 33 0.0973138 0.543892 0.5
968 38 0.0619234 0.558136 0.5
826 30 0.128723 0.533414 0.5
696 27 0.136256 0.503493 0.5
854 28 0.162051 0.520194 0.5
790 32 0.156978 0.552203 0.5
985 24 0.192754 0.505132 0.5
441 30 0.218743 0.524687 0.5
234 34 0.190107 0.541899 0.5
872 39 0.251089 0.510325 0.5
423 34 0.279021 0.530976 0.5
447 37 0.245997 0.546008 0.5
51 31 0.307512 0.51095 0.5
10 29 0.333528 0.528899 0.5
640 37 0.308293 0.551135 0.5
687 33 0.365505 0.520697 0.5
702 28 0.384062 0.548514 0.5
92 27 0.353192 0.551725 0.5
506 37 0.397858 0.509202 0.5
412 29 0.433285 0.509694 0.5
40 39 0.418978 0.542287 0.5
246 33 0.455777 0.539968 0.5
446 28 0.464899 0.508611 0.5
11 37 0.49105 0.53199 0.5
692 28 0.521286 0.515981 0.5
767 40 0.561053 0.534532 0.5
394 29 0.527259 0.545955 0.5
820 29 0.595645 0.530476 0.5
870 30 0.628354 0.528853 0.5
83 31 0.664665 0.527018 0.5
133 32 0.6821 0.497877 0.5
323 30 0.697003 0.527421 0.5
522 36 0.716666 0.499296 0.5
573 30 0.729265 0.530584 0.5
997 34 0.752381 0.505199 0.5
70 28 0.762772 0.536528 0.5
46 34 0.78705 0.508996 0.5
471 24 0.818474 0.517385 0.5
43 35 0.793386 0.543974 0.5
981 30 0.826425 0.55187 0.5
110 30 0.847664 0.52679 0.5
784 28 0.867898 0.501252 0.5
381 32 0.879714 0.530457 0.5
338 29 0.898754 0.503812 0.5
777 26 0.92903 0.508225 0.5
711 34 0.913378 0.535268 0.5
853 19 0.944356 0.540233 0.5
818 25 0.955921 0.515411 0.5
960 40 0.988419 0.50343 0.5
601 31 0.978212 0.536497 0.5
869 32 0.035699 0.584175 0.5
916 25 0.00360792 0.593181 0.5
514 25 0.0675595 0.592422 0.5
684 25 0.0920657 0.574908 0.5
959 27 0.095282 0.607686 0.5
477 31 0.124129 0.565896 0.5
970 22 0.148926 0.582664 0.5
465 27 0.121766 0.595876 0.5
129 37 0.16684 0.608514 0.5
74 35 0.1808 0.576079 0.5
151 38 0.217241 0.570641 0.5
617 33 0.203624 0.605233 0.5
942 25 0.235968 0.603047 0.5
450 24 0.249868 0.577476 0.5
680 29 0.276495 0.563493 0.5
344 21 0.270016 0.594604 0.5
543 34 0.300688 0.587521 0.5
948 37 0.335271 0.579925 0.5
693 28 0.369311 0.578042 0.5
550 25 0.390806 0.604952 0.5
486 37 0.356369 0.609149 0.5
7 35 0.403243 0.575936 0.5
287 36 0.440987 0.572996 0.5
526 30 0.424698 0.602968 0.5
796 26 0.462569 0.599472 0.5
226 31 0.476065 0.568042 0.5
220 30 0.493421 0.595368 0.5
958 23 0.508169 0.567662 0.5
386 36 0.528814 0.592351 0.5
602 25 0.550341 0.566769 0.5
347 45 0.569084 0.596083 0.5
371 29 0.583564 0.560118 0.5
479 20 0.601255 0.582356 0.5
432 29 0.614421 0.556124 0.5
470 29 0.62937 0.583605 0.5
411 31 0.647483 0.554842 0.5
297 30 0.663318 0.584005 0.5
560 28 0.679849 0.555247 0.5
64 31 0.711233 0.5609 0.5
899 22 0.69192 0.58515 0.5
904 34 0.712717 0.609025 0.5
123 18 0.741796 0.55909 0.5
584 25 0.768326 0.565043 0.5
334 33 0.741425 0.587903 0.5
867 37 0.776924 0.595897 0.5
392 30 0.804534 0.575337 0.5
295 33 0.837686 0.583179 0.5
134 34 0.860034 0.558187 0.5
341 25 0.873744 0.58759 0.5
946 30 0.892878 0.562542 0.5
318 35 0.927285 0.566781 0.5
612 27 0.905753 0.591109 0.5
695 21 0.945227 0.592563 0.5
633 30 0.996475 0.564672 0.5
254 33 0.963028 0.565668 0.5
435 23 0.973314 0.593743 0.5
724 40 0.0289517 0.620189 0.5
401 25 0.0417856 0.651258 0.5
359 34 0.00963354 0.651841 0.5
190 40 0.0659931 0.626498 0.5
472 26 0.0996758 0.636191 0.5
992 37 0.0732384 0.66269 0.5
19 28 0.106411 0.664305 0.5
422 30 0.13357 0.624876 0.5
913 29 0.161901 0.641601 0.5
579 27 0.136548 0.659199 0.5
624 24 0.18978 0.634912 0.5
320 33 0.221443 0.636803 0.5
194 31 0.182842 0.665533 0.5
29 29 0.253769 0.629716 0.5
909 27 0.243395 0.662937 0.5
460 34 0.274481 0.654486 0.5
284 35 0.286874 0.621042 0.5
722 33 0.321043 0.614767 0.5
576 33 0.30853 0.648948 0.5
286 31 0.341683 0.643925 0.5
956 33 0.375757 0.638244 0.5
883 36 0.409226 0.632441 0.5
732 28 0.446575 0.625639 0.5
152 34 0.430933 0.659836 0.5
507 29 0.47874 0.625873 0.5
634 18 0.492792 0.649469 0.5
804 29 0.464148 0.655068 0.5
266 35 0.51311 0.624616 0.5
840 26 0.54629 0.619913 0.5
800 23 0.550754 0.647832 0.5
572 34 0.52068 0.658546 0.5
25 33 0.577628 0.632429 0.5
481 30 0.605185 0.650517 0.5
370 37 0.606246 0.613431 0.5
321 31 0.576521 0.665315 0.5
437 32 0.645838 0.611091 0.5
604 22 0.630803 0.637319 0.5
678 30 0.661166 0.640261 0.5
915 26 0.640475 0.66455 0.5
49 27 0.678854 0.612988 0.5
850 23 0.692031 0.642064 0.5
322 23 0.720348 0.639165 0.5
195 37 0.750027 0.624704 0.5
474 28 0.78341 0.627995 0.5
50 33 0.774839 0.659037 0.5
269 32 0.740493 0.661659 0.5
93 43 0.81371 0.611494 0.5
654 25 0.837716 0.649044 0.5
878 32 0.80705 0.647625 0.5
861 35 0.851406 0.616961 0.5
142 31 0.869297 0.646934 0.5
276 35 0.886391 0.617124 0.5
759 36 0.904281 0.648568 0.5
546 32 0.924755 0.616701 0.5
868 38 0.940911 0.651498 0.5
643 28 0.95648 0.620359 0.5
237 35 0.990493 0.621655 0.5
726 29 0.975625 0.653978 0.5
801 26 0.0262617 0.679492 0.5
398 38 0.0566234 0.694605 0.5
515 29 0.0162461 0.708944 0.5
240 29 0.093629 0.693663 0.5
539 31 0.0793198 0.721429 0.5
204 34 0.113343 0.719235 0.5
830 29 0.126661 0.68873 0.5
747 24 0.154723 0.680931 0.5
827 41 0.153934 0.714499 0.5
399 34 0.213388 0.674843 0.5
419 33 0.188324 0.698332 0.5
342 39 0.218147 0.718597 0.5
145 25 0.239441 0.692695 0.5
865 21 0.265855 0.68493 0.5
462 29 0.254181 0.719495 0.5
947 34 0.284839 0.710852 0.5
352 27 0.298603 0.681696 0.5
907 27 0.318041 0.705159 0.5
13 31 0.330313 0.676035 0.5
32 21 0.346702 0.70071 0.5
127 23 0.359869 0.668593 0.5
86 30 0.374741 0.695232 0.5
639 21 0.364393 0.721558 0.5
300 37 0.395569 0.666157 0.5
15 33 0.419148 0.693259 0.5
417 25 0.440884 0.714932 0.5
937 32 0.454093 0.685464 0.5
235 35 0.488276 0.678671 0.5
825 36 0.47383 0.71485 0.5
758 22 0.517568 0.68905 0.5
932 27 0.546692 0.677337 0.5
198 35 0.540649 0.709162 0.5
554 29 0.508335 0.716495 0.5
184 27 0.570662 0.696519 0.5
335 34 0.606303 0.683258 0.5
163 25 0.634728 0.695566 0.5
843 35 0.669909 0.673356 0.5
454 32 0.660737 0.712853 0.5
496 30 0.704055 0.669291 0.5
354 34 0.692896 0.701695 0.5
599 33 0.726886 0.695044 0.5
810 31 0.761144 0.689054 0.5
463 26 0.779972 0.711775 0.5
185 36 0.750026 0.721745 0.5
183 28 0.795778 0.683607 0.5
605 24 0.824423 0.674335 0.5
635 22 0.837984 0.699341 0.5
314 32 0.810581 0.714725 0.5
319 29 0.854837 0.676653 0.5
147 30 0.866563 0.706277 0.5
774 33 0.886585 0.680765 0.5
880 40 0.902207 0.713773 0.5
683 34 0.921104 0.681428 0.5
149 27 0.937066 0.7112 0.5
876 31 0.957962 0.684633 0.5
200 35 0.993924 0.683499 0.5
757 39 0.982956 0.718463 0.5
98 35 0.0425168 0.728267 0.5
236 41 0.0404812 0.765559 0.5
231 32 0.0100681 0.741658 0.5
642 31 0.004896 0.775088 0.5
223 19 0.0668369 0.746621 0.5
894 27 0.0967828 0.747292 0.5
647 30 0.078883 0.771741 0.5
468 27 0.129024 0.74673 0.5
1 26 0.158888 0.748523 0.5
205 27 0.185563 0.731193 0.5
518 30 0.215527 0.755491 0.5
439 28 0.185006 0.762791 0.5
351 31 0.246911 0.749898 0.5
48 25 0.277403 0.74311 0.5
989 34 0.268192 0.775152 0.5
387 29 0.234971 0.782003 0.5
717 30 0.308173 0.735636 0.5
433 25 0.297622 0.76412 0.5
475 26 0.337608 0.727832 0.5
449 26 0.330373 0.758264 0.5
954 23 0.359661 0.748373 0.5
82 33 0.390475 0.759219 0.5
731 35 0.396983 0.721299 0.5
291 27 0.423435 0.740059 0.5
547 33 0.42312 0.771329 0.5
150 39 0.459683 0.74957 0.5
388 26 0.497051 0.745653 0.5
808 26 0.482646 0.77416 0.5
69 35 0.518846 0.771392 0.5
304 27 0.528911 0.73968 0.5
327 31 0.562088 0.734353 0.5
890 33 0.554236 0.767594 0.5
638 48 0.598199 0.720613 0.5
337 29 0.587357 0.756705 0.5
108 33 0.620745 0.751052 0.5
908 21 0.631934 0.722757 0.5
520 31 0.654667 0.745396 0.5
159 34 0.643225 0.776901 0.5
782 28 0.678231 0.769862 0.5
373 35 0.686088 0.736335 0.5
395 27 0.716345 0.725735 0.5
153 37 0.711155 0.761673 0.5
570 34 0.746755 0.757775 0.5
669 40 0.779995 0.745026 0.5
746 24 0.814034 0.745212 0.5
630 32 0.834551 0.767572 0.5
703 30 0.800632 0.772463 0.5
501 34 0.84299 0.730793 0.5
719 23 0.874784 0.734429 0.5
975 27 0.895373 0.754889 0.5
924 25 0.865201 0.761859 0.5
285 30 0.924439 0.741043 0.5
219 28 0.948695 0.765448 0.5
436 31 0.917245 0.776372 0.5
238 25 0.95496 0.736475 0.5
969 28 0.980613 0.753651 0.5
697 36 0.0273349 0.801749 0.5
839 27 0.0597919 0.796318 0.5
160 29 0.088504 0.803203 0.5
610 30 0.113077 0.772976 0.5
459 36 0.0656927 0.829053 0.5
213 32 0.124436 0.804369 0.5
207 31 0.145763 0.775774 0.5
131 27 0.157604 0.810913 0.5
718 19 0.173864 0.788422 0.5
247 24 0.204276 0.784621 0.5
315 28 0.189133 0.811252 0.5
811 26 0.220433 0.809755 0.5
903 31 0.2524 0.809696 0.5
391 25 0.273153 0.834275 0.5
61 32 0.285977 0.805913 0.5
884 36 0.318455 0.788115 0.5
451 33 0.309958 0.830158 0.5
218 23 0.339945 0.812507 0.5
739 43 0.356993 0.782162 0.5
567 29 0.371318 0.820048 0.5
316 38 0.395738 0.794272 0.5
627 33 0.430534 0.809209 0.5
667 26 0.453613 0.783692 0.5
78 20 0.459564 0.82798 0.5
99 25 0.473099 0.8049 0.5
525 26 0.501702 0.799776 0.5
53 35 0.491823 0.83181 0.5
189 12 0.53863 0.791086 0.5
755 25 0.526829 0.815064 0.5
292 28 0.56159 0.807398 0.5
523 21 0.58025 0.785115 0.5
59 23 0.591365 0.809263 0.5
30 32 0.609149 0.783002 0.5
482 29 0.632361 0.80647 0.5
3 33 0.666988 0.799973 0.5
362 32 0.652571 0.831717 0.5
527 28 0.699274 0.794134 0.5
681 24 0.723211 0.815509 0.5
562 37 0.688119 0.827203 0.5
415 24 0.738759 0.790236 0.5
56 27 0.768895 0.780257 0.5
858 33 0.755518 0.817855 0.5
484 34 0.789428 0.805072 0.5
780 29 0.823134 0.798917 0.5
340 22 0.812763 0.826342 0.5
88 42 0.845835 0.831641 0.5
158 35 0.8572 0.793694 0.5
258 38 0.881985 0.81985 0.5
502 25 0.888535 0.787441 0.5
308 26 0.912215 0.807533 0.5
689 30 0.944745 0.797458 0.5
113 35 0.937039 0.831253 0.5
328 23 0.995743 0.805965 0.5
613 27 0.974126 0.784727 0.5
931 30 0.969383 0.819571 0.5
146 24 0.02816 0.832155 0.5
828 29 0.0174883 0.864702 0.5
248 25 0.0451688 0.854589 0.5
964 33 0.0435029 0.885557 0.5
466 43 0.103013 0.836244 0.5
505 33 0.0771576 0.862398 0.5
905 30 0.12057 0.867069 0.5
510 35 0.139745 0.836597 0.5
261 38 0.156932 0.869433 0.5
224 30 0.173044 0.839117 0.5
257 33 0.206372 0.837873 0.5
490 32 0.191251 0.86737 0.5
197 29 0.222702 0.86647 0.5
552 30 0.241195 0.839518 0.5
775 33 0.26217 0.867228 0.5
657 25 0.29085 0.855921 0.5
5 34 0.321618 0.864349 0.5
339 36 0.346842 0.84231 0.5
863 26 0.378089 0.851507 0.5
670 34 0.354528 0.877056 0.5
122 30 0.400844 0.830772 0.5
738 32 0.405443 0.868372 0.5
921 37 0.433441 0.845102 0.5
896 29 0.440836 0.879801 0.5
230 31 0.465898 0.856728 0.5
222 33 0.497661 0.865861 0.5
993 30 0.523818 0.845257 0.5
494 22 0.551415 0.834142 0.5
978 22 0.552549 0.861969 0.5
366 29 0.528313 0.879162 0.5
773 20 0.577961 0.832572 0.5
979 35 0.583999 0.862995 0.5
268 44 0.612482 0.837397 0.5
598 34 0.614116 0.878975 0.5
453 25 0.640027 0.859935 0.5
173 30 0.671006 0.858828 0.5
741 34 0.653284 0.888746 0.5
52 38 0.722196 0.849207 0.5
250 30 0.698432 0.874905 0.5
221 23 0.786551 0.836976 0.5
302 26 0.755196 0.850756 0.5
299 25 0.756454 0.884514 0.5
76 26 0.727791 0.883475 0.5
945 35 0.783973 0.868296 0.5
569 33 0.817436 0.855616 0.5
919 23 0.80946 0.888264 0.5
588 26 0.849651 0.867389 0.5
955 28 0.877275 0.854392 0.5
583 24 0.873037 0.883188 0.5
749 28 0.900381 0.874489 0.5
895 29 0.906676 0.842294 0.5
182 33 0.932114 0.864333 0.5
34 31 0.995345 0.839823 0.5
998 31 0.963364 0.852737 0.5
842 28 0.987355 0.873929 0.5
622 28 0.95734 0.884104 0.5
262 32 0.0337158 0.919437 0.5
38 29 0.0109048 0.894392 0.5
656 21 0.0535531 0.94017 0.5
922 36 0.0957227 0.892096 0.5
889 28 0.0659881 0.910334 0.5
710 37 0.0860633 0.939865 0.5
37 28 0.113887 0.921838 0.5
891 33 0.134842 0.896933 0.5
215 28 0.146807 0.927826 0.5
987 35 0.173699 0.905214 0.5
721 27 0.207345 0.894601 0.5
984 32 0.205632 0.92588 0.5
623 37 0.240757 0.895474 0.5
565 27 0.267547 0.914742 0.5
659 35 0.238887 0.933134 0.5
511 38 0.291152 0.88866 0.5
168 37 0.326117 0.899052 0.5
852 34 0.299249 0.923566 0.5
380 38 0.332844 0.935335 0.5
535 25 0.383691 0.891178 0.5
941 29 0.359717 0.91352 0.5
559 33 0.392045 0.924734 0.5
374 35 0.41609 0.900479 0.5
509 26 0.447405 0.913192 0.5
58 27 0.423443 0.934098 0.5
650 29 0.472418 0.889384 0.5
390 32 0.478069 0.922153 0.5
467 31 0.50225 0.899778 0.5
752 26 0.507202 0.934858 0.5
31 23 0.452258 0.942929 0.5
192 36 0.533403 0.913195 0.5
817 36 0.562355 0.891309 0.5
551 30 0.567124 0.924313 0.5
877 29 0.59281 0.904126 0.5
708 26 0.59722 0.934691 0.5
926 34 0.625621 0.911998 0.5
139 29 0.658409 0.922574 0.5
413 26 0.629962 0.944421 0.5
715 22 0.682598 0.902337 0.5
655 29 0.711258 0.909425 0.5
609 30 0.691639 0.936019 0.5
107 29 0.72277 0.94001 0.5
301 36 0.749895 0.919692 0.5
558 31 0.783247 0.902891 0.5
243 33 0.784162 0.9374 0.5
63 29 0.811209 0.918458 0.5
836 29 0.837031 0.895939 0.5
591 26 0.840599 0.92811 0.5
499 18 0.863805 0.90754 0.5
396 31 0.893222 0.908048 0.5
528 33 0.872065 0.936727 0.5
55 28 0.922339 0.896074 0.5
115 22 0.917795 0.92494 0.5
164 34 0.948129 0.916089 0.5
873 32 0.98007 0.905909 0.5
249 34 1.0032 0.930905 0.5
33 30 0.97101 0.939334 0.5
143 30 0.0400849 0.989679 0.5
242 36 0.026448 0.956495 0.5
648 25 0.0101395 0.984678 0.5
766 28 0.0717479 0.999739 0.5
89 30 0.0640258 0.967723 0.5
538 34 0.0951548 0.975643 0.5
685 30 0.121541 0.953466 0.5
170 33 0.128257 0.986593 0.5
846 34 0.153843 0.96208 0.5
161 27 0.175895 0.937747 0.5
67 30 0.220543 0.990528 0.5
516 40 0.189394 0.973303 0.5
172 20 0.216364 0.955437 0.5
255 29 0.273608 0.947133 0.5
487 30 0.24569 0.967032 0.5
469 37 0.278265 0.981012 0.5
819 30 0.311446 0.993124 0.5
180 33 0.305298 0.959092 0.5
203 40 0.338613 0.971713 0.5
148 34 0.36729 0.947657 0.5
953 29 0.373732 0.98183 0.5
536 28 0.398633 0.961606 0.5
996 26 0.403536 0.991945 0.5
682 36 0.431492 0.966399 0.5
592 24 0.46202 0.980843 0.5
831 29 0.490916 0.988908 0.5
256 33 0.483088 0.956855 0.5
844 33 0.515338 0.965839 0.5
537 27 0.543323 0.944463 0.5
444 33 0.547246 0.976139 0.5
788 34 0.612208 0.999946 0.5
735 27 0.575515 0.955371 0.5
957 36 0.580594 0.988111 0.5
253 29 0.606334 0.965494 0.5
561 32 0.667449 0.986881 0.5
824 31 0.637047 0.974648 0.5
355 31 0.66268 0.954032 0.5
241 33 0.698527 0.997119 0.5
838 22 0.692426 0.967051 0.5
214 34 0.724267 0.974379 0.5
930 26 0.762417 0.989834 0.5
990 40 0.753415 0.956354 0.5
737 34 0.789011 0.970141 0.5
75 21 0.81468 0.950842 0.5
857 40 0.824273 0.983901 0.5
940 27 0.847729 0.95968 0.5
397 33 0.876189 0.972665 0.5
483 28 0.901028 0.951778 0.5
332 26 0.942891 0.990079 0.5
943 45 0.936594 0.953032 0.5
660 27 0.914434 0.981517 0.5
272 37 0.975486 0.993943 0.5
379 27 0.993094 0.961638 0.5
350 16 0.965848 0.966986 0.5
