ITEM: TIMESTEP
1950000
ITEM: NUMBER OF ATOMS
1000
ITEM: BOX BOUNDS pp pp pp
-1.5001142000000000e+01 1.5001142000000000e+01
-1.5001142000000000e+01 1.5001142000000000e+01
-5.0000000000000000e-01 5.0000000000000000e-01
ITEM: ATOMS id type xs ys zs
249 34 0.0257879 0.0097691 0.5
143 30 0.0361143 0.0428806 0.5
743 32 0.0607547 0.0180902 0.5
998 31 0.0691332 0.0521706 0.5
89 30 0.091715 0.0287847 0.5
215 28 0.119156 0.0116882 0.5
242 35 0.119908 0.0447744 0.5
673 27 0.148391 0.026737 0.5
34 31 0.0884949 -0.00417014 0.5
642 31 0.14508 -0.00487993 0.5
865 22 0.172968 0.00783306 0.5
193 28 0.180038 0.0338249 0.5
596 27 0.154569 0.0576016 0.5
380 38 0.206257 -0.000182396 0.5
367 28 0.186609 0.0641622 0.5
37 29 0.212067 0.0359466 0.5
172 21 0.233709 0.0147151 0.5
374 34 0.264378 0.0122454 0.5
161 27 0.243227 0.0425747 0.5
298 38 0.277821 0.0482265 0.5
513 27 0.296408 0.0191735 0.5
488 26 0.313617 0.0446927 0.5
71 34 0.340742 0.0279879 0.5
330 27 0.338791 0.0617135 0.5
650 29 0.320161 0.00231096 0.5
517 36 0.374074 0.0145477 0.5
701 37 0.401076 0.036762 0.5
218 23 0.368012 0.0504033 0.5
280 38 0.435456 0.0206453 0.5
274 27 0.429748 0.0568169 0.5
844 33 0.407147 -0.000813742 0.5
900 25 0.466215 0.00704477 0.5
181 32 0.459932 0.0434547 0.5
536 28 0.48769 0.0627736 0.5
14 29 0.492938 0.031956 0.5
835 33 0.496956 -0.00198319 0.5
467 31 0.521957 0.0186524 0.5
493 25 0.549264 0.0348188 0.5
16 32 0.519255 0.0506606 0.5
253 29 0.55536 0.00214081 0.5
192 36 0.583259 0.0190522 0.5
445 35 0.612194 0.0408815 0.5
704 34 0.580408 0.0565519 0.5
301 36 0.645528 0.02641 0.5
208 32 0.644246 0.0629945 0.5
102 22 0.615611 0.00706329 0.5
749 28 0.674445 0.00921588 0.5
420 34 0.674606 0.0475054 0.5
744 33 0.704458 0.0262663 0.5
103 33 0.704491 0.0619472 0.5
485 34 0.735568 0.044923 0.5
229 32 0.763377 0.0250538 0.5
582 28 0.764728 0.0586914 0.5
588 26 0.792545 0.0410291 0.5
173 30 0.734142 0.00991332 0.5
499 19 0.817011 0.0239015 0.5
689 30 0.82184 0.0514075 0.5
250 30 0.796642 0.0721136 0.5
68 31 0.845723 0.0257047 0.5
63 29 0.85367 0.057029 0.5
955 28 0.876302 0.0312396 0.5
622 28 0.897745 0.00715019 0.5
483 28 0.909874 0.0385628 0.5
676 31 0.887137 0.0629914 0.5
733 37 0.931228 0.012451 0.5
528 33 0.864138 -0.00012869 0.5
182 33 0.998814 0.0310582 0.5
378 31 1.00913 0.0642799 0.5
768 31 0.965898 0.0184722 0.5
644 30 0.975419 0.0539622 0.5
155 30 0.943601 0.0461013 0.5
933 29 0.990584 -0.000618694 0.5
80 29 0.0154292 0.0977892 0.5
393 38 0.0440804 0.0759456 0.5
648 25 0.0431024 0.110116 0.5
766 29 0.0199833 0.129138 0.5
171 34 0.0570982 0.137558 0.5
516 40 0.074387 0.100371 0.5
279 32 0.0963771 0.0690198 0.5
851 31 0.109005 0.105061 0.5
939 37 0.129889 0.0792315 0.5
170 33 0.0902707 0.133848 0.5
662 32 0.14209 0.115369 0.5
846 33 0.163727 0.0891472 0.5
694 31 0.196527 0.0943013 0.5
66 31 0.174971 0.120064 0.5
448 32 0.207862 0.124877 0.5
469 36 0.222856 0.0706985 0.5
245 22 0.252672 0.0704802 0.5
350 16 0.22468 0.101646 0.5
976 23 0.250187 0.0973495 0.5
823 28 0.240846 0.12632 0.5
227 32 0.273249 0.119813 0.5
498 29 0.278522 0.0872436 0.5
81 27 0.303714 0.107807 0.5
124 28 0.307262 0.0743044 0.5
385 32 0.333384 0.0947402 0.5
263 29 0.326902 0.127662 0.5
473 31 0.364739 0.0820019 0.5
996 26 0.360664 0.115605 0.5
831 29 0.396986 0.0697549 0.5
442 35 0.39029 0.103916 0.5
957 36 0.42074 0.125854 0.5
991 33 0.388878 0.137565 0.5
649 35 0.42419 0.0895811 0.5
464 30 0.455303 0.0750214 0.5
795 35 0.452243 0.109539 0.5
409 30 0.475855 0.132643 0.5
961 30 0.482846 0.0950592 0.5
592 25 0.504445 0.118567 0.5
492 39 0.54823 0.0733458 0.5
178 23 0.51018 0.0825126 0.5
824 31 0.530688 0.104537 0.5
413 26 0.557611 0.116411 0.5
845 27 0.533489 0.134714 0.5
798 34 0.610475 0.0759889 0.5
742 31 0.580208 0.0933665 0.5
57 32 0.610499 0.110762 0.5
305 30 0.583767 0.129196 0.5
930 26 0.641984 0.0949773 0.5
838 23 0.638331 0.128616 0.5
874 37 0.673954 0.0838899 0.5
360 18 0.664406 0.111661 0.5
31 23 0.688634 0.117505 0.5
4 33 0.66857 0.14111 0.5
307 32 0.708885 0.0943495 0.5
176 33 0.717409 0.131928 0.5
715 23 0.736193 0.0768209 0.5
443 28 0.738471 0.10602 0.5
677 38 0.770474 0.0954617 0.5
994 28 0.749999 0.134803 0.5
580 27 0.780286 0.127359 0.5
332 27 0.803756 0.104345 0.5
737 34 0.829477 0.0841269 0.5
106 20 0.842835 0.113374 0.5
912 38 0.817881 0.134447 0.5
425 32 0.864075 0.088831 0.5
356 25 0.848854 0.142571 0.5
895 29 0.920454 0.0716481 0.5
397 32 0.898322 0.0982039 0.5
164 33 0.872508 0.121563 0.5
270 31 0.90596 0.130206 0.5
938 23 0.929831 0.103992 0.5
729 23 0.991891 0.118316 0.5
705 29 0.985049 0.087647 0.5
964 33 0.951803 0.0780613 0.5
244 29 0.963714 0.111095 0.5
569 33 0.940923 0.134671 0.5
252 35 0.0308592 0.162859 0.5
210 28 0.0103678 0.189615 0.5
167 27 0.0458188 0.19221 0.5
24 29 0.0665443 0.169109 0.5
542 32 0.0819048 0.199394 0.5
487 30 0.122923 0.141815 0.5
837 33 0.100905 0.166799 0.5
736 26 0.114845 0.195449 0.5
886 28 0.135008 0.171131 0.5
87 28 0.147605 0.199982 0.5
700 26 0.156235 0.14596 0.5
260 28 0.166914 0.174388 0.5
290 31 0.188829 0.150623 0.5
130 28 0.200377 0.180746 0.5
756 28 0.179077 0.204329 0.5
706 32 0.223361 0.153155 0.5
216 41 0.261865 0.157094 0.5
203 39 0.233571 0.186135 0.5
802 35 0.269182 0.197142 0.5
809 27 0.298604 0.140208 0.5
451 33 0.293458 0.173447 0.5
927 32 0.324732 0.159666 0.5
608 29 0.321612 0.192527 0.5
169 21 0.299069 0.211168 0.5
577 36 0.356347 0.149153 0.5
414 34 0.353136 0.184603 0.5
114 26 0.38322 0.171357 0.5
389 39 0.408815 0.195424 0.5
671 25 0.414524 0.159045 0.5
966 25 0.37498 0.205666 0.5
430 33 0.445901 0.146797 0.5
871 28 0.503902 0.148789 0.5
607 37 0.444243 0.183017 0.5
769 29 0.473654 0.165395 0.5
646 28 0.47253 0.203185 0.5
90 39 0.501036 0.183714 0.5
699 23 0.560296 0.148049 0.5
568 31 0.533554 0.16555 0.5
788 33 0.532211 0.198941 0.5
104 25 0.560272 0.178825 0.5
508 28 0.612274 0.145321 0.5
637 28 0.586418 0.161567 0.5
358 28 0.614764 0.178016 0.5
452 33 0.585914 0.195779 0.5
368 33 0.617883 0.21099 0.5
666 32 0.640447 0.160211 0.5
121 32 0.645473 0.195543 0.5
963 27 0.669544 0.173472 0.5
832 41 0.682683 0.205156 0.5
329 34 0.698145 0.158252 0.5
603 29 0.712969 0.188737 0.5
655 29 0.732406 0.162815 0.5
408 28 0.763946 0.163207 0.5
571 42 0.746678 0.199056 0.5
363 25 0.79271 0.15485 0.5
857 39 0.786561 0.189398 0.5
27 33 0.819724 0.173047 0.5
365 27 0.844152 0.201184 0.5
855 31 0.814944 0.21119 0.5
589 24 0.850783 0.171447 0.5
379 27 0.872068 0.189267 0.5
382 37 0.879286 0.154577 0.5
920 29 0.899932 0.179881 0.5
165 22 0.90202 0.208843 0.5
97 23 0.920446 0.159248 0.5
377 27 0.928917 0.189444 0.5
762 32 0.974531 0.14264 0.5
259 20 1.00152 0.153212 0.5
28 27 0.982991 0.17502 0.5
712 29 0.951528 0.166974 0.5
202 38 0.961434 0.200243 0.5
813 30 0.0232447 0.222117 0.5
806 27 0.0562473 0.221041 0.5
923 33 0.0410778 0.251738 0.5
574 22 0.014858 0.268201 0.5
614 29 0.073872 0.244685 0.5
929 33 0.071015 0.277378 0.5
936 25 0.0980015 0.226985 0.5
672 31 0.101739 0.262147 0.5
881 27 0.127622 0.222799 0.5
628 31 0.132517 0.254468 0.5
995 25 0.212469 0.21295 0.5
199 36 0.160405 0.231827 0.5
967 24 0.190909 0.232403 0.5
917 39 0.162873 0.268925 0.5
428 28 0.194314 0.260953 0.5
429 27 0.220345 0.24091 0.5
132 31 0.243929 0.219962 0.5
897 31 0.25228 0.253001 0.5
754 31 0.275446 0.231212 0.5
792 31 0.225216 0.271839 0.5
120 30 0.281661 0.266104 0.5
168 36 0.3065 0.244337 0.5
403 25 0.312271 0.27762 0.5
841 31 0.332393 0.222334 0.5
856 28 0.337845 0.258388 0.5
239 35 0.36532 0.238121 0.5
651 24 0.395552 0.227205 0.5
953 29 0.394285 0.260625 0.5
847 37 0.365807 0.277702 0.5
325 32 0.4219 0.244267 0.5
935 25 0.422555 0.276751 0.5
400 34 0.443301 0.219168 0.5
440 39 0.503383 0.221186 0.5
144 34 0.47245 0.237382 0.5
331 26 0.449704 0.259237 0.5
753 32 0.480933 0.271654 0.5
73 31 0.559296 0.217723 0.5
799 27 0.506893 0.254779 0.5
372 27 0.534665 0.236505 0.5
944 29 0.535359 0.267579 0.5
761 29 0.563803 0.249602 0.5
977 35 0.564887 0.282999 0.5
497 32 0.590527 0.231047 0.5
457 37 0.596014 0.266584 0.5
500 41 0.625286 0.244804 0.5
317 37 0.716552 0.223492 0.5
581 23 0.654212 0.225845 0.5
779 37 0.684038 0.242801 0.5
174 31 0.657077 0.263691 0.5
491 30 0.68694 0.278296 0.5
312 38 0.717305 0.260128 0.5
225 34 0.747671 0.239997 0.5
44 33 0.748195 0.276782 0.5
521 32 0.777828 0.261159 0.5
859 39 0.77845 0.224218 0.5
745 35 0.809626 0.24581 0.5
879 33 0.836921 0.268746 0.5
310 33 0.842973 0.233724 0.5
829 25 0.807535 0.279637 0.5
456 31 0.873052 0.220185 0.5
353 29 0.869685 0.25356 0.5
797 31 0.899518 0.240098 0.5
544 28 0.894971 0.271834 0.5
611 36 0.930579 0.223228 0.5
849 35 0.93046 0.259926 0.5
615 28 0.990085 0.214778 0.5
653 24 1.00112 0.244522 0.5
188 31 0.982264 0.271997 0.5
326 43 0.964584 0.240227 0.5
54 29 0.0402473 0.289469 0.5
313 33 0.00804904 0.297808 0.5
534 33 0.032952 0.323373 0.5
369 35 0.0661887 0.313211 0.5
288 35 0.0633058 0.347835 0.5
770 41 0.100389 0.297824 0.5
179 31 0.0948354 0.335439 0.5
707 45 0.125914 0.354573 0.5
812 27 0.133796 0.287265 0.5
723 29 0.133073 0.318884 0.5
785 33 0.164069 0.303204 0.5
636 22 0.189224 0.321512 0.5
111 28 0.159054 0.335493 0.5
407 26 0.196473 0.292767 0.5
196 31 0.255598 0.28536 0.5
597 24 0.22834 0.30302 0.5
555 30 0.252576 0.32076 0.5
18 41 0.219115 0.335093 0.5
376 40 0.285649 0.301999 0.5
293 35 0.282541 0.33851 0.5
84 27 0.313506 0.319913 0.5
162 32 0.33856 0.298371 0.5
96 30 0.34214 0.332628 0.5
621 27 0.312316 0.352476 0.5
273 28 0.368178 0.31425 0.5
848 29 0.395699 0.295009 0.5
720 28 0.39576 0.32803 0.5
232 27 0.369732 0.347409 0.5
333 30 0.425528 0.309846 0.5
794 31 0.426242 0.342705 0.5
690 27 0.452107 0.290591 0.5
888 28 0.455621 0.325974 0.5
834 31 0.481323 0.307164 0.5
875 34 0.486525 0.342547 0.5
950 32 0.510342 0.28878 0.5
734 32 0.514785 0.32238 0.5
424 23 0.539232 0.303791 0.5
988 20 0.543801 0.332045 0.5
21 31 0.568956 0.3161 0.5
665 41 0.567881 0.35245 0.5
626 35 0.627631 0.284292 0.5
914 25 0.597792 0.300151 0.5
740 34 0.598595 0.330901 0.5
72 26 0.62556 0.315349 0.5
478 29 0.629568 0.345046 0.5
434 24 0.659651 0.294921 0.5
309 34 0.658756 0.327624 0.5
476 22 0.686541 0.31037 0.5
91 25 0.685466 0.346905 0.5
265 41 0.718091 0.296426 0.5
529 28 0.711032 0.329906 0.5
540 35 0.750199 0.31173 0.5
277 26 0.740631 0.343298 0.5
166 30 0.779033 0.294914 0.5
679 42 0.773626 0.342571 0.5
85 23 0.864653 0.283687 0.5
418 34 0.804068 0.318677 0.5
530 29 0.832272 0.301218 0.5
12 34 0.834955 0.337805 0.5
100 33 0.860101 0.315929 0.5
177 24 0.864503 0.351208 0.5
346 29 0.922145 0.291669 0.5
375 30 0.890431 0.302142 0.5
6 15 0.883756 0.33172 0.5
618 35 0.912359 0.326125 0.5
751 24 0.951236 0.284264 0.5
776 31 0.999888 0.333073 0.5
606 34 0.976077 0.306909 0.5
661 30 0.94411 0.317512 0.5
803 31 0.968123 0.341268 0.5
901 37 0.933675 0.352977 0.5
548 36 0.027923 0.358037 0.5
686 30 0.0188182 0.391784 0.5
345 32 0.0438049 0.414314 0.5
781 29 0.0536549 0.381991 0.5
973 22 0.0732318 0.405152 0.5
962 46 0.0919932 0.376096 0.5
233 27 0.10213 0.411697 0.5
716 30 0.12957 0.392854 0.5
234 34 0.133785 0.427514 0.5
902 30 0.187224 0.352956 0.5
586 42 0.160651 0.373484 0.5
631 30 0.192117 0.388556 0.5
793 29 0.162006 0.408277 0.5
750 32 0.195412 0.4224 0.5
427 31 0.250177 0.354415 0.5
787 27 0.219883 0.371516 0.5
786 38 0.249337 0.389341 0.5
116 23 0.223361 0.407124 0.5
8 25 0.254007 0.423267 0.5
405 29 0.277681 0.369142 0.5
140 30 0.280787 0.403595 0.5
728 34 0.307396 0.384241 0.5
564 27 0.341629 0.364735 0.5
36 37 0.339854 0.398505 0.5
228 27 0.311421 0.418345 0.5
658 35 0.398447 0.362167 0.5
664 32 0.370455 0.381824 0.5
65 31 0.39976 0.39795 0.5
616 30 0.372302 0.415931 0.5
303 29 0.425692 0.379147 0.5
645 33 0.429001 0.412521 0.5
175 43 0.456439 0.361685 0.5
674 28 0.45881 0.397524 0.5
296 30 0.490365 0.376465 0.5
384 41 0.490742 0.414687 0.5
587 36 0.520115 0.358266 0.5
105 31 0.519097 0.393655 0.5
593 25 0.545385 0.377771 0.5
133 32 0.548962 0.408815 0.5
421 34 0.576884 0.388414 0.5
206 32 0.603096 0.367121 0.5
730 31 0.609083 0.403016 0.5
112 25 0.631939 0.382798 0.5
892 23 0.63714 0.419079 0.5
416 34 0.714564 0.361608 0.5
949 34 0.657585 0.362243 0.5
402 37 0.661094 0.397591 0.5
531 26 0.687894 0.377552 0.5
278 33 0.696502 0.410217 0.5
426 23 0.723133 0.394502 0.5
566 31 0.747724 0.373021 0.5
821 26 0.753356 0.404235 0.5
94 25 0.7262 0.422354 0.5
217 32 0.778359 0.379221 0.5
70 28 0.783538 0.415251 0.5
952 34 0.806368 0.359404 0.5
136 37 0.81074 0.393304 0.5
980 28 0.838989 0.371719 0.5
383 35 0.843711 0.405752 0.5
141 32 0.814061 0.427875 0.5
652 41 0.89772 0.361256 0.5
578 29 0.867665 0.383071 0.5
47 31 0.895284 0.397206 0.5
17 27 0.872553 0.418762 0.5
2 28 0.925275 0.385026 0.5
156 25 0.921213 0.414046 0.5
557 37 0.992881 0.366711 0.5
283 36 0.985988 0.404667 0.5
822 35 0.960075 0.376533 0.5
364 32 0.951112 0.40788 0.5
545 38 0.0123601 0.429489 0.5
480 26 0.0743498 0.433642 0.5
807 23 0.0140704 0.462629 0.5
575 32 0.0434229 0.448345 0.5
503 37 0.0404576 0.483814 0.5
579 28 0.0721018 0.462923 0.5
632 30 0.105282 0.444056 0.5
959 27 0.103507 0.47499 0.5
191 36 0.075889 0.496413 0.5
26 39 0.13715 0.463984 0.5
641 29 0.141296 0.496911 0.5
951 29 0.16691 0.442373 0.5
791 27 0.167322 0.476867 0.5
594 33 0.195053 0.458577 0.5
783 26 0.199219 0.493298 0.5
532 28 0.225528 0.438145 0.5
300 36 0.255359 0.45643 0.5
22 34 0.226027 0.474042 0.5
422 30 0.257521 0.488931 0.5
815 30 0.284495 0.43576 0.5
154 28 0.286986 0.469479 0.5
709 30 0.314749 0.450333 0.5
361 33 0.316749 0.485025 0.5
458 36 0.342632 0.434185 0.5
357 36 0.348481 0.468093 0.5
885 25 0.400179 0.42949 0.5
556 29 0.377035 0.448328 0.5
446 28 0.406311 0.463566 0.5
866 29 0.378993 0.480601 0.5
348 27 0.429097 0.444631 0.5
692 28 0.458299 0.429198 0.5
126 32 0.470381 0.459478 0.5
349 40 0.438423 0.4764 0.5
479 21 0.498856 0.44794 0.5
62 28 0.499723 0.478191 0.5
125 30 0.522386 0.42828 0.5
771 26 0.524166 0.461416 0.5
108 33 0.551772 0.446039 0.5
406 30 0.560411 0.477024 0.5
79 37 0.580094 0.423659 0.5
394 29 0.585495 0.457643 0.5
201 34 0.611619 0.437781 0.5
118 26 0.616707 0.470858 0.5
688 27 0.591138 0.489208 0.5
893 30 0.640682 0.451448 0.5
404 31 0.646665 0.484292 0.5
157 32 0.667615 0.431292 0.5
549 30 0.672178 0.463891 0.5
772 32 0.698938 0.442599 0.5
64 31 0.701923 0.476598 0.5
887 32 0.758789 0.436178 0.5
968 37 0.7297 0.456913 0.5
282 27 0.763037 0.468691 0.5
760 26 0.738019 0.488197 0.5
267 27 0.789647 0.448062 0.5
83 31 0.821369 0.460033 0.5
727 36 0.793782 0.481188 0.5
911 29 0.827613 0.493505 0.5
805 27 0.847022 0.441506 0.5
41 31 0.851546 0.473755 0.5
471 25 0.898767 0.431168 0.5
39 27 0.874368 0.451004 0.5
264 31 0.907474 0.460914 0.5
553 32 0.88333 0.482973 0.5
533 35 0.914226 0.495249 0.5
698 21 0.969296 0.432607 0.5
971 20 0.988992 0.452078 0.5
983 32 0.989763 0.481788 0.5
438 27 0.963919 0.464432 0.5
725 38 0.937575 0.440872 0.5
853 20 0.933705 0.472212 0.5
585 32 0.951392 0.497085 0.5
906 38 0.0104825 0.507965 0.5
95 32 0.0187847 0.544002 0.5
109 42 0.046051 0.52025 0.5
854 28 0.0531351 0.555267 0.5
713 37 0.0807557 0.5325 0.5
764 37 0.110991 0.510061 0.5
212 25 0.112674 0.545182 0.5
913 29 0.0848472 0.56735 0.5
680 29 0.140133 0.528553 0.5
60 27 0.147857 0.559715 0.5
512 31 0.171099 0.508243 0.5
925 23 0.168743 0.540274 0.5
336 35 0.200345 0.526295 0.5
668 23 0.206692 0.559342 0.5
948 36 0.288574 0.503727 0.5
51 31 0.228468 0.507042 0.5
423 34 0.257413 0.52244 0.5
550 25 0.23143 0.543341 0.5
804 29 0.259452 0.557551 0.5
965 29 0.288018 0.536139 0.5
77 20 0.345606 0.501895 0.5
765 24 0.320164 0.517798 0.5
687 33 0.31929 0.548986 0.5
29 29 0.34686 0.533013 0.5
576 33 0.350567 0.565764 0.5
92 28 0.409694 0.498087 0.5
563 35 0.376489 0.514441 0.5
151 37 0.381855 0.549214 0.5
693 29 0.410555 0.5304 0.5
275 32 0.412205 0.566553 0.5
504 39 0.471083 0.497504 0.5
814 31 0.439551 0.513417 0.5
306 27 0.471245 0.531251 0.5
956 33 0.441076 0.548536 0.5
251 32 0.501898 0.516929 0.5
560 29 0.499151 0.548976 0.5
767 39 0.530421 0.495649 0.5
347 44 0.534647 0.5364 0.5
904 34 0.563672 0.511189 0.5
411 31 0.572181 0.545528 0.5
101 27 0.620023 0.502224 0.5
9 28 0.594676 0.521391 0.5
908 21 0.601246 0.555075 0.5
870 30 0.622705 0.536771 0.5
431 31 0.677894 0.496989 0.5
1000 35 0.648701 0.517435 0.5
691 38 0.679321 0.531444 0.5
318 35 0.65051 0.555768 0.5
711 34 0.711146 0.508726 0.5
35 37 0.713729 0.544561 0.5
910 30 0.766932 0.501994 0.5
137 33 0.74251 0.522874 0.5
683 34 0.746603 0.558618 0.5
43 35 0.775101 0.534878 0.5
110 30 0.780483 0.571504 0.5
343 33 0.859025 0.50629 0.5
381 32 0.802324 0.515734 0.5
601 31 0.807411 0.549164 0.5
625 32 0.832074 0.527541 0.5
269 32 0.838944 0.560626 0.5
289 22 0.862559 0.537302 0.5
519 24 0.890271 0.514876 0.5
341 25 0.891466 0.545126 0.5
294 29 0.918743 0.526949 0.5
916 25 0.869984 0.566674 0.5
999 36 0.929682 0.557956 0.5
696 27 0.98511 0.539437 0.5
818 25 0.978481 0.510418 0.5
187 33 0.952988 0.530373 0.5
784 28 0.962927 0.561341 0.5
465 27 0.028909 0.575144 0.5
868 38 0.0265143 0.608057 0.5
359 34 0.058083 0.586082 0.5
946 30 0.0620665 0.619274 0.5
398 37 0.119389 0.577265 0.5
790 32 0.090881 0.60032 0.5
748 35 0.12265 0.612675 0.5
567 29 0.093532 0.633778 0.5
447 36 0.15002 0.592276 0.5
524 33 0.177482 0.572828 0.5
714 29 0.178181 0.607824 0.5
600 35 0.152319 0.629331 0.5
475 26 0.20545 0.623336 0.5
441 30 0.205256 0.5913 0.5
620 28 0.231968 0.573568 0.5
882 36 0.291615 0.570367 0.5
186 31 0.233733 0.606895 0.5
286 31 0.261262 0.589345 0.5
826 30 0.26233 0.624822 0.5
410 40 0.29142 0.605589 0.5
883 35 0.323384 0.585068 0.5
722 33 0.324035 0.620933 0.5
541 33 0.353589 0.604299 0.5
634 18 0.354884 0.636994 0.5
506 37 0.381253 0.583963 0.5
796 26 0.381031 0.621033 0.5
386 36 0.410992 0.603674 0.5
266 35 0.4709 0.56703 0.5
412 29 0.441353 0.584172 0.5
928 33 0.470631 0.600532 0.5
543 33 0.440499 0.619541 0.5
45 28 0.501117 0.588841 0.5
20 35 0.507238 0.625734 0.5
602 25 0.523964 0.568847 0.5
371 29 0.55404 0.573154 0.5
958 23 0.531046 0.598328 0.5
370 37 0.541647 0.62987 0.5
297 30 0.564138 0.604417 0.5
128 31 0.576027 0.636028 0.5
619 32 0.584864 0.581303 0.5
864 25 0.599899 0.611168 0.5
324 38 0.621698 0.580876 0.5
810 31 0.631003 0.61619 0.5
46 34 0.686781 0.567453 0.5
42 40 0.659121 0.592064 0.5
867 37 0.695226 0.604057 0.5
816 32 0.665134 0.626568 0.5
850 23 0.698642 0.634914 0.5
981 30 0.720403 0.580345 0.5
311 28 0.727456 0.613324 0.5
599 33 0.752389 0.593088 0.5
778 24 0.755958 0.624529 0.5
862 25 0.783911 0.603046 0.5
997 34 0.787134 0.635963 0.5
119 29 0.810324 0.58137 0.5
633 30 0.813127 0.612984 0.5
974 26 0.839367 0.591882 0.5
295 33 0.845426 0.624027 0.5
142 31 0.871726 0.597884 0.5
546 32 0.899138 0.576498 0.5
801 26 0.903845 0.608701 0.5
338 29 0.879138 0.630981 0.5
190 39 0.913483 0.64132 0.5
590 25 0.928092 0.590245 0.5
869 32 0.994421 0.573667 0.5
135 29 0.990625 0.607754 0.5
726 29 1.00203 0.637397 0.5
495 33 0.961184 0.593421 0.5
675 27 0.968534 0.629504 0.5
271 30 0.937583 0.620415 0.5
827 40 0.0361382 0.64503 0.5
237 35 0.0130221 0.674574 0.5
724 40 0.053325 0.679357 0.5
231 32 0.0249446 0.705962 0.5
450 24 0.0682709 0.649421 0.5
789 28 0.122471 0.646706 0.5
205 27 0.0930606 0.664692 0.5
82 33 0.119425 0.68024 0.5
539 31 0.0895181 0.696859 0.5
127 23 0.181171 0.642781 0.5
830 29 0.153629 0.662628 0.5
399 34 0.183209 0.679569 0.5
872 39 0.152139 0.697108 0.5
472 27 0.205461 0.657077 0.5
344 21 0.209306 0.701035 0.5
833 33 0.233772 0.639922 0.5
74 35 0.232336 0.675835 0.5
129 36 0.263259 0.657375 0.5
985 25 0.270279 0.69379 0.5
316 38 0.240529 0.711763 0.5
702 28 0.293706 0.642002 0.5
287 35 0.295683 0.674251 0.5
152 34 0.32708 0.655118 0.5
320 33 0.326365 0.689212 0.5
954 24 0.298284 0.706977 0.5
909 28 0.354834 0.671905 0.5
15 33 0.355746 0.70653 0.5
640 37 0.410544 0.641395 0.5
145 25 0.377911 0.651815 0.5
40 39 0.386472 0.684967 0.5
11 37 0.422148 0.676561 0.5
595 35 0.47317 0.635736 0.5
470 29 0.443397 0.650753 0.5
942 26 0.465122 0.670656 0.5
890 33 0.448972 0.701003 0.5
25 33 0.488283 0.692013 0.5
526 30 0.494816 0.659883 0.5
758 22 0.525072 0.65875 0.5
198 35 0.524408 0.689768 0.5
732 28 0.555121 0.660951 0.5
195 37 0.563883 0.692746 0.5
454 32 0.608712 0.643119 0.5
281 25 0.587654 0.665778 0.5
163 26 0.619559 0.674086 0.5
915 27 0.596911 0.697016 0.5
755 25 0.628026 0.703757 0.5
820 29 0.640939 0.649568 0.5
323 30 0.652417 0.680248 0.5
23 28 0.673685 0.657525 0.5
496 30 0.682604 0.691628 0.5
432 29 0.706544 0.665463 0.5
334 33 0.713811 0.698913 0.5
899 23 0.729694 0.642649 0.5
354 34 0.739472 0.675788 0.5
123 18 0.761116 0.65285 0.5
522 35 0.774606 0.680568 0.5
759 36 0.748996 0.708039 0.5
584 25 0.821857 0.644247 0.5
322 23 0.801827 0.663708 0.5
605 24 0.829173 0.673127 0.5
774 33 0.806073 0.693498 0.5
678 30 0.838095 0.702227 0.5
861 35 0.857221 0.65698 0.5
474 28 0.867634 0.688968 0.5
777 27 0.888842 0.66689 0.5
960 40 0.902316 0.700247 0.5
489 22 0.921691 0.673048 0.5
876 31 0.986804 0.698675 0.5
918 39 0.975707 0.664391 0.5
134 34 0.949167 0.687852 0.5
146 25 0.945258 0.65241 0.5
342 39 0.0604845 0.716516 0.5
514 25 0.0323444 0.736296 0.5
236 41 0.00508764 0.764803 0.5
401 25 0.0390945 0.767435 0.5
647 30 0.0647233 0.750229 0.5
19 28 0.0648487 0.782502 0.5
552 30 0.121221 0.714804 0.5
643 28 0.0930623 0.73046 0.5
721 27 0.125658 0.747484 0.5
204 34 0.0957114 0.764223 0.5
624 24 0.125696 0.777585 0.5
351 31 0.182243 0.715685 0.5
468 27 0.152281 0.731016 0.5
970 22 0.184791 0.747427 0.5
460 34 0.15489 0.762815 0.5
1 26 0.183667 0.778034 0.5
972 29 0.211743 0.731869 0.5
10 29 0.211241 0.761965 0.5
717 30 0.242887 0.745972 0.5
610 30 0.27041 0.727075 0.5
255 29 0.27431 0.759925 0.5
352 27 0.243736 0.777695 0.5
304 28 0.299913 0.737839 0.5
907 27 0.327268 0.722386 0.5
48 25 0.326117 0.75234 0.5
667 27 0.345171 0.771925 0.5
739 42 0.308661 0.780965 0.5
547 33 0.356375 0.740346 0.5
284 35 0.415193 0.710749 0.5
226 31 0.383966 0.724696 0.5
417 25 0.409227 0.746114 0.5
449 26 0.380961 0.758256 0.5
99 25 0.403816 0.777625 0.5
507 29 0.432435 0.764097 0.5
808 26 0.439559 0.733843 0.5
78 20 0.461231 0.754094 0.5
13 31 0.472111 0.726767 0.5
117 31 0.50625 0.72051 0.5
362 32 0.492555 0.754851 0.5
388 26 0.52257 0.747127 0.5
335 33 0.540675 0.720785 0.5
840 26 0.552909 0.750022 0.5
321 31 0.534036 0.775723 0.5
184 27 0.573522 0.72609 0.5
800 23 0.564762 0.777327 0.5
209 26 0.583242 0.755254 0.5
159 34 0.606116 0.72821 0.5
937 32 0.617347 0.76255 0.5
527 28 0.637007 0.73666 0.5
59 23 0.647588 0.77252 0.5
49 27 0.657922 0.713411 0.5
314 31 0.667476 0.747093 0.5
525 26 0.686867 0.722162 0.5
337 29 0.698414 0.755537 0.5
256 33 0.678318 0.781894 0.5
30 32 0.721124 0.730339 0.5
573 30 0.782037 0.716927 0.5
302 26 0.758005 0.739926 0.5
327 31 0.732742 0.761855 0.5
570 34 0.766448 0.77159 0.5
50 32 0.788808 0.748447 0.5
654 25 0.813447 0.724855 0.5
392 30 0.821237 0.753391 0.5
635 23 0.840447 0.731171 0.5
484 34 0.80068 0.781197 0.5
878 32 0.854907 0.757679 0.5
435 23 0.931129 0.715581 0.5
93 42 0.874351 0.725711 0.5
319 29 0.887983 0.758809 0.5
612 27 0.907859 0.735902 0.5
276 35 0.918501 0.771033 0.5
477 31 0.963216 0.719456 0.5
285 30 0.999513 0.728351 0.5
630 32 0.974008 0.749676 0.5
238 25 0.938932 0.744578 0.5
839 27 0.950743 0.772476 0.5
240 29 0.0350711 0.827552 0.5
248 26 0.0371712 0.797069 0.5
462 29 0.0657263 0.814631 0.5
247 24 0.0631262 0.845434 0.5
160 29 0.0931036 0.796431 0.5
684 25 0.0933441 0.827267 0.5
518 30 0.122044 0.842971 0.5
459 36 0.123105 0.809727 0.5
747 24 0.151311 0.793856 0.5
947 33 0.153495 0.827488 0.5
731 35 0.182165 0.809069 0.5
617 33 0.1832 0.844572 0.5
213 32 0.215051 0.793479 0.5
387 29 0.212333 0.827024 0.5
257 33 0.245056 0.810096 0.5
7 35 0.27409 0.79282 0.5
984 32 0.276297 0.830544 0.5
419 33 0.24089 0.844803 0.5
220 30 0.307052 0.816723 0.5
627 33 0.33971 0.804511 0.5
903 31 0.33406 0.837912 0.5
738 32 0.304478 0.85174 0.5
825 36 0.372509 0.791103 0.5
32 22 0.367771 0.82375 0.5
572 34 0.399928 0.811523 0.5
86 30 0.394101 0.84445 0.5
235 35 0.43105 0.797541 0.5
639 22 0.424426 0.832875 0.5
5 33 0.464739 0.782189 0.5
122 30 0.453314 0.823294 0.5
537 27 0.480837 0.840976 0.5
863 26 0.481474 0.811864 0.5
395 28 0.452537 0.854869 0.5
884 36 0.503496 0.788679 0.5
230 31 0.509961 0.824132 0.5
150 38 0.541431 0.808615 0.5
69 35 0.542569 0.844021 0.5
604 22 0.573278 0.802343 0.5
523 22 0.570246 0.831209 0.5
978 23 0.594866 0.786044 0.5
3 33 0.599337 0.816622 0.5
246 33 0.626072 0.796772 0.5
268 43 0.632876 0.836379 0.5
782 28 0.597763 0.848486 0.5
681 24 0.709515 0.786415 0.5
437 32 0.657046 0.809618 0.5
481 30 0.690221 0.812538 0.5
486 37 0.671805 0.843381 0.5
482 29 0.705851 0.85242 0.5
945 34 0.721839 0.823559 0.5
185 36 0.742464 0.795474 0.5
147 30 0.757609 0.826061 0.5
520 31 0.738645 0.85283 0.5
299 25 0.777057 0.803496 0.5
975 27 0.790669 0.83255 0.5
254 33 0.834214 0.784192 0.5
340 22 0.811774 0.811864 0.5
780 29 0.821466 0.840457 0.5
501 34 0.844564 0.81735 0.5
836 29 0.853628 0.849416 0.5
98 35 0.870274 0.788969 0.5
200 34 0.87748 0.823951 0.5
76 26 0.902997 0.800333 0.5
842 28 0.912914 0.831723 0.5
757 38 0.886763 0.85728 0.5
613 27 0.977951 0.787937 0.5
207 31 1.00662 0.802064 0.5
149 27 1.00429 0.833036 0.5
258 38 0.972272 0.82 0.5
88 41 0.938311 0.805235 0.5
75 21 0.944028 0.841026 0.5
502 25 0.978581 0.853845 0.5
695 21 0.00760113 0.862246 0.5
433 25 0.0377686 0.860412 0.5
113 35 0.0256539 0.890081 0.5
223 19 0.061389 0.875415 0.5
697 36 0.0565323 0.90789 0.5
328 23 0.0275816 0.923612 0.5
219 28 0.0910933 0.857748 0.5
992 37 0.088128 0.891351 0.5
224 30 0.121 0.874065 0.5
261 38 0.120457 0.909281 0.5
315 28 0.152453 0.86019 0.5
811 26 0.213183 0.859179 0.5
505 33 0.15207 0.891946 0.5
718 20 0.178455 0.877327 0.5
194 31 0.179403 0.909782 0.5
852 34 0.208334 0.889572 0.5
131 28 0.243615 0.876615 0.5
439 28 0.272168 0.860667 0.5
559 33 0.272183 0.894054 0.5
466 42 0.238863 0.911476 0.5
53 35 0.362779 0.855551 0.5
565 27 0.302809 0.88359 0.5
391 25 0.330725 0.869363 0.5
657 25 0.330258 0.903372 0.5
659 35 0.299042 0.916749 0.5
989 34 0.358313 0.888781 0.5
366 29 0.356397 0.923225 0.5
554 29 0.390179 0.876425 0.5
623 36 0.387357 0.909452 0.5
535 25 0.419187 0.898093 0.5
921 37 0.421273 0.865595 0.5
993 30 0.447306 0.888277 0.5
979 35 0.47794 0.875368 0.5
982 32 0.475976 0.911249 0.5
629 25 0.446445 0.920248 0.5
682 36 0.508572 0.893942 0.5
817 35 0.50908 0.858786 0.5
494 23 0.536315 0.876734 0.5
638 47 0.541998 0.913649 0.5
453 25 0.570544 0.860494 0.5
773 21 0.563653 0.887007 0.5
752 26 0.576686 0.910987 0.5
598 34 0.594774 0.88503 0.5
415 24 0.621762 0.868048 0.5
214 34 0.630786 0.898565 0.5
355 31 0.606399 0.919414 0.5
708 26 0.652884 0.871807 0.5
877 29 0.662629 0.908022 0.5
373 35 0.685237 0.880998 0.5
153 37 0.697827 0.91659 0.5
932 27 0.718651 0.883147 0.5
292 28 0.769345 0.856103 0.5
221 23 0.749294 0.881952 0.5
558 31 0.736786 0.910244 0.5
660 28 0.768756 0.91459 0.5
719 23 0.778071 0.885676 0.5
56 27 0.799619 0.866097 0.5
669 40 0.804764 0.903955 0.5
843 34 0.830465 0.873542 0.5
858 33 0.840644 0.908925 0.5
515 29 0.921485 0.863268 0.5
703 30 0.863521 0.882389 0.5
746 24 0.894693 0.887937 0.5
183 28 0.873944 0.911919 0.5
922 36 0.90574 0.917799 0.5
969 29 0.927956 0.893596 0.5
38 29 0.99638 0.913638 0.5
889 28 0.98901 0.883126 0.5
510 35 0.961799 0.901464 0.5
308 26 0.951948 0.869758 0.5
685 30 0.0144344 0.979086 0.5
943 44 0.0533895 0.980814 0.5
894 27 0.032195 0.953573 0.5
33 30 0.0603131 0.942183 0.5
262 32 0.0882317 0.92637 0.5
987 35 0.150331 0.927811 0.5
828 29 0.115886 0.978725 0.5
663 33 0.0871293 0.96264 0.5
873 32 0.115955 0.944682 0.5
538 34 0.145844 0.961263 0.5
490 32 0.175936 0.97802 0.5
67 30 0.178975 0.946145 0.5
197 29 0.208292 0.964209 0.5
775 33 0.208393 0.930235 0.5
511 37 0.242065 0.98223 0.5
819 30 0.236666 0.948184 0.5
189 13 0.267584 0.965133 0.5
180 33 0.268189 0.934187 0.5
461 32 0.287803 0.98681 0.5
339 36 0.295562 0.953658 0.5
455 31 0.349541 0.990501 0.5
291 27 0.324468 0.97079 0.5
941 29 0.327029 0.937415 0.5
670 34 0.354265 0.956799 0.5
61 32 0.381633 0.979316 0.5
860 30 0.385431 0.944511 0.5
896 29 0.410682 0.965098 0.5
148 34 0.415765 0.931234 0.5
58 27 0.437571 0.987182 0.5
741 34 0.50589 0.93076 0.5
763 34 0.468693 0.97603 0.5
222 33 0.443344 0.952221 0.5
509 27 0.473321 0.942859 0.5
444 33 0.500623 0.964314 0.5
390 32 0.529395 0.982825 0.5
735 28 0.533291 0.950789 0.5
934 25 0.558738 0.9708 0.5
551 30 0.568732 0.942112 0.5
243 33 0.58868 0.982828 0.5
898 28 0.59864 0.949666 0.5
609 30 0.620878 0.975285 0.5
940 27 0.645863 0.993833 0.5
211 19 0.648329 0.964703 0.5
158 35 0.633291 0.939071 0.5
591 26 0.673519 0.977619 0.5
562 37 0.669916 0.941316 0.5
241 33 0.700138 0.958 0.5
926 34 0.703499 0.993834 0.5
919 24 0.760655 0.994366 0.5
107 29 0.726249 0.938028 0.5
52 37 0.735123 0.973845 0.5
139 29 0.757029 0.944575 0.5
990 40 0.793711 1.00213 0.5
986 28 0.778062 0.968956 0.5
436 31 0.790778 0.93918 0.5
55 28 0.824708 0.93757 0.5
656 21 0.854243 0.93431 0.5
583 24 0.829272 0.996631 0.5
561 32 0.811186 0.967636 0.5
880 40 0.847708 0.967024 0.5
931 30 0.937349 0.927091 0.5
396 31 0.882279 0.941698 0.5
272 36 0.888097 0.974352 0.5
463 26 0.913636 0.950946 0.5
138 31 0.921793 0.980373 0.5
891 33 1.00247 0.945264 0.5
115 23 0.956029 0.987969 0.5
905 30 0.978871 0.969936 0.5
710 37 0.969094 0.934717 0.5
924 26 0.94464 0.958591 0.5
