ITEM: TIMESTEP
1850000
ITEM: NUMBER OF ATOMS
1000
ITEM: BOX BOUNDS pp pp pp
-1.5001142000000000e+01 1.5001142000000000e+01
-1.5001142000000000e+01 1.5001142000000000e+01
-5.0000000000000000e-01 5.0000000000000000e-01
ITEM: ATOMS id type xs ys zs
138 31 0.00646073 0.0274056 0.5
115 23 0.037727 0.0347431 0.5
733 37 0.0118484 0.0622953 0.5
905 30 0.0584355 0.0123942 0.5
924 26 0.0272555 0.00425808 0.5
463 26 -0.00471209 -0.00280538 0.5
685 30 0.0912708 0.0240477 0.5
933 29 0.0697544 0.0448436 0.5
249 34 0.103937 0.0574318 0.5
894 27 0.112833 0.00262974 0.5
943 44 0.133645 0.0319872 0.5
663 33 0.16297 0.0108646 0.5
34 31 0.165738 0.046515 0.5
828 29 0.194983 0.0311977 0.5
215 28 0.198127 0.062448 0.5
743 32 0.138824 0.0699445 0.5
538 34 0.227527 0.0114535 0.5
642 31 0.224122 0.0444116 0.5
865 22 0.251254 0.0566814 0.5
490 32 0.261012 0.0277636 0.5
197 29 0.292749 0.02007 0.5
380 38 0.285759 0.0553499 0.5
511 37 0.32121 0.0369714 0.5
189 13 0.345185 0.0166341 0.5
374 34 0.341647 0.0665963 0.5
819 30 0.321358 0.00234003 0.5
461 32 0.366517 0.0399603 0.5
650 29 0.398152 0.0543632 0.5
291 27 0.403958 0.0241182 0.5
339 36 0.37501 0.00559479 0.5
61 32 0.460477 0.0285805 0.5
455 31 0.429255 0.0446257 0.5
844 33 0.486959 0.0510503 0.5
517 36 0.455612 0.064261 0.5
896 29 0.491506 0.0171437 0.5
670 34 0.433282 0.0103505 0.5
58 27 0.51817 0.0391081 0.5
900 25 0.545282 0.0589929 0.5
763 34 0.552965 0.0266076 0.5
280 38 0.514714 0.0721626 0.5
444 33 0.58391 0.0123561 0.5
835 33 0.579204 0.0498828 0.5
390 32 0.60657 0.0375885 0.5
467 31 0.604382 0.0702409 0.5
934 25 0.63733 0.0262364 0.5
243 33 0.668979 0.0293229 0.5
253 29 0.632953 0.0566694 0.5
898 28 0.677927 -0.00632865 0.5
102 22 0.698334 0.0517491 0.5
609 30 0.699612 0.017369 0.5
192 36 0.66763 0.0648361 0.5
211 19 0.727617 0.00829868 0.5
940 27 0.725277 0.0363475 0.5
591 26 0.752735 0.0183026 0.5
749 28 0.754259 0.0525929 0.5
241 33 0.779446 0.000835083 0.5
926 34 0.781342 0.033528 0.5
52 37 0.816179 0.0169047 0.5
173 30 0.813482 0.051385 0.5
919 24 0.842174 0.036486 0.5
986 28 0.864018 0.010342 0.5
990 40 0.874814 0.0442875 0.5
561 32 0.896063 0.00936371 0.5
499 19 0.899042 0.064578 0.5
583 24 0.912665 0.0399167 0.5
622 28 0.979262 0.0547933 0.5
272 36 0.972497 0.0224739 0.5
880 40 0.931465 0.0126747 0.5
528 33 0.948588 0.0458256 0.5
768 31 0.0457031 0.0666937 0.5
155 30 0.0237601 0.0923531 0.5
895 29 -0.00203143 0.118572 0.5
964 33 0.0284779 0.124664 0.5
644 30 0.0552669 0.100936 0.5
483 28 -0.0106295 0.0871037 0.5
705 29 0.0619436 0.131879 0.5
182 33 0.076769 0.0781996 0.5
378 31 0.0866829 0.10986 0.5
143 30 0.111895 0.0892355 0.5
393 38 0.11957 0.123883 0.5
998 31 0.148474 0.104621 0.5
89 30 0.17035 0.0801426 0.5
279 32 0.176745 0.117766 0.5
242 35 0.200349 0.094111 0.5
673 27 0.227686 0.0752802 0.5
596 27 0.234933 0.103719 0.5
193 28 0.259799 0.0827334 0.5
939 37 0.209688 0.128365 0.5
367 28 0.265244 0.112995 0.5
172 21 0.311528 0.0691809 0.5
37 29 0.290846 0.0903184 0.5
469 36 0.303131 0.120939 0.5
161 27 0.324219 0.0932741 0.5
245 22 0.336191 0.121671 0.5
513 27 0.373504 0.0738856 0.5
298 38 0.361289 0.103806 0.5
124 28 0.388441 0.12519 0.5
488 26 0.39526 0.0935248 0.5
71 34 0.424171 0.0790185 0.5
218 23 0.445946 0.102027 0.5
330 27 0.417911 0.111858 0.5
473 31 0.44234 0.132503 0.5
831 29 0.471636 0.119791 0.5
701 37 0.481946 0.0865692 0.5
274 27 0.509211 0.105892 0.5
464 30 0.537389 0.125396 0.5
181 32 0.54158 0.0926729 0.5
649 35 0.5024 0.136311 0.5
14 29 0.569679 0.0825416 0.5
16 32 0.599381 0.103431 0.5
536 28 0.566603 0.113656 0.5
492 39 0.630149 0.122066 0.5
178 23 0.590584 0.131787 0.5
493 25 0.630452 0.0898445 0.5
704 34 0.66115 0.101912 0.5
445 35 0.694719 0.0882601 0.5
798 34 0.687155 0.12174 0.5
742 31 0.659814 0.141968 0.5
301 36 0.723733 0.0697162 0.5
208 32 0.723545 0.105701 0.5
420 34 0.755569 0.0888398 0.5
874 37 0.753402 0.126414 0.5
930 26 0.719704 0.137221 0.5
744 33 0.784665 0.0704779 0.5
103 33 0.78583 0.103148 0.5
485 34 0.816831 0.0847026 0.5
715 23 0.817417 0.115338 0.5
307 32 0.789021 0.135727 0.5
229 32 0.84663 0.0656327 0.5
582 28 0.8447 0.101389 0.5
677 38 0.850338 0.132594 0.5
588 26 0.874557 0.0799609 0.5
250 30 0.878097 0.113012 0.5
689 30 0.902356 0.0931985 0.5
737 34 0.909876 0.125708 0.5
68 31 0.926982 0.0696457 0.5
676 31 0.96722 0.107931 0.5
955 28 0.957154 0.0770688 0.5
63 29 0.933881 0.101146 0.5
425 32 0.94305 0.132637 0.5
938 23 0.00968186 0.149909 0.5
569 33 0.0201397 0.179815 0.5
244 29 0.0410869 0.154137 0.5
97 23 0.000848304 0.201897 0.5
762 32 0.0527882 0.191339 0.5
270 31 -0.0139161 0.173541 0.5
80 29 0.0920303 0.144351 0.5
729 23 0.0694398 0.164026 0.5
766 29 0.0959093 0.180335 0.5
648 25 0.118105 0.158616 0.5
259 20 0.0809665 0.204664 0.5
252 35 0.110326 0.209411 0.5
516 40 0.152871 0.147493 0.5
171 34 0.133928 0.183907 0.5
170 33 0.166632 0.183847 0.5
851 31 0.186155 0.155531 0.5
487 30 0.198869 0.189885 0.5
846 33 0.243168 0.137195 0.5
662 32 0.220145 0.165204 0.5
700 26 0.233852 0.194845 0.5
66 31 0.253784 0.168586 0.5
290 31 0.263924 0.20081 0.5
694 31 0.276372 0.142103 0.5
976 23 0.330398 0.150485 0.5
448 32 0.286684 0.172809 0.5
350 16 0.304523 0.151344 0.5
823 28 0.319387 0.177471 0.5
706 32 0.300197 0.204371 0.5
216 41 0.337728 0.208605 0.5
498 29 0.358918 0.139606 0.5
385 32 0.411235 0.147078 0.5
227 32 0.352677 0.174734 0.5
81 27 0.381464 0.159044 0.5
809 27 0.378615 0.19141 0.5
263 29 0.409539 0.177886 0.5
927 32 0.402469 0.214192 0.5
442 35 0.469572 0.154512 0.5
996 26 0.437662 0.16652 0.5
577 36 0.434258 0.20375 0.5
991 33 0.465092 0.187917 0.5
957 36 0.498952 0.174581 0.5
795 35 0.530655 0.158138 0.5
430 33 0.526959 0.195491 0.5
409 30 0.55735 0.179334 0.5
671 25 0.494649 0.208739 0.5
769 29 0.554722 0.215982 0.5
961 30 0.562263 0.147666 0.5
592 25 0.586913 0.168777 0.5
871 28 0.582799 0.199335 0.5
824 31 0.611927 0.152109 0.5
845 27 0.614646 0.182408 0.5
413 26 0.639282 0.166405 0.5
305 30 0.666198 0.178424 0.5
699 23 0.6395 0.196529 0.5
57 32 0.692129 0.155778 0.5
508 28 0.694564 0.188933 0.5
637 28 0.668784 0.210749 0.5
838 23 0.721041 0.171654 0.5
360 18 0.741227 0.15681 0.5
4 33 0.75112 0.183029 0.5
666 32 0.72285 0.201961 0.5
31 23 0.768292 0.15663 0.5
176 33 0.796378 0.169444 0.5
443 28 0.818592 0.146159 0.5
329 34 0.781439 0.201531 0.5
994 28 0.831757 0.17362 0.5
655 29 0.812063 0.202665 0.5
408 28 0.842765 0.203034 0.5
332 27 0.885023 0.143397 0.5
580 27 0.86278 0.165606 0.5
912 38 0.896612 0.178321 0.5
363 25 0.871881 0.197719 0.5
106 20 0.920996 0.153207 0.5
397 32 0.97652 0.140269 0.5
164 33 0.953902 0.163101 0.5
356 25 0.927795 0.181963 0.5
382 37 0.960836 0.197554 0.5
712 29 0.0296634 0.214852 0.5
377 27 0.00956857 0.239675 0.5
202 38 0.0417717 0.252214 0.5
611 36 0.0118817 0.272383 0.5
28 27 0.0623976 0.226016 0.5
210 28 0.0914809 0.237152 0.5
615 28 0.0750073 0.264114 0.5
813 30 0.106648 0.269424 0.5
167 27 0.126815 0.244265 0.5
24 29 0.14526 0.214365 0.5
837 33 0.179035 0.218047 0.5
542 32 0.160154 0.244233 0.5
806 27 0.140498 0.268712 0.5
936 25 0.175379 0.271259 0.5
736 26 0.192921 0.246518 0.5
881 27 0.205236 0.273751 0.5
886 28 0.213424 0.222093 0.5
87 28 0.22316 0.250722 0.5
260 28 0.242102 0.22651 0.5
756 28 0.256151 0.253976 0.5
199 36 0.238745 0.28144 0.5
130 28 0.278777 0.230325 0.5
203 39 0.310604 0.238344 0.5
995 25 0.285765 0.261919 0.5
132 31 0.326018 0.270003 0.5
802 35 0.347076 0.245525 0.5
451 33 0.371573 0.223804 0.5
169 21 0.376954 0.255425 0.5
608 29 0.403999 0.249366 0.5
754 31 0.357603 0.278541 0.5
168 36 0.392937 0.283272 0.5
414 34 0.43582 0.237707 0.5
966 25 0.456749 0.261465 0.5
841 31 0.426893 0.270327 0.5
114 26 0.466255 0.2221 0.5
651 24 0.481159 0.277979 0.5
389 39 0.489922 0.246001 0.5
607 37 0.524471 0.230497 0.5
400 34 0.521504 0.266809 0.5
646 28 0.552745 0.250159 0.5
568 31 0.613617 0.214355 0.5
90 39 0.585729 0.233014 0.5
440 39 0.58362 0.269493 0.5
788 33 0.615703 0.249246 0.5
104 25 0.641384 0.229553 0.5
452 33 0.67012 0.242121 0.5
73 31 0.645545 0.266136 0.5
497 32 0.675986 0.2793 0.5
358 28 0.698182 0.224921 0.5
368 33 0.703217 0.258286 0.5
963 27 0.751928 0.214021 0.5
121 32 0.728472 0.236571 0.5
581 23 0.732925 0.27051 0.5
832 41 0.762323 0.24871 0.5
603 29 0.794103 0.232555 0.5
571 42 0.829235 0.242798 0.5
317 37 0.797203 0.266486 0.5
225 34 0.826991 0.284948 0.5
27 33 0.901161 0.217808 0.5
857 39 0.867339 0.229449 0.5
855 31 0.892645 0.25345 0.5
859 39 0.858389 0.267735 0.5
365 27 0.923587 0.243182 0.5
589 24 0.931494 0.212367 0.5
165 22 0.981936 0.253256 0.5
920 29 0.982789 0.224323 0.5
379 27 0.955433 0.235494 0.5
456 31 0.950935 0.264746 0.5
310 33 0.922171 0.276753 0.5
326 43 0.0478474 0.292658 0.5
849 35 0.00916559 0.306188 0.5
346 29 0.0020642 0.336702 0.5
751 24 0.0361163 0.329358 0.5
606 34 0.0579308 0.357982 0.5
653 24 0.0857857 0.291242 0.5
574 22 0.0989073 0.318327 0.5
188 31 0.0665716 0.322676 0.5
923 33 0.123357 0.298666 0.5
54 29 0.122024 0.337554 0.5
313 33 0.090979 0.348577 0.5
614 29 0.155573 0.295136 0.5
929 33 0.152708 0.326276 0.5
672 31 0.183348 0.309078 0.5
770 41 0.18358 0.345554 0.5
967 24 0.26988 0.285542 0.5
628 31 0.215078 0.306389 0.5
917 39 0.245296 0.320653 0.5
812 27 0.217071 0.339748 0.5
407 26 0.281104 0.344963 0.5
429 27 0.299645 0.290475 0.5
428 28 0.277224 0.315283 0.5
792 31 0.306735 0.323733 0.5
897 31 0.329962 0.302383 0.5
196 31 0.338617 0.334131 0.5
597 24 0.311563 0.354324 0.5
120 30 0.365969 0.30942 0.5
403 25 0.394968 0.32337 0.5
376 40 0.372016 0.34727 0.5
162 32 0.416045 0.348576 0.5
239 35 0.449958 0.291802 0.5
856 28 0.420029 0.306878 0.5
847 37 0.446862 0.334069 0.5
953 29 0.477021 0.314732 0.5
848 29 0.476562 0.348912 0.5
144 34 0.552135 0.288561 0.5
325 32 0.50537 0.295872 0.5
935 25 0.504812 0.33147 0.5
331 26 0.531744 0.313322 0.5
690 27 0.536943 0.342874 0.5
753 32 0.562366 0.323449 0.5
372 27 0.618069 0.282696 0.5
799 27 0.587846 0.301507 0.5
950 32 0.590164 0.338771 0.5
944 29 0.61557 0.31614 0.5
424 23 0.620259 0.354944 0.5
761 29 0.647766 0.299183 0.5
457 37 0.677871 0.31411 0.5
977 35 0.647395 0.331949 0.5
914 25 0.679931 0.346209 0.5
500 41 0.708944 0.294588 0.5
779 37 0.762745 0.286325 0.5
174 31 0.738041 0.311586 0.5
626 35 0.709251 0.331738 0.5
434 24 0.741052 0.341518 0.5
491 30 0.767639 0.324544 0.5
312 38 0.795905 0.303748 0.5
44 33 0.828234 0.320441 0.5
265 41 0.798958 0.341821 0.5
540 35 0.834809 0.353569 0.5
521 32 0.858667 0.304897 0.5
745 35 0.890033 0.290351 0.5
829 25 0.888767 0.32167 0.5
166 30 0.862908 0.336028 0.5
530 29 0.909467 0.34378 0.5
879 33 0.919631 0.310795 0.5
797 31 0.977028 0.284513 0.5
544 28 0.976057 0.316603 0.5
353 29 0.949149 0.298035 0.5
85 23 0.943026 0.328877 0.5
375 30 0.967469 0.345914 0.5
661 30 0.0237796 0.358168 0.5
618 35 -0.00925845 0.369836 0.5
901 37 0.0165047 0.394502 0.5
803 31 0.0505982 0.390375 0.5
822 35 0.0387741 0.421305 0.5
2 28 0.00576765 0.428707 0.5
776 31 0.0844532 0.38078 0.5
548 36 0.112934 0.406288 0.5
534 33 0.118778 0.370844 0.5
557 37 0.0740462 0.415637 0.5
369 35 0.150496 0.361834 0.5
288 35 0.147188 0.396766 0.5
179 31 0.177532 0.382808 0.5
962 46 0.175878 0.425504 0.5
785 33 0.248713 0.356419 0.5
723 29 0.21847 0.371125 0.5
111 28 0.246956 0.389907 0.5
707 45 0.212117 0.406294 0.5
586 42 0.248134 0.426145 0.5
636 22 0.274 0.374522 0.5
902 30 0.27663 0.405438 0.5
18 41 0.306309 0.386951 0.5
787 27 0.304251 0.4221 0.5
555 30 0.33805 0.366975 0.5
427 31 0.337546 0.403685 0.5
293 35 0.366619 0.387595 0.5
84 27 0.395975 0.372126 0.5
621 27 0.394873 0.40515 0.5
405 29 0.364394 0.421818 0.5
273 28 0.449054 0.36679 0.5
96 30 0.423738 0.387156 0.5
232 27 0.453273 0.400497 0.5
564 27 0.424929 0.419003 0.5
720 28 0.480652 0.380705 0.5
658 35 0.482679 0.414285 0.5
333 30 0.510428 0.362505 0.5
794 31 0.509276 0.394982 0.5
888 28 0.539586 0.37545 0.5
175 43 0.53937 0.413468 0.5
834 31 0.56371 0.356709 0.5
875 34 0.568348 0.393153 0.5
734 32 0.594786 0.371509 0.5
587 36 0.599259 0.4065 0.5
988 20 0.622687 0.382936 0.5
296 30 0.570059 0.431298 0.5
21 31 0.651154 0.366291 0.5
665 41 0.648245 0.401383 0.5
740 34 0.680431 0.382059 0.5
206 32 0.685744 0.414096 0.5
72 26 0.710859 0.362295 0.5
476 22 0.765429 0.354675 0.5
478 29 0.70976 0.393972 0.5
309 34 0.740205 0.37473 0.5
949 34 0.740234 0.41018 0.5
91 25 0.766163 0.394591 0.5
112 25 0.713163 0.428422 0.5
531 26 0.769268 0.426466 0.5
529 28 0.7862 0.374037 0.5
277 26 0.815546 0.382453 0.5
416 34 0.795583 0.407031 0.5
566 31 0.827063 0.414516 0.5
679 42 0.850975 0.386758 0.5
418 34 0.878916 0.366056 0.5
952 34 0.882817 0.402203 0.5
12 34 0.910904 0.37763 0.5
980 28 0.917645 0.413035 0.5
217 32 0.85791 0.427449 0.5
100 33 0.938448 0.360898 0.5
652 41 0.976226 0.402481 0.5
6 15 0.961432 0.374471 0.5
177 24 0.941527 0.394473 0.5
578 29 0.946684 0.425586 0.5
156 25 0.0019212 0.458678 0.5
364 32 0.0318459 0.453154 0.5
725 38 0.0185578 0.488179 0.5
698 21 0.0494694 0.48195 0.5
283 36 0.0685161 0.451051 0.5
686 30 0.103343 0.440486 0.5
545 38 0.0937907 0.478038 0.5
575 32 0.125661 0.497759 0.5
345 32 0.128115 0.463536 0.5
971 20 0.0705543 0.500098 0.5
781 29 0.136511 0.431431 0.5
973 22 0.158215 0.454121 0.5
480 26 0.156091 0.479565 0.5
233 27 0.186105 0.461363 0.5
632 30 0.185036 0.492995 0.5
716 30 0.212812 0.441855 0.5
793 29 0.245481 0.460687 0.5
234 34 0.216711 0.475132 0.5
951 29 0.247683 0.494211 0.5
631 30 0.279982 0.441552 0.5
750 32 0.274364 0.475402 0.5
116 23 0.305856 0.45492 0.5
532 28 0.305742 0.487197 0.5
786 38 0.334398 0.439525 0.5
8 25 0.333798 0.472401 0.5
728 34 0.395411 0.435107 0.5
140 30 0.369391 0.454223 0.5
815 30 0.368532 0.487429 0.5
228 27 0.39779 0.47135 0.5
664 32 0.454625 0.432429 0.5
36 37 0.426149 0.451648 0.5
616 30 0.456432 0.466936 0.5
458 36 0.426763 0.487379 0.5
65 31 0.483035 0.449751 0.5
885 25 0.484649 0.484017 0.5
303 29 0.509787 0.433354 0.5
645 33 0.510918 0.465343 0.5
674 28 0.539099 0.450897 0.5
692 28 0.539823 0.481885 0.5
348 27 0.512261 0.497579 0.5
593 25 0.625566 0.426186 0.5
384 41 0.568682 0.46464 0.5
105 31 0.599656 0.443037 0.5
125 30 0.603584 0.476598 0.5
133 32 0.631394 0.457997 0.5
108 33 0.63208 0.492261 0.5
421 34 0.657617 0.43698 0.5
79 37 0.660828 0.473042 0.5
730 31 0.687862 0.450603 0.5
201 34 0.69334 0.486646 0.5
402 37 0.742873 0.445735 0.5
892 23 0.719034 0.467502 0.5
157 32 0.74906 0.47977 0.5
278 33 0.777759 0.458155 0.5
426 23 0.802132 0.436577 0.5
94 25 0.806544 0.470924 0.5
821 26 0.831001 0.450239 0.5
772 32 0.77986 0.492714 0.5
887 32 0.838756 0.481995 0.5
968 37 0.810592 0.50186 0.5
70 28 0.863067 0.459928 0.5
136 37 0.892032 0.435079 0.5
141 32 0.895363 0.467676 0.5
267 27 0.870126 0.491073 0.5
471 25 0.979567 0.476154 0.5
47 31 0.976713 0.440367 0.5
17 27 0.951381 0.460909 0.5
383 35 0.923534 0.448732 0.5
805 27 0.926774 0.481159 0.5
39 27 0.954227 0.492849 0.5
438 27 0.0431294 0.513022 0.5
853 20 0.0141711 0.51784 0.5
533 35 -0.00628358 0.541487 0.5
585 32 0.0287382 0.542819 0.5
818 25 0.0567003 0.556789 0.5
807 23 0.0967738 0.512102 0.5
983 32 0.0703888 0.529287 0.5
906 38 0.0907183 0.558231 0.5
503 37 0.119437 0.533991 0.5
579 28 0.152978 0.51369 0.5
191 36 0.155855 0.546755 0.5
959 27 0.183671 0.523445 0.5
764 37 0.192529 0.556823 0.5
26 39 0.217538 0.510227 0.5
641 29 0.224192 0.542587 0.5
791 27 0.250211 0.526156 0.5
512 31 0.253108 0.558517 0.5
594 33 0.278197 0.507002 0.5
783 26 0.280239 0.540019 0.5
300 36 0.338507 0.503668 0.5
22 34 0.307376 0.520655 0.5
51 31 0.311092 0.55471 0.5
422 30 0.339069 0.53966 0.5
709 30 0.398466 0.504813 0.5
154 28 0.368515 0.519542 0.5
948 36 0.370832 0.55466 0.5
361 33 0.400832 0.538522 0.5
765 24 0.402718 0.570283 0.5
556 29 0.456287 0.500586 0.5
357 36 0.429824 0.521606 0.5
866 29 0.459693 0.534175 0.5
77 20 0.426947 0.55542 0.5
563 35 0.456499 0.568004 0.5
446 28 0.487009 0.515295 0.5
92 28 0.485095 0.550625 0.5
349 40 0.517278 0.531528 0.5
126 32 0.54836 0.511322 0.5
504 39 0.551604 0.548019 0.5
814 31 0.519098 0.567337 0.5
479 21 0.576783 0.497666 0.5
62 28 0.57732 0.527016 0.5
771 26 0.604384 0.511197 0.5
767 39 0.605976 0.546075 0.5
251 32 0.579233 0.569698 0.5
406 30 0.634865 0.52664 0.5
394 29 0.663076 0.506461 0.5
688 27 0.669473 0.537364 0.5
118 26 0.69346 0.520012 0.5
101 27 0.700166 0.553196 0.5
904 34 0.640817 0.55733 0.5
893 30 0.723517 0.498782 0.5
404 31 0.724646 0.532158 0.5
549 30 0.752916 0.511957 0.5
431 31 0.759737 0.542948 0.5
1000 35 0.73079 0.565898 0.5
64 31 0.786127 0.524324 0.5
760 26 0.816947 0.538015 0.5
711 34 0.791199 0.55821 0.5
282 27 0.841369 0.514131 0.5
137 33 0.82462 0.570149 0.5
83 31 0.901894 0.5018 0.5
727 36 0.873391 0.523684 0.5
910 30 0.850739 0.547767 0.5
381 32 0.882662 0.558559 0.5
911 29 0.909572 0.537259 0.5
264 31 0.986428 0.504998 0.5
553 32 0.964027 0.527076 0.5
41 31 0.932811 0.515215 0.5
343 33 0.939891 0.550241 0.5
519 24 0.969751 0.563341 0.5
294 29 -0.00216662 0.573641 0.5
999 36 0.00838043 0.603653 0.5
187 33 0.0320145 0.576246 0.5
784 28 0.0407608 0.609452 0.5
590 25 0.0131229 0.635425 0.5
495 33 0.0455176 0.641645 0.5
109 42 0.126692 0.570095 0.5
95 32 0.0926239 0.592417 0.5
696 27 0.0620148 0.586912 0.5
869 32 0.0718783 0.619732 0.5
465 27 0.104007 0.626832 0.5
854 28 0.130096 0.60463 0.5
713 37 0.164006 0.583124 0.5
913 29 0.162491 0.615187 0.5
359 34 0.136406 0.636753 0.5
212 25 0.194757 0.593328 0.5
398 37 0.194681 0.626365 0.5
680 29 0.223663 0.575214 0.5
60 27 0.222959 0.605542 0.5
925 23 0.252996 0.589246 0.5
524 33 0.257963 0.619343 0.5
336 35 0.28272 0.577538 0.5
423 34 0.341035 0.572727 0.5
668 23 0.287554 0.60835 0.5
550 25 0.313103 0.589982 0.5
620 28 0.314406 0.622669 0.5
804 29 0.341066 0.608197 0.5
286 31 0.341313 0.641147 0.5
965 29 0.370081 0.588742 0.5
882 36 0.370705 0.621326 0.5
687 33 0.400262 0.603251 0.5
883 35 0.402036 0.639382 0.5
29 29 0.429179 0.586819 0.5
151 37 0.458931 0.601599 0.5
576 33 0.430739 0.622633 0.5
506 37 0.462536 0.63612 0.5
693 29 0.489183 0.586078 0.5
275 32 0.49357 0.620737 0.5
956 33 0.524646 0.603189 0.5
306 27 0.549676 0.584809 0.5
266 35 0.553339 0.621484 0.5
412 29 0.522904 0.637535 0.5
560 29 0.580359 0.602761 0.5
602 25 0.606316 0.620699 0.5
347 44 0.615269 0.585498 0.5
371 29 0.635935 0.621624 0.5
9 28 0.675662 0.570959 0.5
411 31 0.651433 0.592953 0.5
908 21 0.680677 0.603089 0.5
619 32 0.666305 0.630342 0.5
324 38 0.702755 0.628677 0.5
870 30 0.704556 0.585274 0.5
318 35 0.73422 0.604083 0.5
691 38 0.761725 0.579793 0.5
46 34 0.769734 0.614696 0.5
42 40 0.739392 0.639671 0.5
35 37 0.797719 0.592702 0.5
683 34 0.830172 0.603542 0.5
981 30 0.803024 0.62437 0.5
625 32 0.913878 0.573268 0.5
43 35 0.855402 0.581043 0.5
601 31 0.886475 0.595148 0.5
110 30 0.862139 0.615914 0.5
119 29 0.891233 0.627086 0.5
546 32 0.980642 0.624352 0.5
341 25 0.97265 0.593263 0.5
289 22 0.945939 0.585217 0.5
269 32 0.920356 0.604698 0.5
916 25 0.949876 0.614565 0.5
974 26 0.926682 0.638617 0.5
271 30 0.0230833 0.665247 0.5
190 39 0.00052325 0.690184 0.5
146 25 0.0328647 0.696582 0.5
675 27 0.0555153 0.675644 0.5
918 39 0.0651233 0.710012 0.5
868 38 0.110319 0.659057 0.5
135 29 0.0759818 0.651724 0.5
726 29 0.0866906 0.683894 0.5
827 40 0.119787 0.695624 0.5
790 32 0.168057 0.649877 0.5
946 30 0.143249 0.670269 0.5
567 29 0.174468 0.68262 0.5
450 24 0.15225 0.701357 0.5
748 35 0.199857 0.662222 0.5
789 28 0.20245 0.697772 0.5
447 36 0.227236 0.638156 0.5
600 35 0.230403 0.676932 0.5
714 29 0.257544 0.654804 0.5
127 23 0.254968 0.695063 0.5
441 30 0.286357 0.638828 0.5
475 26 0.280526 0.675223 0.5
186 31 0.312368 0.65871 0.5
833 33 0.313736 0.691821 0.5
826 30 0.341634 0.67693 0.5
472 27 0.283645 0.703254 0.5
129 36 0.345753 0.711717 0.5
410 40 0.371151 0.660699 0.5
702 28 0.376136 0.693861 0.5
722 33 0.403485 0.674232 0.5
152 34 0.404749 0.707677 0.5
541 33 0.433681 0.654721 0.5
796 26 0.461611 0.672054 0.5
634 18 0.430636 0.689998 0.5
145 25 0.456209 0.700441 0.5
386 36 0.491695 0.654761 0.5
640 37 0.48906 0.694061 0.5
543 33 0.524638 0.669163 0.5
470 29 0.521653 0.700154 0.5
595 35 0.553684 0.689866 0.5
928 33 0.554671 0.654781 0.5
45 28 0.584638 0.643947 0.5
958 23 0.615388 0.648165 0.5
20 35 0.586755 0.678 0.5
370 37 0.62075 0.681467 0.5
758 22 0.614342 0.713057 0.5
526 30 0.577704 0.715185 0.5
297 30 0.643665 0.652057 0.5
128 31 0.661415 0.679441 0.5
864 25 0.682242 0.657906 0.5
454 32 0.691682 0.691893 0.5
732 28 0.642229 0.70743 0.5
810 31 0.713208 0.665941 0.5
816 32 0.745951 0.676225 0.5
820 29 0.722186 0.698689 0.5
23 28 0.75548 0.708876 0.5
599 33 0.83691 0.639525 0.5
867 37 0.773466 0.64989 0.5
311 28 0.804932 0.657988 0.5
850 23 0.779793 0.684287 0.5
899 23 0.808565 0.689359 0.5
778 24 0.831865 0.669586 0.5
123 18 0.841564 0.694759 0.5
862 25 0.869023 0.646194 0.5
997 34 0.868748 0.676433 0.5
633 30 0.900299 0.658687 0.5
584 25 0.903776 0.687539 0.5
322 23 0.884317 0.707302 0.5
142 31 0.957427 0.648048 0.5
801 26 0.991481 0.657457 0.5
338 29 0.966321 0.681829 0.5
295 33 0.932921 0.67139 0.5
861 35 0.943602 0.70657 0.5
489 22 0.0113488 0.721066 0.5
134 34 0.038171 0.736456 0.5
435 23 0.0192081 0.761185 0.5
477 31 0.0497556 0.769218 0.5
237 35 0.0984845 0.723494 0.5
876 31 0.0734463 0.746901 0.5
231 32 0.108292 0.757275 0.5
285 30 0.0837589 0.779294 0.5
205 27 0.175163 0.716574 0.5
724 40 0.13769 0.731203 0.5
539 31 0.174244 0.748541 0.5
342 39 0.143944 0.766201 0.5
552 30 0.204055 0.764221 0.5
643 28 0.176017 0.781425 0.5
82 33 0.202359 0.731318 0.5
830 29 0.23069 0.712351 0.5
399 34 0.262602 0.727646 0.5
872 39 0.233866 0.746308 0.5
351 31 0.263378 0.764442 0.5
468 27 0.235051 0.778918 0.5
344 21 0.290775 0.748713 0.5
74 35 0.311493 0.726281 0.5
316 38 0.323208 0.761494 0.5
985 25 0.349501 0.745406 0.5
610 30 0.352595 0.778824 0.5
972 29 0.29303 0.779032 0.5
287 35 0.376162 0.728496 0.5
954 24 0.376612 0.759967 0.5
320 33 0.406864 0.740792 0.5
907 27 0.407035 0.772037 0.5
909 28 0.434422 0.721783 0.5
15 33 0.435531 0.757944 0.5
40 39 0.465911 0.737138 0.5
226 31 0.466561 0.778882 0.5
942 26 0.542873 0.722307 0.5
11 37 0.503901 0.727339 0.5
890 33 0.53044 0.753162 0.5
284 35 0.494122 0.762474 0.5
13 31 0.551061 0.778075 0.5
808 26 0.519802 0.784346 0.5
25 33 0.565412 0.747636 0.5
198 35 0.600478 0.742328 0.5
117 31 0.587384 0.774807 0.5
335 33 0.621135 0.770565 0.5
281 25 0.669888 0.71715 0.5
195 37 0.641125 0.739656 0.5
915 27 0.677755 0.74611 0.5
184 27 0.653682 0.771355 0.5
159 34 0.688188 0.776508 0.5
163 26 0.701169 0.722827 0.5
755 25 0.712248 0.752169 0.5
323 30 0.732408 0.729342 0.5
49 27 0.740565 0.761104 0.5
496 30 0.763782 0.739746 0.5
525 26 0.770846 0.769993 0.5
432 29 0.787222 0.713468 0.5
354 34 0.823141 0.71764 0.5
334 33 0.796481 0.74503 0.5
759 36 0.832947 0.75189 0.5
30 32 0.806748 0.775147 0.5
522 35 0.856753 0.723838 0.5
774 33 0.889942 0.737661 0.5
573 30 0.865154 0.760179 0.5
654 25 0.895199 0.768344 0.5
605 24 0.913564 0.716011 0.5
777 27 0.97735 0.714327 0.5
960 40 0.989926 0.744462 0.5
678 30 0.922217 0.745434 0.5
474 28 0.953265 0.737765 0.5
93 42 0.964599 0.773583 0.5
635 23 0.925007 0.772806 0.5
612 27 -0.00242546 0.781555 0.5
238 25 0.0261137 0.790348 0.5
276 35 0.00315397 0.81516 0.5
839 27 0.0348937 0.821035 0.5
630 32 0.0591333 0.800964 0.5
88 41 0.0205037 0.852775 0.5
613 27 0.0631367 0.83341 0.5
514 25 0.116447 0.788078 0.5
236 41 0.0921325 0.813723 0.5
401 25 0.125127 0.813671 0.5
248 26 0.122317 0.843397 0.5
207 31 0.0891419 0.850835 0.5
647 30 0.15048 0.800103 0.5
19 28 0.151529 0.830809 0.5
204 34 0.18224 0.814675 0.5
160 29 0.180059 0.847117 0.5
721 27 0.209223 0.796032 0.5
460 34 0.238761 0.811359 0.5
624 24 0.211959 0.827238 0.5
747 24 0.238425 0.845047 0.5
970 22 0.26789 0.793943 0.5
1 26 0.265863 0.828575 0.5
10 29 0.293399 0.811299 0.5
717 30 0.322507 0.798487 0.5
352 27 0.328042 0.830443 0.5
213 32 0.294813 0.843566 0.5
304 28 0.380472 0.793328 0.5
255 29 0.355967 0.815052 0.5
739 42 0.389731 0.829665 0.5
7 35 0.357257 0.849247 0.5
48 25 0.407387 0.800684 0.5
627 33 0.421131 0.855461 0.5
547 33 0.436227 0.790718 0.5
667 27 0.426815 0.822292 0.5
449 26 0.463683 0.810191 0.5
825 36 0.454786 0.840592 0.5
99 25 0.486924 0.829629 0.5
417 25 0.492733 0.79607 0.5
507 29 0.514167 0.816279 0.5
78 20 0.541023 0.805168 0.5
5 33 0.548492 0.834951 0.5
235 35 0.514212 0.847258 0.5
362 32 0.571341 0.804078 0.5
884 36 0.586638 0.836688 0.5
388 26 0.602759 0.800253 0.5
321 31 0.618532 0.825523 0.5
863 26 0.566868 0.859737 0.5
150 38 0.623687 0.858367 0.5
840 26 0.63499 0.798482 0.5
800 23 0.646938 0.824881 0.5
209 26 0.663056 0.798417 0.5
978 23 0.672507 0.830677 0.5
937 32 0.694727 0.809503 0.5
604 22 0.65363 0.851366 0.5
527 28 0.719039 0.785783 0.5
59 23 0.724957 0.820358 0.5
314 31 0.750001 0.792884 0.5
256 33 0.758119 0.827372 0.5
246 33 0.705538 0.843576 0.5
437 32 0.736805 0.852701 0.5
302 26 0.839577 0.782508 0.5
337 29 0.782194 0.801495 0.5
327 31 0.813442 0.808577 0.5
681 24 0.79037 0.833352 0.5
185 36 0.825602 0.84077 0.5
570 34 0.85055 0.814833 0.5
50 32 0.874552 0.791011 0.5
484 34 0.88261 0.825918 0.5
299 25 0.860461 0.848183 0.5
392 30 0.906889 0.795741 0.5
254 33 0.914883 0.829855 0.5
76 26 0.982805 0.842855 0.5
319 29 0.969326 0.80958 0.5
878 32 0.938881 0.800606 0.5
98 35 0.948024 0.83503 0.5
842 28 -0.00596348 0.877295 0.5
75 21 0.0270744 0.886489 0.5
515 29 0.00490156 0.907518 0.5
308 26 0.0386106 0.912888 0.5
258 38 0.0537067 0.866934 0.5
502 25 0.0647434 0.899201 0.5
149 27 0.0900487 0.882324 0.5
695 21 0.0913713 0.91113 0.5
240 29 0.11869 0.873613 0.5
433 25 0.119051 0.906263 0.5
462 29 0.148602 0.862151 0.5
247 24 0.144823 0.892246 0.5
684 25 0.177991 0.876488 0.5
219 28 0.174967 0.904852 0.5
223 19 0.143459 0.919759 0.5
518 30 0.206918 0.89392 0.5
224 30 0.201893 0.925973 0.5
459 36 0.209524 0.860434 0.5
731 35 0.264768 0.862031 0.5
947 33 0.236289 0.880539 0.5
315 28 0.233453 0.912997 0.5
617 33 0.268304 0.900192 0.5
257 33 0.326754 0.861555 0.5
387 29 0.295133 0.877497 0.5
811 26 0.297928 0.910617 0.5
419 33 0.325904 0.895224 0.5
984 32 0.357965 0.884196 0.5
220 30 0.391355 0.867357 0.5
738 32 0.386799 0.90319 0.5
439 28 0.356415 0.917516 0.5
903 31 0.417668 0.888096 0.5
391 25 0.413184 0.922483 0.5
572 34 0.481798 0.861358 0.5
32 22 0.450599 0.875249 0.5
53 35 0.445536 0.906405 0.5
86 30 0.475338 0.893515 0.5
554 29 0.471236 0.928355 0.5
639 22 0.507819 0.879731 0.5
122 30 0.539412 0.869822 0.5
395 28 0.532804 0.902216 0.5
921 37 0.503147 0.914452 0.5
979 35 0.559232 0.925988 0.5
537 27 0.561162 0.890876 0.5
230 31 0.593887 0.874861 0.5
817 35 0.59066 0.907326 0.5
69 35 0.623272 0.893655 0.5
494 23 0.618577 0.927776 0.5
523 22 0.651239 0.878342 0.5
453 25 0.648822 0.910954 0.5
3 33 0.679523 0.863709 0.5
782 28 0.679629 0.8963 0.5
415 24 0.702999 0.913397 0.5
268 43 0.714262 0.881777 0.5
486 37 0.750797 0.887573 0.5
481 30 0.768714 0.858923 0.5
708 26 0.732267 0.914554 0.5
373 35 0.763159 0.923658 0.5
945 34 0.801546 0.866456 0.5
482 29 0.786046 0.894559 0.5
520 31 0.816634 0.898237 0.5
147 30 0.837271 0.871103 0.5
340 22 0.891501 0.855843 0.5
975 27 0.869931 0.8761 0.5
292 28 0.85102 0.899691 0.5
56 27 0.880225 0.909459 0.5
780 29 0.901666 0.886539 0.5
843 34 0.910046 0.917819 0.5
757 38 0.97238 0.902226 0.5
200 34 0.960874 0.868569 0.5
501 34 0.92523 0.863541 0.5
836 29 0.936927 0.895954 0.5
703 30 0.946496 0.925991 0.5
931 30 0.0171982 0.972868 0.5
969 29 0.00996576 0.938262 0.5
510 35 0.0420098 0.945845 0.5
710 37 0.0502652 0.980625 0.5
889 28 0.0703625 0.928745 0.5
891 33 0.0832344 0.989709 0.5
38 29 0.076139 0.958944 0.5
328 23 0.106485 0.97075 0.5
113 35 0.103996 0.938457 0.5
33 30 0.137891 0.986448 0.5
262 32 0.167591 0.974825 0.5
697 36 0.137197 0.951217 0.5
992 37 0.169077 0.937541 0.5
873 32 0.196105 0.997658 0.5
261 38 0.199653 0.959836 0.5
718 20 0.258801 0.927647 0.5
67 30 0.257318 0.995599 0.5
987 35 0.227668 0.978235 0.5
505 33 0.233918 0.944589 0.5
194 31 0.261327 0.963065 0.5
131 28 0.324459 0.926171 0.5
775 33 0.289156 0.984196 0.5
852 34 0.287634 0.9418 0.5
466 42 0.31821 0.9623 0.5
180 33 0.348122 0.984047 0.5
559 33 0.351246 0.950839 0.5
565 27 0.384686 0.937282 0.5
659 35 0.381172 0.970396 0.5
941 29 0.408469 0.989282 0.5
657 25 0.41004 0.957206 0.5
860 30 0.464745 0.995802 0.5
366 29 0.436242 0.975731 0.5
989 34 0.439177 0.942657 0.5
623 36 0.469032 0.962474 0.5
222 33 0.523223 1.00852 0.5
993 30 0.5289 0.938627 0.5
509 27 0.554135 0.994282 0.5
148 34 0.496441 0.984162 0.5
629 25 0.525608 0.973117 0.5
535 25 0.498288 0.948216 0.5
982 32 0.553337 0.960585 0.5
735 28 0.614502 1.00527 0.5
741 34 0.582496 0.97852 0.5
682 36 0.590615 0.942976 0.5
638 47 0.61994 0.968814 0.5
773 21 0.647038 0.941177 0.5
598 34 0.676399 0.929483 0.5
551 30 0.64626 0.996903 0.5
752 26 0.65531 0.967418 0.5
355 31 0.685578 0.963554 0.5
562 37 0.747153 0.984519 0.5
158 35 0.712501 0.982713 0.5
214 34 0.710826 0.94271 0.5
877 29 0.743576 0.950712 0.5
932 27 0.796837 0.926799 0.5
221 23 0.828389 0.925325 0.5
107 29 0.808399 0.983582 0.5
153 37 0.780705 0.96315 0.5
558 31 0.816637 0.954005 0.5
139 29 0.839167 0.988354 0.5
719 23 0.856617 0.92879 0.5
436 31 0.872465 0.980925 0.5
660 28 0.848418 0.955536 0.5
669 40 0.883798 0.94433 0.5
55 28 0.902802 0.976791 0.5
922 36 0.985059 0.96664 0.5
746 24 0.97848 0.936323 0.5
396 31 0.961527 0.990684 0.5
656 21 0.932971 0.978176 0.5
183 28 0.953007 0.956384 0.5
858 33 0.919819 0.950359 0.5
