ITEM: TIMESTEP
250000
ITEM: NUMBER OF ATOMS
1000
ITEM: BOX BOUNDS pp pp pp
-1.5001142000000000e+01 1.5001142000000000e+01
-1.5001142000000000e+01 1.5001142000000000e+01
-5.0000000000000000e-01 5.0000000000000000e-01
ITEM: ATOMS id type xs ys zs
672 31 0.0229438 0.0437434 0.5
628 31 0.0533762 0.0302729 0.5
936 25 0.0282423 0.0115022 0.5
428 28 0.0873107 0.0220019 0.5
917 39 0.0825885 0.0516356 0.5
792 31 0.118655 0.0410293 0.5
429 27 0.117185 0.0079159 0.5
897 31 0.148318 0.0181584 0.5
196 31 0.154432 0.0475347 0.5
120 30 0.181423 0.0244374 0.5
376 40 0.186429 0.0611742 0.5
403 25 0.212273 0.0381289 0.5
856 28 0.241224 0.0215808 0.5
847 37 0.245971 0.0517189 0.5
168 36 0.211178 0.00247125 0.5
953 29 0.273888 0.0251465 0.5
935 25 0.302727 0.0403108 0.5
651 24 0.301519 0.00776011 0.5
325 32 0.32986 0.0204323 0.5
331 26 0.357874 0.033276 0.5
690 27 0.33195 0.0529758 0.5
799 27 0.384139 0.0145026 0.5
372 27 0.416263 0.0384499 0.5
944 29 0.388481 0.0444353 0.5
761 29 0.446713 0.0268532 0.5
977 35 0.436569 0.0644669 0.5
440 39 0.417315 0.00203592 0.5
497 32 0.477529 0.0189716 0.5
457 37 0.467643 0.0541813 0.5
626 35 0.503786 0.0455431 0.5
500 41 0.513645 0.0125524 0.5
174 31 0.540461 0.0319713 0.5
581 23 0.571073 0.0240624 0.5
491 30 0.565791 0.0544157 0.5
121 32 0.548267 -0.00119468 0.5
779 37 0.602994 0.0229182 0.5
529 28 0.598528 0.0540887 0.5
540 35 0.629291 0.0478882 0.5
44 33 0.661694 0.0362976 0.5
225 34 0.696168 0.0291499 0.5
265 41 0.639218 0.0114459 0.5
312 38 0.677624 0.00255294 0.5
521 32 0.720701 0.0456223 0.5
879 33 0.751105 0.0307449 0.5
745 35 0.720596 0.00332285 0.5
353 29 0.782194 0.0206749 0.5
85 23 0.776982 0.0526326 0.5
544 28 0.808164 0.0425931 0.5
797 31 0.814886 0.0107109 0.5
849 35 0.84235 0.034018 0.5
751 24 0.866761 0.0593656 0.5
326 43 0.877127 0.0235093 0.5
653 24 0.913957 0.0277306 0.5
188 31 0.900065 0.0533552 0.5
574 22 0.934327 0.0483 0.5
813 30 0.942377 0.014326 0.5
614 29 0.997939 0.0215744 0.5
929 33 0.992265 0.0561623 0.5
923 33 0.965566 0.0366334 0.5
806 27 0.971101 0.00459696 0.5
812 27 0.0494995 0.0641908 0.5
770 41 0.0182373 0.0814341 0.5
723 29 0.0431995 0.103056 0.5
785 33 0.0692214 0.0871515 0.5
111 28 0.0697963 0.122436 0.5
407 26 0.104296 0.0752777 0.5
597 24 0.132364 0.0681765 0.5
636 22 0.0948715 0.102182 0.5
18 41 0.128311 0.103295 0.5
555 30 0.159147 0.0823907 0.5
293 35 0.165645 0.116764 0.5
84 27 0.192123 0.0948146 0.5
162 32 0.2196 0.0718212 0.5
96 30 0.223564 0.105619 0.5
273 28 0.251623 0.08452 0.5
232 27 0.25378 0.115766 0.5
848 29 0.279819 0.062414 0.5
333 30 0.308971 0.0752547 0.5
720 28 0.281184 0.0966195 0.5
794 31 0.314096 0.108809 0.5
753 32 0.366113 0.0645409 0.5
888 28 0.340404 0.0847721 0.5
175 43 0.345775 0.119825 0.5
834 31 0.375191 0.0959096 0.5
950 32 0.403166 0.0752668 0.5
734 32 0.405086 0.111132 0.5
988 20 0.43457 0.122454 0.5
424 23 0.428327 0.0959259 0.5
914 25 0.49126 0.0756711 0.5
21 31 0.461741 0.0906119 0.5
665 41 0.465168 0.125782 0.5
740 34 0.493576 0.10756 0.5
434 24 0.534248 0.0626308 0.5
72 26 0.519147 0.0861888 0.5
478 29 0.529007 0.116437 0.5
309 34 0.552939 0.0887853 0.5
949 34 0.562575 0.123973 0.5
476 22 0.582863 0.079238 0.5
416 34 0.615547 0.0829846 0.5
91 25 0.591079 0.10742 0.5
426 23 0.619888 0.115822 0.5
166 30 0.65685 0.068505 0.5
829 25 0.689323 0.0615358 0.5
277 26 0.643221 0.0968015 0.5
679 42 0.679406 0.0963305 0.5
530 29 0.747123 0.0659743 0.5
418 34 0.712894 0.0799262 0.5
952 34 0.712503 0.118057 0.5
12 34 0.743559 0.102105 0.5
375 30 0.801732 0.0734242 0.5
100 33 0.771318 0.0848198 0.5
6 15 0.795168 0.103612 0.5
177 24 0.772395 0.116988 0.5
618 35 0.825442 0.0991311 0.5
346 29 0.834347 0.0628702 0.5
661 30 0.855891 0.0887855 0.5
803 31 0.879881 0.11681 0.5
313 33 0.924818 0.077147 0.5
606 34 0.889406 0.0852187 0.5
776 31 0.913968 0.109808 0.5
534 33 0.948514 0.10082 0.5
54 29 0.958491 0.0679531 0.5
179 31 1.00664 0.117496 0.5
369 35 0.982568 0.0904079 0.5
707 45 0.0357483 0.136936 0.5
716 30 0.0333316 0.175306 0.5
586 42 0.0677689 0.156033 0.5
902 30 0.100875 0.133108 0.5
631 30 0.0934293 0.177797 0.5
787 27 0.113998 0.160317 0.5
427 31 0.1372 0.136956 0.5
786 38 0.146454 0.16954 0.5
405 29 0.173984 0.148357 0.5
140 30 0.17508 0.183123 0.5
621 27 0.198071 0.125316 0.5
564 27 0.229809 0.137794 0.5
728 34 0.203603 0.159731 0.5
36 37 0.232196 0.172569 0.5
658 35 0.286019 0.130518 0.5
664 32 0.258635 0.149752 0.5
65 31 0.291984 0.165082 0.5
303 29 0.319503 0.143728 0.5
875 34 0.378289 0.134452 0.5
674 28 0.352933 0.156937 0.5
645 33 0.322599 0.177529 0.5
296 30 0.383343 0.169679 0.5
587 36 0.411816 0.146048 0.5
105 31 0.416637 0.178708 0.5
593 25 0.442582 0.153551 0.5
133 32 0.449946 0.187771 0.5
206 32 0.503561 0.138696 0.5
421 34 0.475758 0.160758 0.5
730 31 0.510912 0.17001 0.5
112 25 0.53618 0.149281 0.5
892 23 0.543581 0.181495 0.5
402 37 0.568592 0.157125 0.5
531 26 0.596578 0.137022 0.5
278 33 0.601827 0.1685 0.5
821 26 0.627051 0.147064 0.5
94 25 0.632675 0.17917 0.5
566 31 0.653224 0.124904 0.5
136 37 0.685341 0.137765 0.5
217 32 0.657661 0.159826 0.5
141 32 0.690412 0.173964 0.5
980 28 0.745704 0.135742 0.5
383 35 0.719476 0.153988 0.5
17 27 0.74874 0.170697 0.5
652 41 0.808775 0.131486 0.5
578 29 0.775998 0.148032 0.5
471 25 0.775581 0.183017 0.5
47 31 0.805216 0.166656 0.5
901 37 0.848768 0.125303 0.5
2 28 0.836924 0.15863 0.5
822 35 0.870101 0.153671 0.5
698 21 0.865601 0.184946 0.5
548 36 0.939242 0.135695 0.5
557 37 0.903278 0.142673 0.5
283 36 0.898085 0.179424 0.5
686 30 0.9294 0.169866 0.5
288 35 0.974449 0.127393 0.5
962 46 1.00115 0.155426 0.5
781 29 0.962491 0.160368 0.5
973 22 0.982359 0.182561 0.5
793 29 0.0636391 0.192961 0.5
234 34 0.0340723 0.210046 0.5
26 39 0.0353027 0.245969 0.5
951 29 0.0636119 0.227623 0.5
116 23 0.121172 0.192052 0.5
750 32 0.0925682 0.211173 0.5
594 33 0.0933727 0.243978 0.5
532 28 0.122698 0.222821 0.5
8 25 0.149352 0.203098 0.5
300 36 0.153507 0.233267 0.5
815 30 0.18127 0.215161 0.5
154 28 0.181955 0.248873 0.5
228 27 0.206498 0.193654 0.5
709 30 0.20984 0.229275 0.5
458 36 0.2406 0.208943 0.5
357 36 0.242965 0.244687 0.5
616 30 0.264846 0.185861 0.5
885 25 0.295733 0.198655 0.5
556 29 0.271763 0.218822 0.5
446 28 0.304196 0.229549 0.5
692 28 0.355738 0.187822 0.5
348 27 0.327614 0.208105 0.5
126 32 0.356713 0.221265 0.5
504 39 0.377766 0.248435 0.5
384 41 0.389145 0.20541 0.5
479 21 0.407254 0.232534 0.5
125 30 0.42691 0.209594 0.5
771 26 0.435352 0.242317 0.5
79 37 0.484033 0.193308 0.5
108 33 0.459968 0.218682 0.5
394 29 0.492104 0.22763 0.5
157 32 0.574624 0.190101 0.5
201 34 0.517538 0.203025 0.5
118 26 0.524872 0.237269 0.5
893 30 0.549962 0.214545 0.5
404 31 0.558459 0.247549 0.5
772 32 0.607997 0.201667 0.5
549 30 0.581077 0.223572 0.5
968 37 0.615609 0.235171 0.5
70 28 0.663725 0.191352 0.5
887 32 0.639565 0.212603 0.5
267 27 0.669034 0.223347 0.5
282 27 0.647003 0.245628 0.5
83 31 0.695344 0.204978 0.5
727 36 0.693309 0.245062 0.5
805 27 0.721954 0.188446 0.5
39 27 0.749256 0.201779 0.5
41 31 0.722108 0.222057 0.5
553 32 0.753246 0.235866 0.5
156 25 0.801961 0.196115 0.5
264 31 0.781263 0.216731 0.5
533 35 0.792104 0.251739 0.5
725 38 0.82118 0.224986 0.5
364 32 0.833783 0.189411 0.5
438 27 0.85601 0.214158 0.5
971 20 0.882638 0.206483 0.5
983 32 0.886469 0.236054 0.5
345 32 0.951293 0.19241 0.5
545 38 0.917254 0.208494 0.5
807 23 0.918757 0.240383 0.5
575 32 0.949082 0.225178 0.5
233 27 1.00722 0.194707 0.5
632 30 1.00558 0.229109 0.5
480 26 0.978096 0.213427 0.5
579 28 0.976326 0.244928 0.5
791 27 0.0661931 0.26061 0.5
641 29 0.0390287 0.279012 0.5
680 29 0.0425072 0.31377 0.5
512 31 0.0680818 0.293696 0.5
22 34 0.124888 0.25751 0.5
783 26 0.0957761 0.276321 0.5
336 35 0.100144 0.312348 0.5
51 31 0.128138 0.290082 0.5
422 30 0.154191 0.26865 0.5
423 34 0.1594 0.303997 0.5
948 36 0.185685 0.284196 0.5
361 33 0.212184 0.26185 0.5
765 24 0.215797 0.296445 0.5
77 20 0.23884 0.276881 0.5
29 29 0.245829 0.307552 0.5
866 29 0.278447 0.247474 0.5
92 28 0.304617 0.263685 0.5
563 35 0.269959 0.277934 0.5
693 29 0.294845 0.294722 0.5
349 40 0.336054 0.250309 0.5
814 31 0.326569 0.288022 0.5
306 27 0.356977 0.278125 0.5
62 28 0.412508 0.262093 0.5
251 32 0.388621 0.28241 0.5
347 44 0.418508 0.301835 0.5
767 39 0.44392 0.27488 0.5
406 30 0.469674 0.248991 0.5
688 27 0.501295 0.258696 0.5
904 34 0.479036 0.28613 0.5
411 31 0.455719 0.310185 0.5
101 27 0.532865 0.269138 0.5
9 28 0.509478 0.292621 0.5
1000 35 0.541589 0.301601 0.5
431 31 0.565818 0.280612 0.5
64 31 0.590868 0.258024 0.5
760 26 0.623456 0.26698 0.5
711 34 0.601818 0.290027 0.5
910 30 0.666387 0.270183 0.5
137 33 0.63919 0.293415 0.5
43 35 0.674821 0.302896 0.5
381 32 0.701427 0.278118 0.5
911 29 0.726078 0.25496 0.5
625 32 0.732089 0.29061 0.5
601 31 0.705807 0.314057 0.5
343 33 0.757529 0.269118 0.5
853 20 0.825975 0.255552 0.5
519 24 0.783753 0.281597 0.5
289 22 0.762628 0.301529 0.5
341 25 0.792103 0.308706 0.5
294 29 0.81479 0.280127 0.5
585 32 0.853212 0.246026 0.5
187 33 0.850037 0.28583 0.5
818 25 0.877597 0.268092 0.5
696 27 0.882062 0.300125 0.5
503 37 0.944851 0.261021 0.5
906 38 0.909158 0.274492 0.5
95 32 0.912188 0.313563 0.5
109 42 0.940626 0.296083 0.5
959 27 1.00496 0.261841 0.5
764 37 1.00974 0.297165 0.5
191 36 0.974992 0.282635 0.5
212 25 0.0130077 0.331224 0.5
925 23 0.0733406 0.327044 0.5
60 27 0.0472837 0.345145 0.5
398 37 0.0196183 0.362436 0.5
668 23 0.106605 0.342189 0.5
524 33 0.0774758 0.357239 0.5
441 30 0.106878 0.37557 0.5
550 25 0.131843 0.324366 0.5
620 28 0.132894 0.356763 0.5
965 29 0.189693 0.31646 0.5
804 29 0.162104 0.336739 0.5
286 31 0.163464 0.371325 0.5
882 36 0.194433 0.352762 0.5
687 33 0.220238 0.330524 0.5
883 35 0.227931 0.369116 0.5
576 33 0.249673 0.340054 0.5
151 37 0.27766 0.323434 0.5
275 32 0.315446 0.320547 0.5
506 37 0.298362 0.354593 0.5
541 33 0.265382 0.36676 0.5
956 33 0.3487 0.311853 0.5
560 29 0.382209 0.314468 0.5
412 29 0.333156 0.347214 0.5
266 35 0.367046 0.341479 0.5
20 35 0.403283 0.34076 0.5
128 31 0.387543 0.372346 0.5
732 28 0.421552 0.368744 0.5
928 33 0.435507 0.337608 0.5
958 23 0.450094 0.36567 0.5
908 21 0.486863 0.315089 0.5
619 32 0.471256 0.342702 0.5
864 25 0.498159 0.355006 0.5
870 30 0.516966 0.328279 0.5
324 38 0.527392 0.364094 0.5
318 35 0.553576 0.33784 0.5
42 40 0.561441 0.371669 0.5
691 38 0.577015 0.31305 0.5
35 37 0.614762 0.322195 0.5
46 34 0.591261 0.347618 0.5
981 30 0.626481 0.35744 0.5
683 34 0.649164 0.328364 0.5
599 33 0.659464 0.36288 0.5
110 30 0.68191 0.336494 0.5
862 25 0.689849 0.367267 0.5
269 32 0.73715 0.323081 0.5
119 29 0.713615 0.347014 0.5
974 26 0.745414 0.354094 0.5
916 25 0.769802 0.330101 0.5
142 31 0.77749 0.364396 0.5
546 32 0.800443 0.340308 0.5
801 26 0.81072 0.36982 0.5
999 36 0.824807 0.313033 0.5
590 25 0.834412 0.346921 0.5
784 28 0.85876 0.321567 0.5
495 33 0.864738 0.357072 0.5
869 32 0.888801 0.335733 0.5
465 27 0.921934 0.349201 0.5
135 29 0.895504 0.370464 0.5
854 28 0.943993 0.330129 0.5
713 37 0.976894 0.315292 0.5
913 29 0.98759 0.346578 0.5
359 34 0.956092 0.36019 0.5
447 36 0.0490654 0.380108 0.5
748 35 0.0191346 0.399856 0.5
600 35 0.0505945 0.417766 0.5
789 28 0.0183827 0.433807 0.5
714 29 0.0786106 0.392168 0.5
475 26 0.109733 0.407248 0.5
127 23 0.0840771 0.41988 0.5
186 31 0.137585 0.390394 0.5
833 33 0.135471 0.423373 0.5
826 30 0.166479 0.408347 0.5
410 40 0.194012 0.389535 0.5
702 28 0.193298 0.426508 0.5
152 34 0.223183 0.408895 0.5
722 33 0.254183 0.396365 0.5
145 25 0.250213 0.430465 0.5
386 36 0.322152 0.381493 0.5
796 26 0.286861 0.389665 0.5
634 18 0.275732 0.416394 0.5
640 37 0.307661 0.415299 0.5
543 33 0.353495 0.376072 0.5
470 29 0.342452 0.409194 0.5
942 26 0.363294 0.436022 0.5
595 35 0.376763 0.405251 0.5
297 30 0.408403 0.40015 0.5
526 30 0.396619 0.435762 0.5
758 22 0.425201 0.427477 0.5
370 37 0.443565 0.397838 0.5
45 28 0.475771 0.379382 0.5
454 32 0.501675 0.389165 0.5
602 25 0.47431 0.4101 0.5
371 29 0.451875 0.433374 0.5
281 25 0.508549 0.421505 0.5
810 31 0.535126 0.400317 0.5
820 29 0.539438 0.430119 0.5
816 32 0.564641 0.404444 0.5
867 37 0.600429 0.381887 0.5
23 28 0.592625 0.414601 0.5
850 23 0.619942 0.414622 0.5
311 28 0.637225 0.389932 0.5
778 24 0.66816 0.392985 0.5
899 23 0.649805 0.41967 0.5
123 18 0.677027 0.421706 0.5
997 34 0.699641 0.398848 0.5
633 30 0.719808 0.377759 0.5
295 33 0.750672 0.387517 0.5
584 25 0.728235 0.4121 0.5
322 23 0.702739 0.431418 0.5
861 35 0.759052 0.420704 0.5
338 29 0.783984 0.398692 0.5
777 27 0.792012 0.430473 0.5
190 39 0.81506 0.403576 0.5
489 22 0.823278 0.434577 0.5
271 30 0.840551 0.379163 0.5
146 25 0.846063 0.415354 0.5
675 27 0.869667 0.390571 0.5
918 39 0.875537 0.429188 0.5
868 38 0.926467 0.38089 0.5
726 29 0.898505 0.404649 0.5
237 35 0.909666 0.440538 0.5
827 40 0.932928 0.414471 0.5
790 32 0.98788 0.377123 0.5
567 29 0.991708 0.413225 0.5
946 30 0.96067 0.39407 0.5
450 24 0.963241 0.425513 0.5
830 29 0.04443 0.45234 0.5
82 33 0.0111822 0.465128 0.5
872 39 0.0390807 0.487396 0.5
472 27 0.106725 0.440574 0.5
399 34 0.0774121 0.448768 0.5
344 21 0.102778 0.474393 0.5
351 31 0.0733452 0.479386 0.5
74 35 0.132871 0.461191 0.5
129 36 0.161344 0.443728 0.5
985 25 0.161887 0.478989 0.5
287 35 0.18966 0.462065 0.5
954 24 0.193628 0.493004 0.5
320 33 0.220989 0.443919 0.5
907 27 0.222491 0.47755 0.5
909 28 0.250016 0.461616 0.5
15 33 0.250355 0.495154 0.5
40 39 0.2846 0.447814 0.5
226 31 0.282354 0.482774 0.5
284 35 0.316138 0.473546 0.5
11 37 0.327963 0.44129 0.5
890 33 0.350979 0.469347 0.5
13 31 0.372777 0.496441 0.5
25 33 0.385156 0.465092 0.5
117 31 0.405232 0.492818 0.5
198 35 0.424551 0.460198 0.5
840 26 0.43881 0.492542 0.5
195 37 0.485548 0.444021 0.5
335 33 0.460007 0.468334 0.5
184 27 0.470269 0.500763 0.5
915 27 0.49458 0.477116 0.5
323 30 0.568891 0.439105 0.5
163 26 0.517278 0.452681 0.5
755 25 0.525048 0.484675 0.5
49 27 0.547296 0.463135 0.5
314 31 0.557954 0.494224 0.5
432 29 0.60147 0.444289 0.5
496 30 0.581157 0.469509 0.5
334 33 0.612606 0.476052 0.5
354 34 0.635074 0.446967 0.5
522 35 0.671768 0.449886 0.5
759 36 0.648571 0.479013 0.5
573 30 0.678068 0.485677 0.5
605 24 0.731543 0.441264 0.5
774 33 0.704625 0.462734 0.5
654 25 0.712167 0.49362 0.5
678 30 0.737647 0.470802 0.5
474 28 0.768167 0.452728 0.5
93 42 0.771861 0.48951 0.5
960 40 0.803202 0.462937 0.5
134 34 0.847781 0.454436 0.5
435 23 0.829312 0.482328 0.5
477 31 0.858829 0.488864 0.5
876 31 0.88145 0.462294 0.5
231 32 0.911793 0.472449 0.5
285 30 0.889482 0.497809 0.5
342 39 0.944475 0.490292 0.5
205 27 0.98547 0.445176 0.5
724 40 0.946936 0.453978 0.5
552 30 1.00369 0.498666 0.5
539 31 0.977993 0.476732 0.5
721 27 0.0296347 0.520484 0.5
468 27 0.0599924 0.511556 0.5
624 24 0.0237327 0.549718 0.5
460 34 0.0570615 0.546329 0.5
972 29 0.0958596 0.502841 0.5
970 22 0.0823988 0.529276 0.5
1 26 0.093551 0.554319 0.5
10 29 0.113831 0.529767 0.5
316 38 0.13017 0.496991 0.5
610 30 0.164424 0.511461 0.5
717 30 0.145083 0.534733 0.5
255 29 0.174539 0.545183 0.5
304 28 0.194713 0.523653 0.5
48 25 0.220806 0.509289 0.5
739 42 0.213882 0.549807 0.5
547 33 0.245535 0.530962 0.5
417 25 0.30909 0.504778 0.5
449 26 0.276984 0.5148 0.5
825 36 0.27634 0.549933 0.5
99 25 0.301754 0.531633 0.5
808 26 0.338649 0.50141 0.5
507 29 0.334152 0.536077 0.5
78 20 0.360386 0.522752 0.5
5 33 0.367125 0.552408 0.5
388 26 0.42115 0.518497 0.5
362 32 0.391692 0.526447 0.5
884 36 0.400438 0.563401 0.5
800 23 0.427352 0.545813 0.5
159 34 0.501795 0.509837 0.5
209 26 0.45049 0.524058 0.5
978 23 0.479046 0.534045 0.5
604 22 0.455783 0.552782 0.5
246 33 0.483753 0.566536 0.5
527 28 0.535937 0.517618 0.5
937 32 0.509942 0.543507 0.5
59 23 0.543428 0.549773 0.5
256 33 0.567709 0.527611 0.5
525 26 0.589213 0.502827 0.5
30 32 0.623412 0.505126 0.5
337 29 0.601718 0.534033 0.5
481 30 0.579062 0.558286 0.5
327 31 0.635485 0.537243 0.5
302 26 0.657029 0.51291 0.5
50 32 0.688972 0.515667 0.5
570 34 0.668779 0.544177 0.5
635 23 0.741012 0.499494 0.5
392 30 0.720777 0.524104 0.5
484 34 0.701864 0.55091 0.5
254 33 0.734934 0.556698 0.5
878 32 0.75306 0.526694 0.5
612 27 0.807162 0.502625 0.5
319 29 0.783958 0.523843 0.5
98 35 0.773493 0.556744 0.5
276 35 0.81337 0.537671 0.5
238 25 0.837184 0.511285 0.5
839 27 0.845505 0.542442 0.5
630 32 0.869662 0.521561 0.5
613 27 0.874076 0.556911 0.5
514 25 0.918654 0.50628 0.5
236 41 0.905303 0.536337 0.5
401 25 0.935635 0.559206 0.5
647 30 0.940681 0.527698 0.5
643 28 0.971135 0.511684 0.5
160 29 0.997244 0.530543 0.5
204 34 0.967417 0.547743 0.5
747 24 0.0355269 0.572206 0.5
731 35 0.0674289 0.57933 0.5
459 36 0.0122255 0.595779 0.5
947 33 0.0434443 0.605801 0.5
213 32 0.125705 0.562749 0.5
387 29 0.0994701 0.58633 0.5
617 33 0.0758673 0.612442 0.5
419 33 0.108383 0.618951 0.5
257 33 0.133455 0.595437 0.5
352 27 0.155874 0.569762 0.5
984 32 0.166334 0.602592 0.5
7 35 0.190166 0.575842 0.5
667 27 0.248734 0.565843 0.5
220 30 0.22414 0.586502 0.5
738 32 0.200196 0.6092 0.5
903 31 0.232404 0.619014 0.5
572 34 0.31153 0.560484 0.5
627 33 0.259143 0.597392 0.5
32 22 0.288924 0.582392 0.5
86 30 0.290391 0.613255 0.5
639 22 0.316101 0.594947 0.5
235 35 0.343191 0.573372 0.5
122 30 0.347642 0.606661 0.5
863 26 0.373815 0.586917 0.5
537 27 0.379179 0.617967 0.5
321 31 0.433249 0.577224 0.5
230 31 0.405028 0.597801 0.5
150 38 0.438458 0.612837 0.5
523 22 0.463274 0.58916 0.5
69 35 0.471071 0.622477 0.5
3 33 0.495716 0.601561 0.5
437 32 0.519305 0.57606 0.5
268 43 0.530448 0.615185 0.5
486 37 0.551989 0.583206 0.5
482 29 0.569469 0.61584 0.5
681 24 0.613832 0.562869 0.5
945 34 0.59009 0.586902 0.5
932 27 0.603114 0.620628 0.5
520 31 0.622933 0.593708 0.5
185 36 0.645704 0.569755 0.5
299 25 0.67923 0.576816 0.5
147 30 0.656178 0.599868 0.5
975 27 0.69194 0.604647 0.5
340 22 0.712118 0.582126 0.5
780 29 0.723367 0.609675 0.5
501 34 0.74721 0.586778 0.5
836 29 0.75448 0.618203 0.5
76 26 0.802969 0.570688 0.5
200 34 0.779738 0.592244 0.5
842 28 0.814856 0.601068 0.5
88 41 0.838333 0.57475 0.5
75 21 0.844697 0.613852 0.5
258 38 0.871832 0.589799 0.5
502 25 0.875335 0.624053 0.5
207 31 0.905276 0.572752 0.5
149 27 0.904681 0.607069 0.5
240 29 0.932722 0.592986 0.5
223 19 0.931256 0.624581 0.5
462 29 0.993718 0.565034 0.5
19 28 0.959642 0.577451 0.5
247 24 0.982681 0.595285 0.5
248 26 0.957442 0.611384 0.5
684 25 0.987168 0.623749 0.5
518 30 0.0193345 0.629969 0.5
315 28 0.0558762 0.637764 0.5
505 33 0.0298007 0.660785 0.5
194 31 0.0643663 0.668116 0.5
718 20 0.0865848 0.643494 0.5
852 34 0.0977605 0.674781 0.5
811 26 0.118012 0.648702 0.5
466 42 0.133101 0.68034 0.5
131 28 0.143691 0.627923 0.5
439 28 0.174982 0.633766 0.5
559 33 0.152028 0.656854 0.5
659 35 0.186159 0.667026 0.5
565 27 0.206041 0.64139 0.5
657 25 0.215671 0.670311 0.5
391 25 0.23843 0.650208 0.5
941 29 0.240591 0.684413 0.5
53 35 0.263317 0.635522 0.5
921 37 0.322645 0.627147 0.5
989 34 0.268992 0.666635 0.5
554 29 0.297368 0.645986 0.5
623 36 0.300217 0.682115 0.5
395 28 0.353051 0.640113 0.5
535 25 0.327348 0.662404 0.5
993 30 0.356239 0.674637 0.5
979 35 0.384872 0.653368 0.5
817 35 0.412275 0.631317 0.5
494 23 0.445189 0.646227 0.5
682 36 0.421066 0.668412 0.5
982 32 0.390024 0.68663 0.5
782 28 0.500148 0.638403 0.5
453 25 0.471683 0.654995 0.5
638 47 0.456555 0.689034 0.5
598 34 0.496068 0.673082 0.5
708 26 0.551045 0.641993 0.5
415 24 0.525765 0.654971 0.5
214 34 0.526895 0.687079 0.5
877 29 0.555764 0.672617 0.5
373 35 0.583253 0.648458 0.5
562 37 0.589979 0.68334 0.5
153 37 0.618548 0.657543 0.5
292 28 0.635755 0.624205 0.5
56 27 0.670134 0.626511 0.5
558 31 0.650044 0.652981 0.5
211 19 0.64212 0.682208 0.5
660 28 0.672173 0.68169 0.5
221 23 0.680701 0.653687 0.5
719 23 0.700814 0.634343 0.5
669 40 0.70834 0.672151 0.5
843 34 0.731872 0.643375 0.5
858 33 0.743868 0.675473 0.5
757 38 0.788606 0.624773 0.5
515 29 0.819506 0.634748 0.5
703 30 0.766496 0.650879 0.5
746 24 0.797231 0.658009 0.5
183 28 0.777086 0.683111 0.5
308 26 0.850517 0.641564 0.5
969 29 0.828369 0.665426 0.5
889 28 0.860941 0.672802 0.5
695 21 0.877199 0.650918 0.5
433 25 0.903906 0.638338 0.5
113 35 0.898567 0.672438 0.5
697 36 0.93171 0.658196 0.5
219 28 0.962267 0.640557 0.5
261 38 1.00417 0.685917 0.5
224 30 0.994015 0.653866 0.5
992 37 0.966607 0.677456 0.5
987 35 0.0410014 0.692635 0.5
67 30 0.0749828 0.701296 0.5
873 32 0.0181412 0.72043 0.5
538 34 0.0518357 0.728361 0.5
775 33 0.108524 0.709555 0.5
490 32 0.0863215 0.733515 0.5
380 38 0.121684 0.743015 0.5
180 33 0.168378 0.695999 0.5
197 29 0.141852 0.712015 0.5
819 30 0.158677 0.733344 0.5
189 13 0.183717 0.720224 0.5
339 36 0.206351 0.700642 0.5
291 27 0.209553 0.734191 0.5
670 34 0.236808 0.716535 0.5
366 29 0.271091 0.702355 0.5
61 32 0.269042 0.734137 0.5
860 30 0.300338 0.716054 0.5
629 25 0.363596 0.702891 0.5
148 34 0.331835 0.702494 0.5
222 33 0.356128 0.733795 0.5
896 29 0.327163 0.738531 0.5
741 34 0.418403 0.705963 0.5
509 27 0.389552 0.722286 0.5
444 33 0.416097 0.741843 0.5
735 28 0.446106 0.727695 0.5
752 26 0.497631 0.705426 0.5
773 21 0.473189 0.718932 0.5
551 30 0.470017 0.751665 0.5
898 28 0.497955 0.738402 0.5
158 35 0.559425 0.70566 0.5
355 31 0.526989 0.723193 0.5
609 30 0.557264 0.739437 0.5
591 26 0.591956 0.718304 0.5
926 34 0.612792 0.743607 0.5
241 33 0.622501 0.704641 0.5
107 29 0.656856 0.709459 0.5
52 37 0.643048 0.739679 0.5
986 28 0.675937 0.737909 0.5
139 29 0.690219 0.706805 0.5
436 31 0.723271 0.702282 0.5
561 32 0.708147 0.735385 0.5
55 28 0.73857 0.729889 0.5
656 21 0.756679 0.705661 0.5
922 36 0.808145 0.691088 0.5
396 31 0.786773 0.715492 0.5
880 40 0.767178 0.739929 0.5
463 26 0.818558 0.722717 0.5
510 35 0.841489 0.697718 0.5
931 30 0.855333 0.727143 0.5
38 29 0.876752 0.700157 0.5
33 30 0.929807 0.687988 0.5
328 23 0.907955 0.705954 0.5
710 37 0.889269 0.733565 0.5
891 33 0.926179 0.733068 0.5
828 29 0.997797 0.74427 0.5
262 32 0.982015 0.712116 0.5
894 27 0.949755 0.709784 0.5
663 33 0.962487 0.739543 0.5
642 31 0.0309289 0.75377 0.5
865 22 0.0636819 0.759887 0.5
673 27 0.0417171 0.783102 0.5
242 35 0.0207797 0.808401 0.5
37 29 0.0937343 0.766337 0.5
193 28 0.0731155 0.790139 0.5
469 36 0.108184 0.802658 0.5
172 21 0.122182 0.777207 0.5
461 32 0.183503 0.752222 0.5
511 37 0.148419 0.768233 0.5
161 27 0.143897 0.801687 0.5
374 34 0.176367 0.787825 0.5
455 31 0.238036 0.750683 0.5
650 29 0.208243 0.768995 0.5
513 27 0.206535 0.799406 0.5
71 34 0.237653 0.785607 0.5
844 33 0.296645 0.752191 0.5
517 36 0.267302 0.770678 0.5
701 37 0.295591 0.790096 0.5
218 23 0.265299 0.804388 0.5
280 38 0.3239 0.775604 0.5
58 27 0.355545 0.766457 0.5
763 34 0.385013 0.754548 0.5
181 32 0.347968 0.799365 0.5
900 25 0.378949 0.789476 0.5
390 32 0.439679 0.763818 0.5
835 33 0.410469 0.777835 0.5
14 29 0.40495 0.808947 0.5
467 31 0.437623 0.798181 0.5
934 25 0.497886 0.770734 0.5
253 29 0.467146 0.783778 0.5
192 36 0.494323 0.801412 0.5
243 33 0.526872 0.757147 0.5
102 22 0.525755 0.789092 0.5
301 36 0.559395 0.776396 0.5
940 27 0.581933 0.749571 0.5
749 28 0.596684 0.777262 0.5
420 34 0.585979 0.805464 0.5
744 33 0.6208 0.803359 0.5
173 30 0.630045 0.772337 0.5
919 24 0.663663 0.767422 0.5
229 32 0.651384 0.797322 0.5
499 19 0.679568 0.790749 0.5
990 40 0.700539 0.767193 0.5
583 24 0.735974 0.759056 0.5
689 30 0.706607 0.804771 0.5
68 31 0.735659 0.788618 0.5
955 28 0.764282 0.805935 0.5
272 36 0.801177 0.752746 0.5
528 33 0.767385 0.773937 0.5
622 28 0.795422 0.789174 0.5
138 31 0.823571 0.777454 0.5
924 26 0.836203 0.750062 0.5
905 30 0.866636 0.760157 0.5
115 23 0.851144 0.78888 0.5
933 29 0.879886 0.789893 0.5
685 30 0.902502 0.763067 0.5
943 44 0.940093 0.765628 0.5
249 34 0.915095 0.792947 0.5
215 28 1.00773 0.777616 0.5
34 31 0.976324 0.772595 0.5
743 32 0.952319 0.798646 0.5
89 30 0.985948 0.804116 0.5
596 27 0.0559844 0.815628 0.5
939 37 0.0318118 0.841354 0.5
846 33 0.0650323 0.848278 0.5
367 28 0.0860959 0.824094 0.5
694 31 0.0988975 0.853186 0.5
350 16 0.11566 0.832023 0.5
976 23 0.129932 0.855639 0.5
298 38 0.175956 0.822707 0.5
245 22 0.141171 0.828861 0.5
498 29 0.160438 0.855422 0.5
124 28 0.193593 0.855501 0.5
330 27 0.236052 0.816763 0.5
488 26 0.207865 0.828898 0.5
385 32 0.22762 0.850723 0.5
996 26 0.25068 0.871768 0.5
473 31 0.258093 0.838452 0.5
274 27 0.31876 0.814427 0.5
831 29 0.288719 0.825901 0.5
442 35 0.28455 0.86114 0.5
649 35 0.31452 0.848803 0.5
536 28 0.374056 0.819927 0.5
464 30 0.345552 0.834397 0.5
957 36 0.341557 0.872399 0.5
795 35 0.371428 0.858212 0.5
16 32 0.430877 0.830072 0.5
961 30 0.400282 0.843969 0.5
178 23 0.425382 0.863682 0.5
493 25 0.461883 0.814917 0.5
492 39 0.456447 0.848777 0.5
704 34 0.488635 0.835377 0.5
742 31 0.482245 0.867834 0.5
445 35 0.553117 0.812979 0.5
798 34 0.521183 0.823759 0.5
208 32 0.544201 0.849772 0.5
930 26 0.514974 0.858384 0.5
103 33 0.577418 0.83866 0.5
715 23 0.601615 0.862597 0.5
485 34 0.611787 0.833661 0.5
677 38 0.636105 0.864761 0.5
588 26 0.676369 0.818267 0.5
582 28 0.645401 0.829449 0.5
250 30 0.670686 0.852161 0.5
332 27 0.693646 0.871674 0.5
63 29 0.736043 0.822588 0.5
737 34 0.702702 0.83898 0.5
425 32 0.727904 0.855189 0.5
676 31 0.763628 0.843385 0.5
164 33 0.751934 0.876777 0.5
733 37 0.824918 0.81351 0.5
483 28 0.791167 0.822682 0.5
397 32 0.785123 0.870277 0.5
895 29 0.80731 0.847029 0.5
938 23 0.818643 0.873753 0.5
768 31 0.859864 0.818031 0.5
155 30 0.839758 0.847086 0.5
644 30 0.873439 0.851582 0.5
182 33 0.892939 0.821518 0.5
143 30 0.927345 0.824863 0.5
378 31 0.907682 0.853498 0.5
393 38 0.940014 0.858519 0.5
851 31 1.01204 0.868913 0.5
279 32 0.998061 0.836539 0.5
998 31 0.961834 0.83 0.5
516 40 0.97544 0.861886 0.5
662 32 0.0461788 0.877251 0.5
487 30 0.0268677 0.900468 0.5
886 28 0.036649 0.930824 0.5
700 26 0.0586951 0.907428 0.5
260 28 0.0698182 0.93547 0.5
66 31 0.0789023 0.879724 0.5
448 32 0.1134 0.882129 0.5
290 31 0.0918332 0.910773 0.5
706 32 0.12769 0.915475 0.5
823 28 0.147136 0.885085 0.5
227 32 0.181693 0.884311 0.5
216 41 0.166217 0.91877 0.5
81 27 0.215288 0.880743 0.5
809 27 0.206375 0.907961 0.5
263 29 0.238903 0.90303 0.5
927 32 0.231972 0.933259 0.5
991 33 0.307722 0.886856 0.5
577 36 0.275215 0.897396 0.5
114 26 0.301312 0.920286 0.5
414 34 0.267084 0.928002 0.5
671 25 0.332314 0.907828 0.5
430 33 0.365792 0.893695 0.5
769 29 0.360922 0.928592 0.5
592 25 0.397782 0.878543 0.5
413 26 0.451357 0.88285 0.5
824 31 0.422687 0.897685 0.5
409 30 0.392255 0.912932 0.5
871 28 0.418787 0.931595 0.5
845 27 0.448868 0.914984 0.5
305 30 0.47883 0.902508 0.5
637 28 0.474173 0.933542 0.5
508 28 0.502167 0.923918 0.5
57 32 0.510121 0.88844 0.5
31 23 0.539056 0.881153 0.5
874 37 0.572906 0.875546 0.5
838 23 0.528661 0.913299 0.5
360 18 0.55351 0.903139 0.5
4 33 0.556299 0.934309 0.5
307 32 0.607596 0.890678 0.5
176 33 0.581733 0.913156 0.5
443 28 0.612959 0.926341 0.5
580 27 0.665671 0.883525 0.5
994 28 0.635527 0.902486 0.5
363 25 0.666663 0.915521 0.5
655 29 0.647342 0.936328 0.5
912 38 0.697206 0.906289 0.5
106 20 0.721196 0.884658 0.5
356 25 0.734599 0.90762 0.5
857 39 0.715186 0.938645 0.5
270 31 0.800028 0.902673 0.5
382 37 0.768225 0.905011 0.5
589 24 0.784879 0.93348 0.5
920 29 0.817256 0.930816 0.5
964 33 0.854843 0.876977 0.5
705 29 0.889755 0.881209 0.5
569 33 0.834269 0.902123 0.5
712 29 0.850046 0.932132 0.5
244 29 0.871596 0.909571 0.5
80 29 0.923301 0.884765 0.5
729 23 0.903405 0.911776 0.5
259 20 0.915129 0.936905 0.5
766 29 0.935885 0.91397 0.5
837 33 1.0034 0.924779 0.5
170 33 0.989682 0.893696 0.5
648 25 0.956334 0.890049 0.5
171 34 0.969299 0.921422 0.5
881 27 0.0272632 0.983155 0.5
736 26 0.0143276 0.955387 0.5
199 36 0.0601024 0.996601 0.5
87 28 0.0497481 0.960459 0.5
130 28 0.100736 0.939873 0.5
203 39 0.137524 0.945423 0.5
967 24 0.0917832 0.993398 0.5
756 28 0.0799865 0.965713 0.5
995 25 0.112718 0.968978 0.5
451 33 0.199376 0.941253 0.5
754 31 0.173388 0.992538 0.5
132 31 0.141146 0.98348 0.5
802 35 0.168579 0.958909 0.5
169 21 0.195813 0.973208 0.5
608 29 0.224562 0.965762 0.5
841 31 0.2459 0.989933 0.5
966 25 0.256387 0.959262 0.5
239 35 0.278895 0.988154 0.5
389 39 0.292153 0.955517 0.5
400 34 0.320279 0.980261 0.5
607 37 0.327741 0.9429 0.5
144 34 0.355239 0.997518 0.5
646 28 0.357112 0.962139 0.5
90 39 0.385817 0.980371 0.5
699 23 0.444446 0.94553 0.5
568 31 0.389882 0.947017 0.5
788 33 0.421848 0.966678 0.5
73 31 0.452094 0.994599 0.5
104 25 0.46292 0.964646 0.5
452 33 0.488386 0.988954 0.5
358 28 0.492931 0.95707 0.5
666 32 0.526475 0.946348 0.5
368 33 0.521436 0.975148 0.5
963 27 0.555177 0.967224 0.5
329 34 0.588144 0.951951 0.5
832 41 0.581868 0.990478 0.5
317 37 0.614965 0.985053 0.5
603 29 0.621642 0.954726 0.5
408 28 0.680048 0.941898 0.5
571 42 0.653802 0.972878 0.5
27 33 0.751351 0.937065 0.5
859 39 0.697865 0.972884 0.5
855 31 0.735189 0.970021 0.5
310 33 0.756541 0.994718 0.5
456 31 0.789945 0.989083 0.5
365 27 0.76959 0.965011 0.5
379 27 0.801691 0.960155 0.5
165 22 0.821214 0.979658 0.5
97 23 0.831022 0.95682 0.5
762 32 0.885448 0.941646 0.5
611 36 0.849354 0.99718 0.5
377 27 0.857067 0.962181 0.5
202 38 0.881053 0.981727 0.5
252 35 0.943896 0.947259 0.5
615 28 0.911779 1.00106 0.5
28 27 0.91112 0.966945 0.5
210 28 0.936415 0.981877 0.5
542 32 0.996042 0.98552 0.5
24 29 0.982087 0.952535 0.5
167 27 0.963838 0.97546 0.5
