ITEM: TIMESTEP
1750000
ITEM: NUMBER OF ATOMS
1000
ITEM: BOX BOUNDS pp pp pp
-1.5001142000000000e+01 1.5001142000000000e+01
-1.5001142000000000e+01 1.5001142000000000e+01
-5.0000000000000000e-01 5.0000000000000000e-01
ITEM: ATOMS id type xs ys zs
396 31 0.0202078 0.02513 0.5
463 26 0.0541422 0.0347413 0.5
922 36 0.0448462 0.00227481 0.5
931 30 0.0762147 0.0154891 0.5
710 37 0.109385 0.0210057 0.5
924 26 0.0895296 0.0475689 0.5
905 30 0.121073 0.0561824 0.5
891 33 0.141065 0.0323316 0.5
894 27 0.171257 0.0367334 0.5
328 23 0.167886 0.00930349 0.5
663 33 0.227268 0.047442 0.5
33 30 0.201988 0.0282663 0.5
262 32 0.227871 0.0124499 0.5
873 32 0.25742 0.0321217 0.5
538 34 0.287632 0.0484958 0.5
987 35 0.29022 0.0150319 0.5
67 30 0.318234 0.0332608 0.5
775 33 0.347906 0.0199673 0.5
197 29 0.348382 0.0538121 0.5
819 30 0.376258 0.0377906 0.5
180 33 0.405906 0.0208349 0.5
189 13 0.402668 0.0542163 0.5
339 36 0.431801 0.0439423 0.5
659 35 0.436809 0.00526122 0.5
941 29 0.464981 0.0244729 0.5
670 34 0.492165 0.0429131 0.5
366 29 0.495479 0.0103282 0.5
291 27 0.461927 0.0570967 0.5
860 30 0.524254 0.031186 0.5
148 34 0.557263 0.0196501 0.5
896 29 0.55003 0.0525021 0.5
61 32 0.519586 0.0651267 0.5
222 33 0.584361 0.0397534 0.5
509 27 0.61493 0.0262784 0.5
763 34 0.610898 0.0605264 0.5
629 25 0.58963 0.00688872 0.5
741 34 0.645355 0.0102802 0.5
735 28 0.673173 0.0343998 0.5
444 33 0.641113 0.0454549 0.5
934 25 0.698627 0.0563103 0.5
551 30 0.704605 0.026275 0.5
898 28 0.732811 0.0353794 0.5
355 31 0.741937 0.00643391 0.5
158 35 0.773889 0.0149582 0.5
211 19 0.790024 0.0435358 0.5
609 30 0.761022 0.0512214 0.5
562 37 0.813171 0.0202482 0.5
591 26 0.815671 0.0561105 0.5
241 33 0.843495 0.0398186 0.5
107 29 0.86428 0.0140507 0.5
153 37 0.839117 -0.00655572 0.5
52 37 0.876058 0.051807 0.5
139 29 0.897217 0.0223855 0.5
436 31 0.931799 0.0155364 0.5
986 28 0.918443 0.0441012 0.5
656 21 0.994225 0.0134756 0.5
55 28 0.96423 0.0196845 0.5
880 40 0.987169 0.0469129 0.5
561 32 0.952302 0.0500332 0.5
272 36 0.0258953 0.0571466 0.5
622 28 0.0390459 0.0871718 0.5
528 33 0.00113404 0.0817231 0.5
955 28 0.0195005 0.110711 0.5
138 31 0.0619173 0.0639759 0.5
115 23 0.0943169 0.0754208 0.5
733 37 0.0711233 0.098262 0.5
768 31 0.106807 0.106771 0.5
685 30 0.157175 0.0628308 0.5
933 29 0.132985 0.0844064 0.5
249 34 0.166269 0.0957411 0.5
182 33 0.140202 0.115687 0.5
943 44 0.194343 0.0666457 0.5
743 32 0.200541 0.103907 0.5
34 31 0.229411 0.0813274 0.5
89 30 0.232247 0.114612 0.5
828 29 0.258203 0.0663519 0.5
215 28 0.26017 0.0985761 0.5
642 31 0.286814 0.0825705 0.5
673 27 0.288285 0.113233 0.5
490 32 0.317219 0.0645989 0.5
865 22 0.313921 0.0944668 0.5
380 38 0.345986 0.0874404 0.5
193 28 0.317756 0.123316 0.5
37 29 0.349037 0.12384 0.5
172 21 0.371513 0.104691 0.5
511 37 0.379306 0.0721772 0.5
374 34 0.401316 0.104207 0.5
461 32 0.424712 0.0776401 0.5
513 27 0.433419 0.107006 0.5
650 29 0.456177 0.0861353 0.5
455 31 0.487345 0.0781588 0.5
71 34 0.479341 0.113861 0.5
488 26 0.452103 0.13269 0.5
517 36 0.513763 0.102454 0.5
844 33 0.545714 0.0862283 0.5
701 37 0.542768 0.123287 0.5
58 27 0.576998 0.0702473 0.5
900 25 0.606729 0.0969244 0.5
280 38 0.575125 0.105094 0.5
390 32 0.667627 0.0683521 0.5
14 29 0.631472 0.113948 0.5
835 33 0.637282 0.0800914 0.5
467 31 0.66308 0.101161 0.5
243 33 0.730355 0.0666846 0.5
253 29 0.695073 0.0889949 0.5
493 25 0.693271 0.118312 0.5
192 36 0.727155 0.101344 0.5
102 22 0.758911 0.0872554 0.5
445 35 0.756694 0.12384 0.5
940 27 0.789624 0.0706987 0.5
301 36 0.788459 0.105894 0.5
749 28 0.818097 0.0918793 0.5
926 34 0.846277 0.0725958 0.5
744 33 0.847378 0.105562 0.5
919 24 0.90365 0.0698558 0.5
173 30 0.879117 0.0877188 0.5
485 34 0.878767 0.119686 0.5
229 32 0.907796 0.103629 0.5
990 40 0.933938 0.0813341 0.5
588 26 0.935884 0.118458 0.5
583 24 0.971317 0.0794581 0.5
499 19 0.958475 0.103728 0.5
68 31 0.986674 0.110147 0.5
483 28 0.0489535 0.123021 0.5
676 31 0.0284594 0.148842 0.5
397 32 0.040582 0.181565 0.5
425 32 0.00459952 0.172319 0.5
63 29 -0.00239407 0.140222 0.5
895 29 0.0615882 0.154851 0.5
155 30 0.084738 0.131564 0.5
964 33 0.0933336 0.163933 0.5
644 30 0.118418 0.139027 0.5
938 23 0.0723365 0.184931 0.5
143 30 0.173684 0.128114 0.5
705 29 0.12394 0.16985 0.5
378 31 0.150161 0.147687 0.5
393 38 0.182931 0.162565 0.5
80 29 0.152095 0.180125 0.5
998 31 0.208603 0.138692 0.5
279 32 0.234723 0.159211 0.5
516 40 0.213025 0.186289 0.5
242 35 0.262085 0.132837 0.5
596 27 0.294525 0.142888 0.5
939 37 0.26979 0.166595 0.5
846 33 0.302485 0.175154 0.5
367 28 0.325037 0.152605 0.5
469 36 0.360932 0.157612 0.5
694 31 0.336159 0.182839 0.5
350 16 0.36203 0.188941 0.5
161 27 0.382459 0.13032 0.5
245 22 0.393425 0.159612 0.5
298 38 0.417682 0.136632 0.5
498 29 0.41905 0.174272 0.5
976 23 0.387579 0.185229 0.5
124 28 0.44698 0.16153 0.5
330 27 0.478544 0.148669 0.5
385 32 0.470297 0.182598 0.5
473 31 0.50277 0.16925 0.5
218 23 0.505652 0.135843 0.5
831 29 0.53037 0.15435 0.5
442 35 0.531707 0.187687 0.5
181 32 0.604085 0.127427 0.5
649 35 0.562512 0.170877 0.5
274 27 0.572578 0.138582 0.5
464 30 0.59779 0.159735 0.5
961 30 0.625672 0.178931 0.5
536 28 0.627226 0.148799 0.5
16 32 0.659272 0.136176 0.5
178 23 0.65249 0.164603 0.5
824 31 0.671091 0.187467 0.5
492 39 0.689325 0.156343 0.5
704 34 0.721826 0.13928 0.5
742 31 0.720836 0.176317 0.5
798 34 0.7513 0.160561 0.5
208 32 0.788709 0.142205 0.5
930 26 0.781443 0.174073 0.5
420 34 0.819198 0.126534 0.5
874 37 0.817799 0.16421 0.5
103 33 0.851419 0.14244 0.5
307 32 0.852757 0.174061 0.5
715 23 0.880901 0.157975 0.5
582 28 0.90732 0.137263 0.5
677 38 0.913469 0.171958 0.5
689 30 0.966117 0.132731 0.5
250 30 0.93778 0.150128 0.5
737 34 0.972805 0.166694 0.5
332 27 0.945602 0.182991 0.5
164 33 0.0157177 0.203609 0.5
270 31 0.047784 0.215487 0.5
382 37 0.0212983 0.23706 0.5
97 23 0.0605455 0.246577 0.5
244 29 0.103282 0.19587 0.5
569 33 0.0790362 0.219407 0.5
762 32 0.114986 0.226729 0.5
648 25 0.179432 0.194019 0.5
729 23 0.132823 0.201506 0.5
766 29 0.160155 0.215269 0.5
259 20 0.142686 0.240197 0.5
252 35 0.171785 0.246256 0.5
171 34 0.194333 0.221422 0.5
170 33 0.22743 0.221543 0.5
851 31 0.248472 0.194013 0.5
662 32 0.281214 0.202784 0.5
487 30 0.259639 0.227545 0.5
700 26 0.293728 0.233145 0.5
66 31 0.312332 0.207315 0.5
448 32 0.346879 0.213385 0.5
290 31 0.324508 0.237582 0.5
706 32 0.363672 0.242496 0.5
823 28 0.378926 0.214902 0.5
227 32 0.409762 0.206078 0.5
216 41 0.401583 0.24133 0.5
809 27 0.434827 0.226487 0.5
81 27 0.440451 0.196392 0.5
263 29 0.464117 0.217534 0.5
927 32 0.465619 0.251689 0.5
577 36 0.4961 0.234562 0.5
996 26 0.499825 0.200106 0.5
991 33 0.529028 0.222747 0.5
671 25 0.553697 0.242891 0.5
114 26 0.524782 0.253129 0.5
795 35 0.593448 0.193341 0.5
957 36 0.560768 0.208474 0.5
409 30 0.616093 0.216528 0.5
430 33 0.586492 0.23067 0.5
769 29 0.615798 0.247109 0.5
592 25 0.644564 0.200999 0.5
871 28 0.644286 0.232066 0.5
845 27 0.670887 0.218904 0.5
413 26 0.699031 0.198066 0.5
699 23 0.698358 0.231245 0.5
305 30 0.725095 0.212466 0.5
637 28 0.726487 0.244548 0.5
360 18 0.801256 0.192052 0.5
57 32 0.753079 0.193547 0.5
508 28 0.753514 0.22643 0.5
838 23 0.780699 0.210108 0.5
666 32 0.783812 0.239123 0.5
31 23 0.832346 0.197643 0.5
4 33 0.811057 0.21859 0.5
176 33 0.863734 0.211641 0.5
329 34 0.842427 0.235887 0.5
443 28 0.882957 0.186975 0.5
655 29 0.873334 0.243428 0.5
994 28 0.893525 0.218563 0.5
580 27 0.923355 0.207928 0.5
408 28 0.901298 0.24948 0.5
106 20 0.982374 0.195721 0.5
363 25 0.929346 0.237147 0.5
356 25 0.989438 0.223095 0.5
912 38 0.956174 0.217245 0.5
920 29 0.0382652 0.267032 0.5
165 22 0.0473946 0.294665 0.5
456 31 0.0177875 0.301789 0.5
379 27 0.0088776 0.272623 0.5
712 29 0.0909876 0.250303 0.5
377 27 0.0718885 0.27586 0.5
202 38 0.10447 0.285763 0.5
611 36 0.0740174 0.308217 0.5
28 27 0.12225 0.257511 0.5
615 28 0.134235 0.300566 0.5
210 28 0.148311 0.272569 0.5
813 30 0.168623 0.303594 0.5
24 29 0.205721 0.251936 0.5
167 27 0.185264 0.277343 0.5
837 33 0.240988 0.254293 0.5
542 32 0.220614 0.280327 0.5
806 27 0.201646 0.304058 0.5
936 25 0.234783 0.307655 0.5
736 26 0.254113 0.282544 0.5
886 28 0.273878 0.255634 0.5
87 28 0.283532 0.286907 0.5
881 27 0.264089 0.313242 0.5
260 28 0.306513 0.266282 0.5
130 28 0.337679 0.267146 0.5
756 28 0.324253 0.293288 0.5
995 25 0.354336 0.307809 0.5
203 39 0.370117 0.276818 0.5
132 31 0.384433 0.311554 0.5
802 35 0.405611 0.283624 0.5
451 33 0.435137 0.26204 0.5
169 21 0.435592 0.292663 0.5
608 29 0.462583 0.28348 0.5
841 31 0.489589 0.303389 0.5
414 34 0.49385 0.271217 0.5
966 25 0.521822 0.28774 0.5
389 39 0.55228 0.274889 0.5
651 24 0.544416 0.3069 0.5
607 37 0.587278 0.264591 0.5
646 28 0.614017 0.286446 0.5
400 34 0.581627 0.299355 0.5
568 31 0.673509 0.250123 0.5
90 39 0.642313 0.26718 0.5
788 33 0.672657 0.28316 0.5
440 39 0.641715 0.304772 0.5
104 25 0.701188 0.263752 0.5
452 33 0.731211 0.278135 0.5
73 31 0.70345 0.296143 0.5
358 28 0.757897 0.256974 0.5
368 33 0.762539 0.290626 0.5
121 32 0.789114 0.272164 0.5
581 23 0.794981 0.305595 0.5
963 27 0.814382 0.252404 0.5
832 41 0.822949 0.287556 0.5
603 29 0.855069 0.272142 0.5
317 37 0.855635 0.306105 0.5
571 42 0.889902 0.28453 0.5
857 39 0.929705 0.273838 0.5
859 39 0.919153 0.312362 0.5
589 24 0.990459 0.250503 0.5
27 33 0.95874 0.253032 0.5
365 27 0.980522 0.281905 0.5
855 31 0.952098 0.301731 0.5
797 31 0.0430199 0.324315 0.5
544 28 0.0380968 0.355123 0.5
353 29 0.015007 0.336546 0.5
85 23 0.00698881 0.368294 0.5
849 35 0.0706795 0.344794 0.5
326 43 0.105886 0.325236 0.5
751 24 0.0970676 0.366042 0.5
188 31 0.127818 0.357464 0.5
653 24 0.143332 0.327673 0.5
574 22 0.157808 0.351688 0.5
923 33 0.183128 0.334108 0.5
54 29 0.185854 0.374511 0.5
614 29 0.215976 0.331252 0.5
672 31 0.245394 0.340566 0.5
929 33 0.214786 0.36184 0.5
199 36 0.302426 0.316976 0.5
628 31 0.277759 0.341585 0.5
812 27 0.278357 0.374222 0.5
917 39 0.309742 0.354921 0.5
967 24 0.334318 0.32875 0.5
429 27 0.364611 0.337441 0.5
428 28 0.344894 0.358366 0.5
754 31 0.41937 0.315753 0.5
792 31 0.374666 0.368416 0.5
897 31 0.398582 0.341686 0.5
120 30 0.432361 0.344299 0.5
196 31 0.406222 0.372344 0.5
168 36 0.457249 0.316667 0.5
856 28 0.485978 0.334505 0.5
403 25 0.460265 0.350233 0.5
847 37 0.510111 0.358759 0.5
239 35 0.516445 0.321918 0.5
953 29 0.540695 0.34697 0.5
325 32 0.568602 0.329797 0.5
935 25 0.565062 0.363141 0.5
331 26 0.592212 0.348831 0.5
144 34 0.607582 0.320085 0.5
753 32 0.62241 0.355889 0.5
372 27 0.673547 0.315445 0.5
799 27 0.647147 0.338459 0.5
944 29 0.676704 0.350196 0.5
950 32 0.650371 0.370016 0.5
497 32 0.734437 0.311628 0.5
761 29 0.701837 0.330968 0.5
457 37 0.735067 0.345722 0.5
977 35 0.706341 0.366061 0.5
500 41 0.768538 0.326908 0.5
174 31 0.796059 0.346862 0.5
626 35 0.764511 0.364104 0.5
779 37 0.822173 0.325319 0.5
312 38 0.856482 0.342666 0.5
491 30 0.824964 0.36229 0.5
225 34 0.887364 0.326187 0.5
44 33 0.890087 0.360856 0.5
521 32 0.920167 0.347433 0.5
310 33 0.986419 0.313278 0.5
745 35 0.950997 0.334662 0.5
829 25 0.946341 0.369381 0.5
879 33 0.982893 0.347784 0.5
375 30 0.0340119 0.387346 0.5
6 15 0.026718 0.415453 0.5
618 35 0.0576681 0.410643 0.5
100 33 0.0033794 0.398231 0.5
177 24 0.00547761 0.428893 0.5
346 29 0.0657384 0.377328 0.5
661 30 0.0890044 0.398109 0.5
606 34 0.118926 0.39228 0.5
803 31 0.113175 0.427662 0.5
901 37 0.0806462 0.435486 0.5
313 33 0.151922 0.382915 0.5
776 31 0.146452 0.414807 0.5
534 33 0.178063 0.406645 0.5
770 41 0.244635 0.379696 0.5
369 35 0.212233 0.397469 0.5
179 31 0.239137 0.42049 0.5
288 35 0.208194 0.433642 0.5
785 33 0.299668 0.400044 0.5
723 29 0.268617 0.405274 0.5
111 28 0.306811 0.432187 0.5
707 45 0.269991 0.440358 0.5
407 26 0.328685 0.384644 0.5
597 24 0.355067 0.395055 0.5
636 22 0.33431 0.4139 0.5
18 41 0.364629 0.427992 0.5
376 40 0.441237 0.378384 0.5
555 30 0.386286 0.400075 0.5
293 35 0.418138 0.405096 0.5
162 32 0.480683 0.374719 0.5
84 27 0.451332 0.414807 0.5
96 30 0.482231 0.407046 0.5
848 29 0.537445 0.37922 0.5
273 28 0.510007 0.393078 0.5
720 28 0.537916 0.411994 0.5
232 27 0.508228 0.423811 0.5
690 27 0.592998 0.377786 0.5
333 30 0.566709 0.393838 0.5
794 31 0.567972 0.425214 0.5
888 28 0.595579 0.408829 0.5
834 31 0.621938 0.390583 0.5
424 23 0.679474 0.38205 0.5
875 34 0.627447 0.42821 0.5
734 32 0.65363 0.403811 0.5
988 20 0.681228 0.416707 0.5
587 36 0.660167 0.439297 0.5
914 25 0.735829 0.382516 0.5
21 31 0.707878 0.400539 0.5
740 34 0.739986 0.414838 0.5
665 41 0.708878 0.436915 0.5
434 24 0.794612 0.378275 0.5
72 26 0.769156 0.396417 0.5
309 34 0.799248 0.409938 0.5
478 29 0.772644 0.429308 0.5
265 41 0.855927 0.378827 0.5
476 22 0.826777 0.397857 0.5
529 28 0.853153 0.411517 0.5
91 25 0.825945 0.428386 0.5
166 30 0.917825 0.380735 0.5
277 26 0.878658 0.424745 0.5
540 35 0.888371 0.395211 0.5
679 42 0.913042 0.422102 0.5
530 29 0.976604 0.381178 0.5
418 34 0.942949 0.400406 0.5
12 34 0.975905 0.418331 0.5
652 41 0.0402521 0.443106 0.5
47 31 0.0380953 0.477993 0.5
578 29 0.010352 0.464018 0.5
156 25 0.0633709 0.493221 0.5
2 28 0.0681152 0.465419 0.5
822 35 0.103533 0.459256 0.5
364 32 0.0933908 0.490217 0.5
548 36 0.174349 0.441815 0.5
283 36 0.128534 0.486809 0.5
557 37 0.13944 0.451604 0.5
686 30 0.165027 0.477386 0.5
345 32 0.188153 0.500613 0.5
781 29 0.1991 0.46719 0.5
962 46 0.234872 0.461738 0.5
973 22 0.215911 0.49129 0.5
233 27 0.243044 0.499978 0.5
716 30 0.266638 0.479868 0.5
586 42 0.298932 0.465616 0.5
793 29 0.303955 0.498931 0.5
902 30 0.335534 0.446645 0.5
631 30 0.332848 0.481404 0.5
787 27 0.361634 0.466227 0.5
116 23 0.361198 0.496367 0.5
427 31 0.396933 0.432622 0.5
786 38 0.393758 0.47107 0.5
405 29 0.428159 0.439827 0.5
140 30 0.415724 0.495627 0.5
621 27 0.456984 0.446001 0.5
728 34 0.437874 0.471852 0.5
564 27 0.484334 0.440608 0.5
36 37 0.474708 0.475958 0.5
658 35 0.536103 0.445267 0.5
664 32 0.506871 0.46086 0.5
65 31 0.536985 0.480056 0.5
175 43 0.596875 0.446682 0.5
303 29 0.564268 0.459947 0.5
674 28 0.600032 0.479139 0.5
296 30 0.632377 0.462524 0.5
105 31 0.659191 0.479597 0.5
593 25 0.686315 0.463194 0.5
133 32 0.690565 0.49461 0.5
421 34 0.715931 0.472054 0.5
206 32 0.745568 0.448654 0.5
949 34 0.798942 0.445333 0.5
730 31 0.749331 0.483097 0.5
112 25 0.774129 0.465754 0.5
402 37 0.805056 0.47967 0.5
416 34 0.855591 0.443326 0.5
531 26 0.829935 0.459418 0.5
426 23 0.867493 0.475493 0.5
278 33 0.841478 0.492691 0.5
566 31 0.889284 0.453684 0.5
821 26 0.896187 0.484232 0.5
217 32 0.922916 0.459515 0.5
70 28 0.927286 0.492103 0.5
952 34 0.947 0.437766 0.5
980 28 0.981295 0.450897 0.5
136 37 0.954981 0.47162 0.5
383 35 0.98611 0.487948 0.5
17 27 0.01673 0.499345 0.5
39 27 0.0207601 0.532595 0.5
471 25 0.0437624 0.515507 0.5
264 31 0.0512963 0.546014 0.5
725 38 0.0799025 0.523719 0.5
698 21 0.11297 0.514488 0.5
438 27 0.105925 0.543606 0.5
853 20 0.0791346 0.555602 0.5
971 20 0.133176 0.533933 0.5
545 38 0.155578 0.511752 0.5
807 23 0.157963 0.546949 0.5
575 32 0.187447 0.535642 0.5
480 26 0.216698 0.51878 0.5
579 28 0.215098 0.549398 0.5
503 37 0.18646 0.569687 0.5
632 30 0.244388 0.535578 0.5
959 27 0.248438 0.570276 0.5
234 34 0.274518 0.510803 0.5
951 29 0.305303 0.531077 0.5
26 39 0.275148 0.54775 0.5
791 27 0.30916 0.564152 0.5
750 32 0.335135 0.51478 0.5
532 28 0.36367 0.528137 0.5
594 33 0.335399 0.547535 0.5
22 34 0.367038 0.561368 0.5
8 25 0.388426 0.507221 0.5
300 36 0.395288 0.541674 0.5
815 30 0.424357 0.52493 0.5
154 28 0.423529 0.558585 0.5
228 27 0.447776 0.502607 0.5
709 30 0.453358 0.537381 0.5
458 36 0.4787 0.514118 0.5
357 36 0.483917 0.55136 0.5
616 30 0.506604 0.495669 0.5
556 29 0.511781 0.528647 0.5
885 25 0.540412 0.510461 0.5
446 28 0.542152 0.543052 0.5
645 33 0.569087 0.493631 0.5
692 28 0.596524 0.511854 0.5
348 27 0.567952 0.525905 0.5
126 32 0.607034 0.543897 0.5
384 41 0.628954 0.500354 0.5
479 21 0.639953 0.533779 0.5
125 30 0.662342 0.513655 0.5
771 26 0.667533 0.545642 0.5
79 37 0.722447 0.506401 0.5
108 33 0.696147 0.528563 0.5
394 29 0.729654 0.545267 0.5
892 23 0.77963 0.501556 0.5
201 34 0.752782 0.522338 0.5
893 30 0.786177 0.532938 0.5
118 26 0.758512 0.554377 0.5
94 25 0.871396 0.505053 0.5
157 32 0.812987 0.514378 0.5
549 30 0.814862 0.548855 0.5
772 32 0.843837 0.525703 0.5
64 31 0.847694 0.558718 0.5
968 37 0.876952 0.536664 0.5
887 32 0.902038 0.513888 0.5
267 27 0.931673 0.528057 0.5
282 27 0.90815 0.550067 0.5
805 27 0.990509 0.519806 0.5
141 32 0.957384 0.509184 0.5
83 31 0.966119 0.542789 0.5
41 31 0.996779 0.554511 0.5
553 32 0.0267737 0.568332 0.5
519 24 0.0321327 0.601771 0.5
533 35 0.059389 0.579985 0.5
289 22 0.00733959 0.620216 0.5
343 33 0.000826973 0.58806 0.5
294 29 0.058904 0.61452 0.5
585 32 0.096934 0.580538 0.5
187 33 0.0906281 0.613917 0.5
983 32 0.130394 0.565635 0.5
818 25 0.120756 0.596938 0.5
906 38 0.153105 0.59333 0.5
95 32 0.156773 0.630532 0.5
109 42 0.187184 0.607338 0.5
191 36 0.218158 0.584433 0.5
713 37 0.221087 0.622217 0.5
764 37 0.251526 0.602513 0.5
641 29 0.277265 0.580697 0.5
680 29 0.282081 0.617675 0.5
512 31 0.308095 0.595882 0.5
783 26 0.338472 0.581725 0.5
51 31 0.365152 0.596568 0.5
336 35 0.337523 0.615895 0.5
550 25 0.368889 0.629256 0.5
422 30 0.39451 0.578056 0.5
948 36 0.426172 0.594048 0.5
423 34 0.394357 0.611409 0.5
965 29 0.426313 0.627297 0.5
361 33 0.454133 0.572846 0.5
765 24 0.456115 0.605605 0.5
77 20 0.48367 0.583683 0.5
29 29 0.485581 0.613773 0.5
866 29 0.517242 0.561169 0.5
563 35 0.514094 0.595552 0.5
92 28 0.546841 0.579236 0.5
693 29 0.544512 0.612139 0.5
349 40 0.574635 0.559628 0.5
814 31 0.576293 0.596599 0.5
504 39 0.607758 0.579742 0.5
306 27 0.607008 0.615254 0.5
62 28 0.637296 0.561738 0.5
251 32 0.639497 0.600682 0.5
767 39 0.670695 0.578404 0.5
347 44 0.672838 0.620062 0.5
406 30 0.701178 0.559902 0.5
904 34 0.701592 0.594434 0.5
688 27 0.73157 0.575408 0.5
9 28 0.732202 0.606282 0.5
404 31 0.788322 0.568588 0.5
101 27 0.759778 0.5855 0.5
1000 35 0.788344 0.602651 0.5
870 30 0.763037 0.620656 0.5
431 31 0.819522 0.581631 0.5
711 34 0.850663 0.591639 0.5
691 38 0.823193 0.617102 0.5
760 26 0.882391 0.572119 0.5
137 33 0.880828 0.604178 0.5
910 30 0.91028 0.583147 0.5
43 35 0.914455 0.615631 0.5
727 36 0.938474 0.562979 0.5
381 32 0.944208 0.596489 0.5
911 29 0.971608 0.574577 0.5
625 32 0.974876 0.609323 0.5
341 25 0.0326536 0.634655 0.5
546 32 0.0405044 0.664661 0.5
916 25 0.00944993 0.654267 0.5
142 31 0.0147465 0.683458 0.5
999 36 0.0719896 0.646758 0.5
590 25 0.0688712 0.678338 0.5
784 28 0.104095 0.648934 0.5
495 33 0.105442 0.682215 0.5
696 27 0.123741 0.62607 0.5
869 32 0.134406 0.657583 0.5
465 27 0.166345 0.662241 0.5
854 28 0.193292 0.642345 0.5
359 34 0.196588 0.672676 0.5
913 29 0.224166 0.655175 0.5
790 32 0.229001 0.686998 0.5
212 25 0.251251 0.634926 0.5
398 37 0.25647 0.667428 0.5
60 27 0.283558 0.650315 0.5
447 36 0.28809 0.686029 0.5
925 23 0.310137 0.629774 0.5
524 33 0.313581 0.660292 0.5
668 23 0.342085 0.647537 0.5
441 30 0.343896 0.6795 0.5
620 28 0.371226 0.664329 0.5
804 29 0.398082 0.644296 0.5
882 36 0.430905 0.657965 0.5
286 31 0.399807 0.677619 0.5
687 33 0.456924 0.638229 0.5
576 33 0.486982 0.649404 0.5
883 35 0.462965 0.674854 0.5
151 37 0.516648 0.629967 0.5
506 37 0.517234 0.667429 0.5
275 32 0.546913 0.650411 0.5
956 33 0.5753 0.630596 0.5
412 29 0.57711 0.666313 0.5
266 35 0.608191 0.648587 0.5
560 29 0.640176 0.633635 0.5
45 28 0.638636 0.670921 0.5
602 25 0.663131 0.655879 0.5
958 23 0.674366 0.682031 0.5
411 31 0.708845 0.628378 0.5
371 29 0.69272 0.655717 0.5
619 32 0.726358 0.663461 0.5
908 21 0.737531 0.634024 0.5
297 30 0.704876 0.685753 0.5
324 38 0.762455 0.662398 0.5
318 35 0.792387 0.638952 0.5
42 40 0.800194 0.676453 0.5
35 37 0.855767 0.627737 0.5
46 34 0.829832 0.651348 0.5
981 30 0.860613 0.66249 0.5
683 34 0.889483 0.639251 0.5
110 30 0.919942 0.651769 0.5
599 33 0.892314 0.673305 0.5
862 25 0.927209 0.682007 0.5
601 31 0.946598 0.629461 0.5
119 29 0.954107 0.661445 0.5
269 32 0.980386 0.641671 0.5
974 26 0.984724 0.674988 0.5
801 26 0.0448557 0.697579 0.5
338 29 0.0224528 0.71753 0.5
190 39 0.0569282 0.729928 0.5
271 30 0.0820772 0.706104 0.5
675 27 0.11437 0.715443 0.5
146 25 0.087967 0.736654 0.5
135 29 0.13497 0.691278 0.5
868 38 0.167191 0.697297 0.5
726 29 0.143951 0.725493 0.5
827 40 0.174649 0.735606 0.5
946 30 0.202237 0.708065 0.5
567 29 0.232553 0.72139 0.5
450 24 0.206951 0.737041 0.5
205 27 0.232243 0.75245 0.5
748 35 0.25929 0.703065 0.5
789 28 0.261412 0.737305 0.5
600 35 0.291464 0.720918 0.5
830 29 0.289251 0.755342 0.5
714 29 0.317878 0.702842 0.5
127 23 0.321412 0.736141 0.5
475 26 0.347147 0.712879 0.5
472 27 0.346617 0.750632 0.5
186 31 0.373656 0.697047 0.5
410 40 0.432525 0.695201 0.5
833 33 0.371602 0.730699 0.5
826 30 0.403674 0.713191 0.5
702 28 0.431133 0.730275 0.5
129 36 0.401584 0.745938 0.5
541 33 0.493581 0.692311 0.5
722 33 0.464555 0.710113 0.5
634 18 0.491004 0.725357 0.5
152 34 0.462095 0.743307 0.5
386 36 0.548108 0.685828 0.5
796 26 0.521675 0.706158 0.5
640 37 0.549658 0.722503 0.5
145 25 0.518519 0.736313 0.5
928 33 0.606317 0.68308 0.5
543 33 0.578394 0.701115 0.5
470 29 0.582838 0.732367 0.5
595 35 0.610926 0.716775 0.5
20 35 0.645926 0.702835 0.5
370 37 0.68054 0.713126 0.5
758 22 0.665421 0.739829 0.5
526 30 0.63592 0.740078 0.5
864 25 0.739094 0.692442 0.5
732 28 0.694279 0.741791 0.5
128 31 0.715341 0.717394 0.5
281 25 0.727052 0.749589 0.5
454 32 0.747735 0.72456 0.5
810 31 0.773588 0.699886 0.5
820 29 0.780072 0.730317 0.5
816 32 0.807102 0.709516 0.5
867 37 0.835687 0.687292 0.5
311 28 0.869288 0.696358 0.5
23 28 0.813438 0.742322 0.5
850 23 0.84622 0.717624 0.5
899 23 0.87555 0.723421 0.5
778 24 0.89838 0.70501 0.5
123 18 0.901435 0.730455 0.5
997 34 0.932681 0.713591 0.5
633 30 0.959704 0.69221 0.5
861 35 0.999074 0.741295 0.5
322 23 0.942785 0.744401 0.5
295 33 0.990013 0.707331 0.5
584 25 0.962183 0.723116 0.5
777 27 0.0308944 0.751027 0.5
960 40 0.0456822 0.782982 0.5
474 28 0.00945211 0.776275 0.5
93 42 0.0166006 0.810001 0.5
489 22 0.0672111 0.758964 0.5
918 39 0.118194 0.750159 0.5
435 23 0.0720368 0.800862 0.5
134 34 0.0913272 0.773541 0.5
477 31 0.10394 0.80546 0.5
876 31 0.127009 0.785737 0.5
237 35 0.152645 0.764295 0.5
231 32 0.163073 0.795927 0.5
724 40 0.194527 0.766992 0.5
342 39 0.197511 0.803805 0.5
539 31 0.229093 0.785097 0.5
82 33 0.258296 0.769281 0.5
552 30 0.257641 0.803603 0.5
872 39 0.290138 0.789088 0.5
351 31 0.322638 0.802709 0.5
399 34 0.321736 0.768145 0.5
344 21 0.348033 0.78615 0.5
74 35 0.374668 0.767669 0.5
316 38 0.377201 0.803275 0.5
985 25 0.404648 0.783741 0.5
610 30 0.409356 0.816325 0.5
287 35 0.434077 0.766799 0.5
909 28 0.494068 0.75421 0.5
954 24 0.436975 0.800968 0.5
320 33 0.465833 0.777171 0.5
907 27 0.465693 0.807277 0.5
15 33 0.497034 0.790398 0.5
40 39 0.527265 0.772902 0.5
226 31 0.526683 0.812573 0.5
284 35 0.55671 0.796414 0.5
11 37 0.559694 0.75923 0.5
942 26 0.606983 0.750682 0.5
890 33 0.590487 0.78017 0.5
13 31 0.611464 0.807054 0.5
25 33 0.628137 0.773258 0.5
198 35 0.664959 0.770669 0.5
117 31 0.644386 0.804515 0.5
335 33 0.676566 0.804961 0.5
195 37 0.70126 0.776282 0.5
915 27 0.734671 0.779982 0.5
184 27 0.714345 0.808742 0.5
159 34 0.746633 0.811048 0.5
163 26 0.758465 0.757116 0.5
755 25 0.767497 0.785288 0.5
323 30 0.789447 0.763567 0.5
49 27 0.800249 0.794637 0.5
432 29 0.848032 0.748402 0.5
496 30 0.822909 0.772433 0.5
334 33 0.855235 0.779922 0.5
525 26 0.832988 0.803224 0.5
354 34 0.880914 0.752114 0.5
759 36 0.887743 0.788828 0.5
522 35 0.914 0.762555 0.5
573 30 0.921147 0.796487 0.5
605 24 0.968568 0.752932 0.5
774 33 0.945948 0.774415 0.5
678 30 0.980041 0.781745 0.5
654 25 0.955111 0.804315 0.5
612 27 0.0499669 0.820283 0.5
319 29 0.0276418 0.84422 0.5
98 35 0.00932693 0.87148 0.5
276 35 0.0569796 0.856231 0.5
238 25 0.0805121 0.828972 0.5
630 32 0.114543 0.837027 0.5
839 27 0.0894402 0.856968 0.5
285 30 0.139338 0.817664 0.5
613 27 0.114539 0.873867 0.5
514 25 0.16965 0.828864 0.5
236 41 0.145803 0.856772 0.5
401 25 0.179087 0.858673 0.5
643 28 0.228813 0.820002 0.5
647 30 0.202474 0.839333 0.5
204 34 0.235422 0.851214 0.5
19 28 0.208562 0.871925 0.5
468 27 0.291844 0.82342 0.5
721 27 0.262163 0.834663 0.5
460 34 0.295502 0.856132 0.5
624 24 0.265089 0.866481 0.5
972 29 0.348943 0.822348 0.5
970 22 0.321745 0.839911 0.5
10 29 0.3528 0.852832 0.5
1 26 0.32467 0.86953 0.5
717 30 0.381324 0.836861 0.5
352 27 0.384537 0.868854 0.5
255 29 0.411816 0.849938 0.5
547 33 0.495637 0.824886 0.5
304 28 0.438413 0.83052 0.5
48 25 0.464597 0.836425 0.5
667 27 0.485118 0.857623 0.5
739 42 0.448662 0.866229 0.5
449 26 0.52095 0.845899 0.5
417 25 0.551434 0.829023 0.5
99 25 0.545035 0.860669 0.5
808 26 0.579462 0.817302 0.5
507 29 0.57447 0.848364 0.5
78 20 0.601252 0.835808 0.5
5 33 0.604167 0.864644 0.5
362 32 0.630567 0.836195 0.5
388 26 0.661462 0.831367 0.5
321 31 0.676854 0.856785 0.5
884 36 0.647566 0.869174 0.5
840 26 0.695274 0.832499 0.5
209 26 0.726932 0.836152 0.5
800 23 0.7086 0.858668 0.5
978 23 0.736254 0.868356 0.5
527 28 0.77827 0.819098 0.5
937 32 0.75829 0.844496 0.5
59 23 0.789814 0.851508 0.5
30 32 0.865946 0.812996 0.5
314 31 0.809238 0.82785 0.5
256 33 0.819089 0.862389 0.5
337 29 0.841203 0.838129 0.5
327 31 0.874705 0.843199 0.5
302 26 0.898146 0.818968 0.5
570 34 0.90773 0.849823 0.5
50 32 0.932013 0.825723 0.5
635 23 0.982643 0.810755 0.5
484 34 0.940367 0.859075 0.5
878 32 0.995904 0.84093 0.5
392 30 0.964283 0.83531 0.5
254 33 0.972494 0.866563 0.5
76 26 0.041206 0.887061 0.5
200 34 0.0173851 0.907511 0.5
842 28 0.0519957 0.916491 0.5
836 29 -0.00776875 0.930195 0.5
88 41 0.0757724 0.890032 0.5
258 38 0.111093 0.908325 0.5
75 21 0.0833333 0.923002 0.5
502 25 0.121769 0.940571 0.5
207 31 0.145802 0.889994 0.5
149 27 0.144293 0.919451 0.5
240 29 0.17749 0.917993 0.5
248 26 0.178609 0.887425 0.5
160 29 0.238888 0.884008 0.5
247 24 0.205632 0.93263 0.5
462 29 0.204467 0.901316 0.5
684 25 0.234678 0.915333 0.5
747 24 0.301141 0.886379 0.5
459 36 0.268653 0.896942 0.5
947 33 0.297705 0.917466 0.5
518 30 0.263943 0.928995 0.5
213 32 0.356122 0.88441 0.5
731 35 0.328832 0.900849 0.5
387 29 0.356751 0.917727 0.5
617 33 0.328844 0.936544 0.5
7 35 0.416844 0.883481 0.5
257 33 0.387375 0.901865 0.5
984 32 0.418188 0.920623 0.5
419 33 0.387657 0.935118 0.5
738 32 0.446851 0.937521 0.5
220 30 0.444973 0.902762 0.5
903 31 0.47482 0.919936 0.5
627 33 0.478744 0.888399 0.5
825 36 0.511624 0.879712 0.5
32 22 0.506685 0.909319 0.5
572 34 0.541425 0.897259 0.5
86 30 0.529687 0.92942 0.5
53 35 0.498981 0.940984 0.5
235 35 0.575027 0.883625 0.5
639 22 0.564272 0.920779 0.5
122 30 0.594099 0.91002 0.5
395 28 0.589994 0.940214 0.5
863 26 0.619495 0.894773 0.5
537 27 0.622203 0.924481 0.5
230 31 0.649473 0.906289 0.5
69 35 0.682781 0.927184 0.5
150 38 0.680623 0.89108 0.5
604 22 0.712731 0.884425 0.5
523 22 0.714146 0.91316 0.5
3 33 0.741502 0.898812 0.5
782 28 0.7396 0.930536 0.5
246 33 0.767651 0.876931 0.5
268 43 0.772529 0.916825 0.5
437 32 0.799795 0.889444 0.5
486 37 0.80984 0.924777 0.5
681 24 0.848491 0.871061 0.5
481 30 0.831291 0.898147 0.5
945 34 0.863515 0.901387 0.5
482 29 0.843665 0.930685 0.5
185 36 0.885636 0.874708 0.5
520 31 0.875168 0.932069 0.5
147 30 0.89484 0.907373 0.5
299 25 0.918785 0.88314 0.5
975 27 0.928521 0.912577 0.5
340 22 0.948376 0.892243 0.5
501 34 0.984821 0.898889 0.5
780 29 0.961776 0.921468 0.5
757 38 0.028301 0.942433 0.5
183 28 0.0135623 0.991358 0.5
746 24 0.0422661 0.970439 0.5
703 30 0.000965544 0.961296 0.5
515 29 0.0630535 0.947011 0.5
969 29 0.0715344 0.980974 0.5
510 35 0.103668 0.986144 0.5
308 26 0.0935553 0.952844 0.5
695 21 0.151369 0.948526 0.5
889 28 0.13108 0.968767 0.5
433 25 0.180093 0.94765 0.5
38 29 0.136686 0.999079 0.5
113 35 0.163363 0.978034 0.5
219 28 0.233091 0.945099 0.5
697 36 0.196692 0.992588 0.5
223 19 0.203107 0.962335 0.5
992 37 0.232457 0.978718 0.5
315 28 0.29437 0.948351 0.5
261 38 0.262037 0.997086 0.5
224 30 0.264348 0.961075 0.5
505 33 0.292186 0.981371 0.5
811 26 0.358865 0.950009 0.5
194 31 0.31955 0.998937 0.5
852 34 0.345826 0.978546 0.5
718 20 0.317844 0.965115 0.5
466 42 0.377774 0.998679 0.5
439 28 0.418374 0.951663 0.5
131 28 0.386366 0.965731 0.5
559 33 0.411051 0.984971 0.5
565 27 0.442284 0.972264 0.5
657 25 0.466818 0.993273 0.5
391 25 0.470007 0.958733 0.5
989 34 0.495416 0.977042 0.5
623 36 0.530309 0.997241 0.5
554 29 0.526108 0.962672 0.5
535 25 0.561985 0.986939 0.5
921 37 0.558288 0.952424 0.5
982 32 0.617212 0.990555 0.5
993 30 0.588991 0.971484 0.5
979 35 0.618389 0.956415 0.5
817 35 0.650978 0.939644 0.5
638 47 0.680435 0.996324 0.5
682 36 0.647075 0.975155 0.5
494 23 0.678064 0.958676 0.5
453 25 0.712926 0.942881 0.5
752 26 0.715089 0.994296 0.5
773 21 0.704219 0.968182 0.5
598 34 0.735353 0.967363 0.5
415 24 0.761968 0.94915 0.5
877 29 0.801103 0.987351 0.5
214 34 0.769475 0.980609 0.5
708 26 0.79026 0.954223 0.5
373 35 0.822331 0.95959 0.5
932 27 0.857855 0.960344 0.5
292 28 0.907603 0.93422 0.5
558 31 0.878141 0.987544 0.5
660 28 0.909174 0.99039 0.5
221 23 0.889454 0.959041 0.5
719 23 0.91855 0.963947 0.5
56 27 0.938795 0.943945 0.5
669 40 0.947359 0.983246 0.5
858 33 0.981775 0.987495 0.5
843 34 0.968599 0.954778 0.5
