ITEM: TIMESTEP
1950000
ITEM: NUMBER OF ATOMS
1000
ITEM: BOX BOUNDS pp pp pp
-1.5066572000000001e+01 1.5066572000000001e+01
-1.5066572000000001e+01 1.5066572000000001e+01
-5.0000000000000000e-01 5.0000000000000000e-01
ITEM: ATOMS id type xs ys zs
700 26 0.0120539 0.011264 0.5
115 23 0.0101539 0.0420545 0.5
886 28 0.0389863 0.0288425 0.5
538 34 0.0331915 0.0629828 0.5
513 27 0.0680745 0.0162214 0.5
279 32 0.0652838 0.0490467 0.5
516 40 0.0978326 0.0389845 0.5
596 27 0.125913 0.0199616 0.5
87 28 0.132832 0.0493587 0.5
380 38 0.0999768 0.00112786 0.5
894 27 0.154585 0.00655023 0.5
66 31 0.163655 0.0361653 0.5
290 31 0.158171 0.0689709 0.5
469 36 0.191448 0.0631572 0.5
442 35 0.201377 0.0297974 0.5
215 28 0.185148 -0.000547123 0.5
517 36 0.236586 0.0194689 0.5
819 30 0.260151 0.0448566 0.5
927 32 0.226994 0.0553604 0.5
670 34 0.271358 0.0118006 0.5
659 35 0.306174 0.00506622 0.5
559 33 0.293696 0.0386963 0.5
473 31 0.327923 0.0305105 0.5
847 37 0.318742 0.064714 0.5
227 32 0.354006 0.0602032 0.5
577 36 0.362483 0.0256237 0.5
218 23 0.391824 0.011962 0.5
860 30 0.392043 0.0424113 0.5
274 27 0.40544 0.0709969 0.5
896 29 0.419613 0.0176981 0.5
14 28 0.426538 0.0476436 0.5
831 29 0.44957 0.0266511 0.5
222 33 0.473367 0.0012427 0.5
996 26 0.458511 0.0584472 0.5
492 39 0.483367 0.0360161 0.5
509 27 0.493742 0.0686566 0.5
430 33 0.508057 0.00921942 0.5
366 29 0.517842 0.0458773 0.5
445 35 0.540826 0.0210851 0.5
824 31 0.548071 0.0560969 0.5
16 32 0.573166 0.0310222 0.5
551 30 0.601291 0.0113351 0.5
609 30 0.603405 0.0425376 0.5
704 34 0.579265 0.0668928 0.5
986 28 0.631292 0.0259394 0.5
912 38 0.631111 0.0594432 0.5
930 26 0.659798 0.0118921 0.5
358 28 0.660222 0.042752 0.5
301 36 0.692179 0.0321057 0.5
752 26 0.690448 0.0647691 0.5
877 29 0.721637 0.0124415 0.5
926 34 0.722639 0.0478599 0.5
211 19 0.749027 0.0301809 0.5
106 20 0.748477 0.0683521 0.5
241 33 0.778738 0.017154 0.5
182 33 0.774018 0.0490087 0.5
408 28 0.806848 0.0333816 0.5
356 25 0.835026 0.0171695 0.5
737 34 0.833973 0.0499994 0.5
139 29 0.804446 0.0665407 0.5
229 32 0.864433 0.0313744 0.5
308 26 0.89323 0.0165584 0.5
63 29 0.893556 0.0485477 0.5
34 31 0.864379 0.065669 0.5
378 31 0.922368 0.0316995 0.5
768 31 0.923731 0.0656431 0.5
242 35 0.981894 0.0295462 0.5
857 39 0.98782 0.0668786 0.5
483 28 0.950515 0.0145614 0.5
164 33 0.954092 0.0505033 0.5
938 23 0.012446 0.0880255 0.5
705 29 0.00840387 0.12017 0.5
97 23 0.0363816 0.103693 0.5
155 30 0.036074 0.133814 0.5
936 25 0.0604244 0.0854214 0.5
448 32 0.0668428 0.116207 0.5
37 29 0.089221 0.0727174 0.5
245 22 0.0940767 0.102123 0.5
694 31 0.122024 0.0778441 0.5
976 22 0.121543 0.112512 0.5
80 29 0.0968391 0.130515 0.5
648 25 0.145048 0.0963967 0.5
252 35 0.180201 0.102906 0.5
168 37 0.150253 0.127585 0.5
260 28 0.207435 0.124669 0.5
511 38 0.281896 0.0717488 0.5
939 37 0.21507 0.0898785 0.5
487 30 0.249478 0.0797412 0.5
762 33 0.241886 0.112486 0.5
488 26 0.2744 0.109869 0.5
280 38 0.306718 0.0991852 0.5
597 24 0.296175 0.128887 0.5
457 37 0.328615 0.131368 0.5
181 32 0.34187 0.0931738 0.5
203 39 0.377038 0.0880348 0.5
564 27 0.359204 0.118641 0.5
169 21 0.386681 0.124549 0.5
536 28 0.408273 0.102061 0.5
114 26 0.414949 0.132916 0.5
649 35 0.436316 0.0809946 0.5
991 33 0.441193 0.114208 0.5
414 34 0.46986 0.0918848 0.5
900 25 0.471732 0.124167 0.5
699 23 0.503406 0.0972969 0.5
440 39 0.502698 0.133215 0.5
934 25 0.52544 0.0787254 0.5
950 32 0.53149 0.110164 0.5
464 30 0.55692 0.090382 0.5
104 25 0.561698 0.122771 0.5
305 29 0.585694 0.102683 0.5
31 23 0.60851 0.0815956 0.5
582 28 0.616129 0.110845 0.5
57 32 0.594329 0.135236 0.5
360 17 0.635854 0.0907188 0.5
715 23 0.626136 0.137455 0.5
425 32 0.662581 0.0777548 0.5
317 37 0.654567 0.114239 0.5
208 32 0.68832 0.0984812 0.5
994 28 0.687097 0.129959 0.5
744 33 0.718969 0.0823472 0.5
521 32 0.717272 0.118863 0.5
312 38 0.748413 0.101196 0.5
655 29 0.745687 0.134781 0.5
660 28 0.777198 0.0820352 0.5
603 29 0.775328 0.11997 0.5
138 31 0.805372 0.100261 0.5
940 27 0.832697 0.0834778 0.5
677 39 0.838559 0.118188 0.5
382 37 0.805179 0.133586 0.5
922 36 0.868093 0.0973569 0.5
919 24 0.89716 0.0821892 0.5
653 24 0.89546 0.114088 0.5
838 23 0.869418 0.12968 0.5
310 33 0.925484 0.0984145 0.5
855 31 0.926243 0.133749 0.5
712 29 0.983293 0.101736 0.5
998 31 0.979775 0.1363 0.5
68 31 0.955241 0.0836426 0.5
210 28 0.954456 0.117726 0.5
170 33 0.0666585 0.150499 0.5
766 29 0.00802318 0.151146 0.5
920 29 0.00765864 0.185827 0.5
964 33 0.0382378 0.167598 0.5
171 34 0.0376478 0.202866 0.5
2 28 0.069617 0.18327 0.5
851 31 0.0965326 0.16348 0.5
770 41 0.102227 0.198072 0.5
881 27 0.124231 0.147664 0.5
995 25 0.131318 0.180309 0.5
756 28 0.180654 0.140912 0.5
28 27 0.153248 0.160517 0.5
162 32 0.158061 0.194711 0.5
848 28 0.182594 0.172708 0.5
837 33 0.189784 0.208122 0.5
809 27 0.207306 0.158213 0.5
802 35 0.217903 0.188979 0.5
130 28 0.232773 0.142432 0.5
389 39 0.266447 0.142919 0.5
124 28 0.244029 0.170947 0.5
754 31 0.248436 0.202081 0.5
273 28 0.274899 0.180244 0.5
167 27 0.29837 0.157955 0.5
953 29 0.307344 0.18848 0.5
385 32 0.33086 0.166647 0.5
823 28 0.358437 0.14839 0.5
239 35 0.340227 0.198756 0.5
592 25 0.366173 0.178124 0.5
409 30 0.390629 0.153753 0.5
144 34 0.39546 0.189461 0.5
841 31 0.371382 0.211048 0.5
626 35 0.422292 0.165207 0.5
368 33 0.428893 0.199655 0.5
845 27 0.447462 0.145818 0.5
871 28 0.452041 0.177994 0.5
671 25 0.476776 0.155808 0.5
90 39 0.485817 0.188272 0.5
73 31 0.513216 0.167739 0.5
795 35 0.537426 0.145457 0.5
452 33 0.545462 0.179462 0.5
263 29 0.520214 0.201493 0.5
788 33 0.569276 0.157189 0.5
963 27 0.574352 0.190542 0.5
174 31 0.598822 0.171235 0.5
571 43 0.617164 0.202214 0.5
413 26 0.629325 0.167389 0.5
307 32 0.655963 0.149005 0.5
508 28 0.652336 0.186623 0.5
779 37 0.68526 0.165038 0.5
265 41 0.681898 0.201653 0.5
799 27 0.715435 0.152846 0.5
568 31 0.714846 0.184615 0.5
952 34 0.74484 0.169439 0.5
530 29 0.741271 0.203485 0.5
797 31 0.772702 0.152887 0.5
879 33 0.774172 0.189395 0.5
745 35 0.803254 0.171584 0.5
363 25 0.833542 0.152783 0.5
365 27 0.834506 0.184999 0.5
540 35 0.807428 0.208097 0.5
859 39 0.864888 0.163729 0.5
165 22 0.867775 0.196254 0.5
346 29 0.894179 0.180216 0.5
456 31 0.896974 0.146135 0.5
615 28 0.894226 0.212324 0.5
416 34 0.924572 0.169342 0.5
933 29 0.92258 0.202745 0.5
24 29 0.979606 0.168371 0.5
614 29 0.980748 0.20595 0.5
589 24 0.953618 0.150857 0.5
923 33 0.953108 0.187162 0.5
751 24 0.00962228 0.216217 0.5
849 35 0.07097 0.217272 0.5
369 35 0.0170414 0.247921 0.5
698 21 0.045269 0.234339 0.5
672 31 0.0472946 0.264736 0.5
662 32 0.0766856 0.250377 0.5
429 27 0.133215 0.215696 0.5
897 31 0.106217 0.232312 0.5
555 30 0.105519 0.265536 0.5
723 29 0.0782449 0.284239 0.5
407 26 0.133795 0.248273 0.5
812 27 0.136258 0.278608 0.5
293 35 0.163475 0.230753 0.5
636 22 0.161687 0.262749 0.5
376 40 0.194779 0.254805 0.5
18 41 0.221499 0.227466 0.5
966 25 0.279986 0.211033 0.5
628 31 0.232088 0.260969 0.5
856 28 0.257262 0.233331 0.5
534 33 0.265147 0.266693 0.5
405 29 0.286547 0.243082 0.5
917 39 0.310926 0.222514 0.5
690 26 0.320277 0.256495 0.5
621 27 0.297026 0.274315 0.5
608 29 0.344396 0.232594 0.5
664 32 0.352742 0.266999 0.5
400 34 0.37746 0.244249 0.5
403 25 0.403696 0.221772 0.5
325 32 0.408837 0.253683 0.5
935 25 0.384569 0.277872 0.5
372 27 0.458422 0.209428 0.5
491 30 0.43435 0.232521 0.5
72 26 0.464402 0.239678 0.5
701 37 0.441362 0.266454 0.5
361 33 0.476367 0.273358 0.5
607 37 0.492673 0.223263 0.5
121 32 0.549923 0.216847 0.5
914 25 0.500859 0.254328 0.5
646 28 0.525175 0.23698 0.5
794 31 0.5322 0.268536 0.5
424 23 0.555644 0.248723 0.5
434 24 0.562202 0.279083 0.5
874 37 0.585498 0.223291 0.5
497 32 0.584968 0.257777 0.5
426 23 0.616041 0.237842 0.5
4 33 0.616508 0.268845 0.5
666 32 0.64834 0.219364 0.5
944 29 0.645973 0.251008 0.5
761 29 0.678214 0.237983 0.5
566 31 0.677037 0.269542 0.5
476 22 0.646117 0.28072 0.5
485 34 0.710726 0.220446 0.5
329 34 0.710097 0.254898 0.5
443 28 0.739277 0.237195 0.5
821 26 0.766241 0.219676 0.5
529 28 0.76657 0.253633 0.5
91 25 0.740686 0.26702 0.5
500 41 0.769357 0.288323 0.5
661 30 0.842489 0.21452 0.5
17 27 0.792814 0.236863 0.5
166 30 0.800487 0.267731 0.5
217 32 0.823576 0.242285 0.5
225 34 0.833219 0.275612 0.5
27 33 0.856369 0.246622 0.5
6 15 0.869571 0.222032 0.5
377 27 0.88845 0.244177 0.5
100 33 0.868866 0.276894 0.5
12 34 0.902918 0.272214 0.5
202 38 0.922304 0.236901 0.5
244 29 0.986858 0.236433 0.5
776 31 0.986855 0.26855 0.5
806 27 0.95898 0.252733 0.5
54 29 0.952616 0.220721 0.5
574 22 0.932008 0.2676 0.5
548 36 0.0172879 0.285308 0.5
962 46 0.0292783 0.322138 0.5
729 23 0.049278 0.294491 0.5
233 27 0.0525149 0.352833 0.5
326 43 0.0693316 0.320896 0.5
967 24 0.107183 0.297035 0.5
736 26 0.102272 0.325847 0.5
929 33 0.0919314 0.356516 0.5
199 36 0.13618 0.310428 0.5
196 31 0.1279 0.343659 0.5
542 32 0.164501 0.334574 0.5
216 41 0.168975 0.294907 0.5
783 26 0.193585 0.318949 0.5
785 33 0.207421 0.290022 0.5
787 27 0.199801 0.348372 0.5
120 30 0.22329 0.321387 0.5
882 36 0.243395 0.294723 0.5
707 45 0.262183 0.328907 0.5
458 36 0.232736 0.355729 0.5
885 25 0.275981 0.296753 0.5
303 28 0.301521 0.314587 0.5
728 34 0.326287 0.28998 0.5
36 37 0.333194 0.323949 0.5
140 30 0.295765 0.347495 0.5
556 29 0.358571 0.298616 0.5
651 24 0.366269 0.329918 0.5
331 26 0.389258 0.309885 0.5
228 27 0.393313 0.342882 0.5
232 27 0.413938 0.289629 0.5
753 32 0.418599 0.322835 0.5
888 28 0.442715 0.301661 0.5
977 35 0.451485 0.334523 0.5
734 32 0.476808 0.309214 0.5
645 33 0.484223 0.346045 0.5
333 30 0.505619 0.286856 0.5
658 36 0.511065 0.320328 0.5
581 23 0.536951 0.300169 0.5
593 25 0.543628 0.33088 0.5
296 30 0.567018 0.308216 0.5
94 25 0.574562 0.339653 0.5
637 28 0.593169 0.290105 0.5
421 34 0.60399 0.330827 0.5
251 32 0.625491 0.302507 0.5
309 34 0.641457 0.33156 0.5
402 37 0.671704 0.304645 0.5
892 23 0.671063 0.337895 0.5
832 41 0.708677 0.292454 0.5
383 35 0.700847 0.328414 0.5
176 33 0.736773 0.32549 0.5
988 19 0.740058 0.295789 0.5
136 37 0.773173 0.324298 0.5
887 33 0.721614 0.356577 0.5
156 25 0.753814 0.351268 0.5
679 42 0.809932 0.305005 0.5
264 31 0.831961 0.331025 0.5
44 33 0.800301 0.343767 0.5
353 29 0.851143 0.304184 0.5
544 28 0.864761 0.333959 0.5
283 36 0.885623 0.306869 0.5
557 37 0.897437 0.340571 0.5
652 41 0.922526 0.302973 0.5
829 25 0.930265 0.338283 0.5
345 32 0.956561 0.287007 0.5
803 31 0.986526 0.300368 0.5
618 35 0.993088 0.332906 0.5
611 36 0.957969 0.322451 0.5
781 29 0.017913 0.357474 0.5
313 33 0.00663038 0.391339 0.5
606 34 0.0391274 0.383117 0.5
716 30 0.027355 0.416578 0.5
973 22 0.067392 0.377084 0.5
586 42 0.0623736 0.412633 0.5
764 37 0.0952359 0.394654 0.5
428 28 0.124129 0.375188 0.5
959 27 0.100956 0.42791 0.5
792 31 0.128386 0.409556 0.5
259 20 0.150002 0.361518 0.5
8 25 0.153118 0.391001 0.5
132 31 0.176664 0.369597 0.5
686 30 0.183809 0.401416 0.5
541 33 0.158571 0.424717 0.5
84 27 0.207112 0.379202 0.5
720 28 0.215357 0.41272 0.5
815 30 0.23816 0.388996 0.5
687 33 0.246763 0.419682 0.5
902 30 0.266172 0.368891 0.5
668 23 0.270021 0.398831 0.5
709 30 0.294873 0.381148 0.5
116 23 0.298307 0.411562 0.5
693 29 0.326422 0.393033 0.5
349 40 0.328156 0.35963 0.5
427 31 0.325275 0.424974 0.5
506 37 0.360021 0.426689 0.5
96 30 0.424184 0.355807 0.5
105 31 0.363449 0.359796 0.5
616 30 0.358152 0.391861 0.5
175 43 0.393091 0.380832 0.5
786 38 0.397785 0.418551 0.5
357 36 0.430226 0.390436 0.5
834 31 0.459946 0.369246 0.5
740 34 0.46354 0.403186 0.5
384 42 0.435836 0.428242 0.5
201 34 0.49258 0.380863 0.5
126 32 0.496458 0.415161 0.5
949 34 0.518499 0.354137 0.5
504 39 0.530035 0.391113 0.5
348 27 0.52819 0.424158 0.5
21 31 0.553844 0.363324 0.5
587 36 0.569742 0.393843 0.5
674 28 0.588621 0.366128 0.5
318 35 0.607182 0.394227 0.5
730 32 0.622495 0.363431 0.5
70 28 0.592418 0.424441 0.5
9 28 0.641752 0.394175 0.5
619 32 0.625215 0.422709 0.5
478 29 0.656867 0.364985 0.5
711 34 0.675392 0.394963 0.5
157 32 0.688651 0.364082 0.5
1000 35 0.6594 0.425317 0.5
125 30 0.709543 0.390802 0.5
347 44 0.698107 0.426034 0.5
278 33 0.744606 0.38178 0.5
206 32 0.76725 0.405562 0.5
46 34 0.734788 0.414852 0.5
727 36 0.778591 0.371218 0.5
980 28 0.84828 0.35948 0.5
289 22 0.797289 0.395967 0.5
418 34 0.81776 0.373446 0.5
578 29 0.824834 0.409145 0.5
910 30 0.794533 0.42468 0.5
141 32 0.852869 0.39077 0.5
553 32 0.88197 0.373572 0.5
177 24 0.877416 0.407756 0.5
39 26 0.904568 0.397981 0.5
41 31 0.916315 0.368235 0.5
519 24 0.924304 0.419858 0.5
983 32 0.985475 0.365361 0.5
188 31 0.995226 0.422997 0.5
822 35 0.97106 0.39573 0.5
901 37 0.951739 0.361868 0.5
375 30 0.937154 0.392907 0.5
575 32 0.0109604 0.455515 0.5
480 26 0.0425927 0.444432 0.5
807 23 0.0439126 0.472892 0.5
869 32 0.0167885 0.489086 0.5
288 35 0.0745744 0.446479 0.5
793 29 0.104081 0.461072 0.5
713 37 0.0748686 0.48207 0.5
503 37 0.108752 0.495641 0.5
532 28 0.130747 0.442407 0.5
336 35 0.136423 0.473407 0.5
925 23 0.164646 0.455294 0.5
179 31 0.190302 0.433311 0.5
26 39 0.169052 0.488478 0.5
422 30 0.196487 0.466441 0.5
423 34 0.222193 0.445257 0.5
951 29 0.227095 0.478599 0.5
524 33 0.254793 0.455759 0.5
702 28 0.260427 0.488654 0.5
965 29 0.278517 0.431804 0.5
127 23 0.283158 0.46628 0.5
634 18 0.288161 0.492427 0.5
550 25 0.304594 0.447265 0.5
826 30 0.31065 0.477287 0.5
275 32 0.33678 0.455306 0.5
620 28 0.337948 0.491141 0.5
765 24 0.381169 0.449608 0.5
77 20 0.361362 0.472245 0.5
956 33 0.391835 0.476997 0.5
446 28 0.412256 0.453296 0.5
29 29 0.422309 0.488841 0.5
875 34 0.442943 0.464002 0.5
65 31 0.471808 0.437109 0.5
665 41 0.479052 0.471629 0.5
814 31 0.453552 0.497985 0.5
549 30 0.505641 0.446875 0.5
431 31 0.559051 0.425467 0.5
767 39 0.539094 0.456988 0.5
306 27 0.512328 0.48034 0.5
92 27 0.54155 0.491899 0.5
112 25 0.566486 0.475379 0.5
531 26 0.578967 0.450562 0.5
479 21 0.594516 0.477077 0.5
101 27 0.6102 0.452046 0.5
893 30 0.625579 0.481144 0.5
83 31 0.642974 0.454103 0.5
471 24 0.658914 0.484008 0.5
688 26 0.672746 0.455489 0.5
42 40 0.689909 0.494961 0.5
323 30 0.702238 0.464032 0.5
64 31 0.732243 0.448632 0.5
118 26 0.729105 0.481481 0.5
282 27 0.763072 0.438327 0.5
772 32 0.758896 0.47117 0.5
805 27 0.784993 0.49175 0.5
364 32 0.853858 0.429047 0.5
999 36 0.791686 0.457412 0.5
277 26 0.820745 0.441721 0.5
438 27 0.815632 0.478282 0.5
381 32 0.842766 0.461724 0.5
971 20 0.872317 0.453469 0.5
911 29 0.869148 0.482462 0.5
191 37 0.895516 0.43206 0.5
625 32 0.89942 0.467861 0.5
632 30 0.927353 0.450668 0.5
585 32 0.927921 0.48627 0.5
545 38 0.957057 0.428684 0.5
85 23 0.981003 0.450007 0.5
726 29 0.986922 0.479702 0.5
135 29 0.956202 0.467915 0.5
791 27 0.0198417 0.524383 0.5
906 38 0.0501289 0.50818 0.5
237 35 0.032085 0.554552 0.5
579 28 0.0627638 0.541328 0.5
95 32 0.0857079 0.520387 0.5
187 33 0.117035 0.530862 0.5
750 32 0.093365 0.554895 0.5
641 29 0.140186 0.508001 0.5
872 39 0.130899 0.564978 0.5
865 22 0.147535 0.536468 0.5
631 30 0.175651 0.523205 0.5
512 31 0.169413 0.555452 0.5
82 33 0.202929 0.501256 0.5
22 34 0.207879 0.535202 0.5
234 34 0.236581 0.513492 0.5
714 29 0.248074 0.542999 0.5
344 21 0.224919 0.56022 0.5
594 33 0.275234 0.520636 0.5
600 35 0.283603 0.555357 0.5
186 31 0.310614 0.512743 0.5
475 26 0.314515 0.544933 0.5
300 36 0.341459 0.52647 0.5
40 39 0.34685 0.562099 0.5
51 31 0.367148 0.503211 0.5
287 35 0.376508 0.539894 0.5
563 35 0.400294 0.513863 0.5
722 33 0.409641 0.547063 0.5
796 26 0.432112 0.521837 0.5
108 33 0.443272 0.552572 0.5
732 28 0.465333 0.528944 0.5
958 23 0.474369 0.559568 0.5
692 28 0.487687 0.505138 0.5
394 29 0.49691 0.537018 0.5
866 29 0.520149 0.515704 0.5
128 31 0.529745 0.548972 0.5
928 33 0.552137 0.523739 0.5
62 28 0.575551 0.502064 0.5
454 32 0.560157 0.560014 0.5
20 35 0.585361 0.536218 0.5
133 32 0.606074 0.506189 0.5
864 25 0.619017 0.535093 0.5
908 21 0.626005 0.561604 0.5
904 34 0.638704 0.510266 0.5
771 25 0.647886 0.542374 0.5
281 25 0.668507 0.522499 0.5
850 23 0.677542 0.555615 0.5
691 38 0.698683 0.53333 0.5
110 30 0.708348 0.565748 0.5
23 28 0.72331 0.510922 0.5
760 26 0.730502 0.541615 0.5
35 37 0.755348 0.506791 0.5
119 29 0.761321 0.542473 0.5
590 25 0.784449 0.52183 0.5
633 30 0.784145 0.566081 0.5
47 31 0.840973 0.496443 0.5
295 33 0.808814 0.547033 0.5
267 27 0.811844 0.510592 0.5
271 30 0.839173 0.56492 0.5
533 35 0.840198 0.529865 0.5
212 25 0.899885 0.502272 0.5
343 33 0.869715 0.514961 0.5
974 26 0.869738 0.548889 0.5
294 29 0.897634 0.534199 0.5
784 28 0.897237 0.566431 0.5
142 31 0.927407 0.519215 0.5
696 27 0.926129 0.550524 0.5
725 38 0.959441 0.502601 0.5
495 33 0.991378 0.512458 0.5
918 39 0.993725 0.545958 0.5
790 32 0.957486 0.539294 0.5
465 27 0.0667692 0.57251 0.5
777 27 0.00693311 0.575729 0.5
695 21 0.0107739 0.612587 0.5
109 42 0.0368071 0.592257 0.5
601 31 0.0129819 0.641861 0.5
801 26 0.0418087 0.626846 0.5
398 38 0.0719658 0.607954 0.5
675 27 0.0699446 0.640507 0.5
240 29 0.100502 0.585595 0.5
680 29 0.103333 0.620492 0.5
833 33 0.129279 0.600954 0.5
145 25 0.130069 0.638096 0.5
913 29 0.163167 0.587961 0.5
748 35 0.159156 0.6211 0.5
154 28 0.191204 0.604833 0.5
883 35 0.190454 0.639462 0.5
351 31 0.195941 0.573745 0.5
985 25 0.224235 0.588144 0.5
447 37 0.221588 0.621362 0.5
399 34 0.253084 0.575735 0.5
907 27 0.252175 0.61001 0.5
129 36 0.283202 0.591501 0.5
576 33 0.279225 0.629338 0.5
111 28 0.31307 0.574264 0.5
410 40 0.312556 0.613131 0.5
804 29 0.341239 0.596397 0.5
417 25 0.343335 0.630337 0.5
640 37 0.385678 0.574291 0.5
266 35 0.370742 0.606825 0.5
942 25 0.402094 0.603914 0.5
948 36 0.404912 0.637364 0.5
470 29 0.420964 0.579318 0.5
152 34 0.432264 0.611884 0.5
406 30 0.505998 0.568731 0.5
543 33 0.452564 0.585508 0.5
79 37 0.470114 0.618776 0.5
758 22 0.48354 0.590289 0.5
602 25 0.502859 0.63457 0.5
560 29 0.509714 0.604181 0.5
404 31 0.536083 0.581876 0.5
840 26 0.540558 0.613265 0.5
870 30 0.567099 0.593269 0.5
321 31 0.567627 0.629355 0.5
595 35 0.596395 0.571303 0.5
324 38 0.596454 0.61035 0.5
297 30 0.625187 0.592117 0.5
820 29 0.628578 0.624321 0.5
432 29 0.653149 0.573524 0.5
573 30 0.657673 0.605781 0.5
981 30 0.683891 0.585802 0.5
49 27 0.688233 0.61866 0.5
354 34 0.659028 0.637168 0.5
43 35 0.715884 0.599571 0.5
678 30 0.714991 0.63418 0.5
867 37 0.742611 0.574694 0.5
997 34 0.745191 0.616109 0.5
137 33 0.772017 0.597529 0.5
584 25 0.774294 0.633754 0.5
968 38 0.812205 0.585631 0.5
778 24 0.79806 0.615553 0.5
474 28 0.827405 0.619744 0.5
862 25 0.845408 0.59581 0.5
683 34 0.861166 0.625902 0.5
341 25 0.86792 0.577815 0.5
960 40 0.890634 0.602863 0.5
818 25 0.920952 0.587733 0.5
861 35 0.921304 0.622651 0.5
338 29 0.948208 0.569757 0.5
853 20 0.98841 0.597042 0.5
613 27 0.9836 0.624788 0.5
489 21 0.976989 0.572929 0.5
868 38 0.955978 0.602245 0.5
98 35 0.9513 0.639014 0.5
60 27 0.0125787 0.671504 0.5
149 27 0.0382485 0.687566 0.5
146 25 0.0425556 0.657208 0.5
359 34 0.00955467 0.704905 0.5
789 28 0.0712443 0.671579 0.5
946 30 0.101273 0.65415 0.5
441 30 0.10397 0.687536 0.5
827 40 0.0735659 0.704535 0.5
684 25 0.129995 0.672582 0.5
204 34 0.129691 0.708043 0.5
854 28 0.157185 0.65763 0.5
401 25 0.158033 0.694599 0.5
342 39 0.187371 0.675118 0.5
567 29 0.188379 0.709934 0.5
460 34 0.220001 0.657847 0.5
610 30 0.216759 0.692581 0.5
1 26 0.248728 0.641093 0.5
721 27 0.24723 0.677062 0.5
320 33 0.242835 0.710608 0.5
284 35 0.275879 0.66321 0.5
10 29 0.274661 0.696836 0.5
954 24 0.301608 0.683338 0.5
739 42 0.31605 0.652152 0.5
220 30 0.33369 0.685733 0.5
667 27 0.351066 0.659016 0.5
32 22 0.371799 0.638064 0.5
572 34 0.383784 0.667142 0.5
99 25 0.364817 0.692186 0.5
639 22 0.397006 0.695343 0.5
286 31 0.418757 0.669953 0.5
13 31 0.427801 0.701886 0.5
412 29 0.443918 0.642982 0.5
386 36 0.45347 0.674972 0.5
371 29 0.480185 0.653546 0.5
388 26 0.460592 0.706231 0.5
117 31 0.48541 0.687401 0.5
45 28 0.50922 0.66633 0.5
11 37 0.536475 0.645592 0.5
198 35 0.546827 0.678523 0.5
246 33 0.519917 0.700813 0.5
932 27 0.572324 0.660538 0.5
810 31 0.600008 0.644768 0.5
335 34 0.579396 0.694897 0.5
184 27 0.605315 0.675635 0.5
915 27 0.607664 0.71046 0.5
163 26 0.629435 0.656731 0.5
486 37 0.634628 0.692584 0.5
816 32 0.661448 0.67136 0.5
899 23 0.687796 0.651037 0.5
311 28 0.691295 0.682749 0.5
411 31 0.6671 0.707792 0.5
123 18 0.696866 0.709926 0.5
322 23 0.715377 0.66429 0.5
522 35 0.722641 0.696374 0.5
599 33 0.744774 0.650433 0.5
496 30 0.75182 0.68204 0.5
654 25 0.778992 0.663169 0.5
147 30 0.779704 0.696524 0.5
319 29 0.80266 0.646066 0.5
93 42 0.810227 0.680726 0.5
878 32 0.834709 0.650977 0.5
774 33 0.83497 0.706604 0.5
605 24 0.846617 0.678296 0.5
546 32 0.891414 0.641194 0.5
435 23 0.867376 0.65994 0.5
842 28 0.868674 0.693857 0.5
916 25 0.894033 0.674704 0.5
285 30 0.894663 0.710738 0.5
269 32 0.920813 0.658533 0.5
876 31 0.921396 0.692427 0.5
231 32 0.980729 0.655763 0.5
630 32 0.977899 0.689661 0.5
539 31 0.950315 0.673561 0.5
450 24 0.947744 0.709931 0.5
459 36 0.0108139 0.742732 0.5
972 29 0.0413074 0.759575 0.5
190 39 0.0406534 0.720472 0.5
224 30 0.0125073 0.775498 0.5
207 31 0.0702516 0.740984 0.5
947 34 0.0705089 0.773697 0.5
19 28 0.102465 0.726381 0.5
514 25 0.0983046 0.75794 0.5
830 29 0.129705 0.744595 0.5
213 32 0.126642 0.775379 0.5
7 35 0.159409 0.728509 0.5
747 24 0.155941 0.761493 0.5
718 20 0.190121 0.741038 0.5
316 38 0.185695 0.775584 0.5
552 30 0.215164 0.727775 0.5
624 24 0.214044 0.758984 0.5
48 25 0.240058 0.7444 0.5
352 27 0.263469 0.761713 0.5
247 24 0.2377 0.774853 0.5
226 31 0.269361 0.729907 0.5
151 37 0.304277 0.717866 0.5
449 26 0.292592 0.749558 0.5
194 31 0.324742 0.747988 0.5
235 35 0.343224 0.718401 0.5
717 30 0.306678 0.776131 0.5
525 26 0.336136 0.778515 0.5
15 33 0.356612 0.752047 0.5
53 35 0.376845 0.722859 0.5
554 29 0.389416 0.755193 0.5
304 28 0.409299 0.730656 0.5
437 32 0.368656 0.782229 0.5
395 28 0.426121 0.761066 0.5
507 29 0.440316 0.731588 0.5
937 32 0.456982 0.767675 0.5
978 23 0.468266 0.738974 0.5
547 33 0.49173 0.720528 0.5
362 32 0.493088 0.758764 0.5
69 35 0.52118 0.736947 0.5
25 33 0.550583 0.716681 0.5
292 28 0.55418 0.747411 0.5
638 47 0.527827 0.776363 0.5
800 23 0.562287 0.775987 0.5
526 30 0.581791 0.729412 0.5
481 30 0.587809 0.760864 0.5
337 29 0.615041 0.742836 0.5
527 28 0.618185 0.77388 0.5
755 25 0.638483 0.725001 0.5
30 32 0.647129 0.756091 0.5
185 36 0.68139 0.738449 0.5
945 35 0.67743 0.775182 0.5
484 34 0.710601 0.764973 0.5
570 34 0.718554 0.731009 0.5
195 37 0.752375 0.718602 0.5
56 27 0.745416 0.751274 0.5
276 35 0.741878 0.784211 0.5
635 23 0.775407 0.741523 0.5
975 27 0.773107 0.772942 0.5
50 32 0.800967 0.720991 0.5
254 33 0.80241 0.757109 0.5
392 30 0.828888 0.739302 0.5
463 26 0.830165 0.772176 0.5
839 27 0.864755 0.723217 0.5
88 41 0.860995 0.755716 0.5
248 25 0.892771 0.741804 0.5
183 28 0.889657 0.775067 0.5
477 31 0.921318 0.72602 0.5
992 37 0.920578 0.76237 0.5
261 38 0.978105 0.723605 0.5
131 28 0.979396 0.757018 0.5
643 28 0.949346 0.740517 0.5
238 25 0.951488 0.770589 0.5
113 35 0.0119202 0.809136 0.5
433 25 0.0400036 0.792109 0.5
38 29 0.0379588 0.829066 0.5
931 30 0.00717253 0.842568 0.5
724 40 0.0671404 0.810352 0.5
642 31 0.0692735 0.845381 0.5
67 30 0.0978872 0.791565 0.5
647 30 0.0989577 0.825824 0.5
315 28 0.128604 0.807835 0.5
889 28 0.127456 0.843261 0.5
970 22 0.156365 0.791705 0.5
74 35 0.155784 0.824627 0.5
160 29 0.18778 0.810466 0.5
205 27 0.185358 0.841565 0.5
472 27 0.215626 0.792535 0.5
419 33 0.219174 0.824534 0.5
627 33 0.250372 0.804602 0.5
197 29 0.249287 0.839125 0.5
909 28 0.278889 0.787093 0.5
257 33 0.279622 0.822662 0.5
989 34 0.31183 0.810657 0.5
523 22 0.332025 0.834693 0.5
86 30 0.306591 0.84613 0.5
984 32 0.345476 0.807781 0.5
391 25 0.360525 0.839279 0.5
890 33 0.40458 0.783852 0.5
148 34 0.382187 0.812223 0.5
650 29 0.390722 0.843817 0.5
78 20 0.437 0.793924 0.5
825 36 0.417007 0.817597 0.5
808 26 0.425924 0.849212 0.5
253 29 0.45092 0.823052 0.5
494 23 0.46484 0.79719 0.5
370 37 0.485256 0.828891 0.5
467 31 0.458603 0.85311 0.5
122 30 0.494347 0.796276 0.5
735 28 0.521242 0.813786 0.5
230 31 0.546482 0.83295 0.5
209 26 0.555049 0.802501 0.5
150 38 0.517635 0.851578 0.5
3 33 0.588574 0.793308 0.5
562 37 0.578868 0.826922 0.5
268 43 0.618274 0.814601 0.5
482 29 0.603095 0.849682 0.5
327 31 0.64555 0.788782 0.5
858 33 0.637277 0.847057 0.5
681 24 0.651965 0.817923 0.5
415 24 0.679565 0.808542 0.5
173 30 0.671178 0.839917 0.5
843 34 0.710541 0.799985 0.5
719 23 0.701837 0.830759 0.5
334 33 0.737088 0.819472 0.5
759 36 0.771003 0.808798 0.5
302 26 0.726528 0.849234 0.5
669 40 0.766503 0.846455 0.5
501 34 0.80421 0.792658 0.5
880 40 0.800938 0.829112 0.5
612 27 0.830418 0.812908 0.5
969 29 0.832765 0.84484 0.5
757 39 0.857563 0.794704 0.5
223 19 0.858028 0.827501 0.5
515 29 0.887825 0.810836 0.5
924 26 0.887516 0.842408 0.5
328 23 0.914381 0.793674 0.5
396 31 0.917184 0.823818 0.5
134 34 0.98079 0.790151 0.5
828 29 0.979266 0.823645 0.5
236 41 0.946756 0.804961 0.5
697 36 0.947714 0.840794 0.5
891 33 0.00992279 0.874992 0.5
528 33 0.00507755 0.908044 0.5
710 37 0.0392595 0.900754 0.5
367 28 0.0408984 0.861166 0.5
987 35 0.0702121 0.878479 0.5
262 32 0.0731522 0.913027 0.5
873 32 0.0995469 0.860443 0.5
505 33 0.100515 0.894282 0.5
518 30 0.129583 0.874021 0.5
490 32 0.130599 0.907756 0.5
811 26 0.157699 0.85647 0.5
731 35 0.215234 0.858915 0.5
468 27 0.157195 0.887187 0.5
193 28 0.18401 0.87407 0.5
439 28 0.189116 0.905521 0.5
462 29 0.160182 0.919451 0.5
852 34 0.221384 0.893915 0.5
903 31 0.277087 0.856163 0.5
387 29 0.247594 0.871014 0.5
172 21 0.251949 0.899974 0.5
565 27 0.277188 0.886472 0.5
180 33 0.271679 0.921288 0.5
291 27 0.307943 0.877517 0.5
657 25 0.336405 0.862688 0.5
921 37 0.338343 0.896483 0.5
61 32 0.303886 0.910329 0.5
863 26 0.364866 0.868496 0.5
884 36 0.379359 0.899664 0.5
5 33 0.403644 0.873532 0.5
256 33 0.416284 0.905832 0.5
773 21 0.488539 0.861335 0.5
844 33 0.436649 0.880959 0.5
993 30 0.471449 0.884403 0.5
444 33 0.451262 0.912741 0.5
107 29 0.484248 0.913702 0.5
817 36 0.508423 0.888367 0.5
59 23 0.539414 0.877598 0.5
604 22 0.535559 0.905979 0.5
178 23 0.513996 0.921449 0.5
741 34 0.565632 0.859878 0.5
355 31 0.566738 0.90013 0.5
159 34 0.592832 0.879352 0.5
453 25 0.60452 0.909168 0.5
192 36 0.626431 0.881815 0.5
782 28 0.63447 0.914241 0.5
243 33 0.695992 0.861361 0.5
52 37 0.662217 0.873564 0.5
499 19 0.662077 0.907516 0.5
591 26 0.68893 0.893702 0.5
153 37 0.689083 0.925472 0.5
55 28 0.718976 0.883235 0.5
299 25 0.746614 0.873081 0.5
221 23 0.750546 0.902259 0.5
836 29 0.722763 0.914644 0.5
314 31 0.774491 0.884523 0.5
340 22 0.776833 0.914384 0.5
158 35 0.802572 0.864083 0.5
689 30 0.805506 0.899414 0.5
520 31 0.832042 0.880343 0.5
955 28 0.834213 0.911819 0.5
676 31 0.80475 0.932735 0.5
780 29 0.861385 0.929574 0.5
200 34 0.861359 0.861285 0.5
588 26 0.861093 0.895658 0.5
76 26 0.887676 0.879858 0.5
558 31 0.889333 0.911922 0.5
258 38 0.916156 0.857874 0.5
502 25 0.917943 0.893658 0.5
143 30 0.918882 0.926997 0.5
436 31 0.977316 0.856498 0.5
89 30 0.976787 0.889035 0.5
644 30 0.947613 0.876417 0.5
219 28 0.948185 0.907334 0.5
75 21 0.976718 0.919483 0.5
813 30 0.0407701 0.997182 0.5
298 38 0.0108359 0.975665 0.5
379 27 0.0263015 0.933816 0.5
846 34 0.0439604 0.962392 0.5
350 16 0.0519086 0.930069 0.5
249 34 0.070756 0.982054 0.5
33 30 0.0754831 0.945793 0.5
685 30 0.103581 0.964578 0.5
510 35 0.104091 0.931368 0.5
161 27 0.128732 0.984179 0.5
466 42 0.137488 0.948722 0.5
498 29 0.161397 0.976859 0.5
455 31 0.174371 0.948501 0.5
673 27 0.195648 0.970587 0.5
81 27 0.216482 0.992194 0.5
617 33 0.204237 0.933701 0.5
775 33 0.236991 0.926047 0.5
941 29 0.248128 0.985367 0.5
743 32 0.225735 0.961191 0.5
706 32 0.257442 0.952766 0.5
451 33 0.283049 0.97982 0.5
738 32 0.358733 0.927394 0.5
461 32 0.292336 0.947788 0.5
255 29 0.316567 0.97033 0.5
339 36 0.325258 0.936135 0.5
374 35 0.340602 0.996606 0.5
623 36 0.349687 0.962194 0.5
330 27 0.371825 0.990682 0.5
71 34 0.409306 0.984319 0.5
535 25 0.382644 0.962599 0.5
390 32 0.392547 0.931996 0.5
189 13 0.408798 0.956594 0.5
898 28 0.426785 0.936982 0.5
769 29 0.441866 0.995657 0.5
493 25 0.436824 0.964925 0.5
629 25 0.467781 0.971334 0.5
58 27 0.457499 0.943198 0.5
957 36 0.499723 0.977328 0.5
835 33 0.489853 0.945014 0.5
708 26 0.552303 0.928129 0.5
682 36 0.537045 0.985429 0.5
763 34 0.526262 0.95044 0.5
979 35 0.572142 0.995679 0.5
798 34 0.563025 0.961741 0.5
537 27 0.582519 0.932618 0.5
598 34 0.598669 0.973397 0.5
373 35 0.613724 0.940225 0.5
961 30 0.629008 0.994916 0.5
102 22 0.630686 0.965334 0.5
982 32 0.688507 0.997077 0.5
250 30 0.657251 0.980763 0.5
990 40 0.656034 0.942322 0.5
214 34 0.68676 0.961792 0.5
746 24 0.749168 0.932742 0.5
742 31 0.751546 0.997152 0.5
103 33 0.719095 0.979885 0.5
561 32 0.717738 0.946889 0.5
270 31 0.749374 0.964544 0.5
332 27 0.779863 0.98004 0.5
749 28 0.778214 0.949089 0.5
569 33 0.806763 0.998874 0.5
580 27 0.808498 0.965943 0.5
420 34 0.836794 0.98544 0.5
397 33 0.834842 0.946984 0.5
622 28 0.865828 0.99944 0.5
583 24 0.86212 0.964035 0.5
895 29 0.8895 0.979605 0.5
703 30 0.889363 0.944134 0.5
733 37 0.91918 0.996435 0.5
272 36 0.91903 0.960948 0.5
905 30 0.982041 0.99698 0.5
663 33 0.996216 0.941831 0.5
656 21 0.979218 0.966897 0.5
393 38 0.951097 0.980576 0.5
943 44 0.952034 0.943329 0.5
