ITEM: TIMESTEP
1850000
ITEM: NUMBER OF ATOMS
1000
ITEM: BOX BOUNDS pp pp pp
-1.5066572000000001e+01 1.5066572000000001e+01
-1.5066572000000001e+01 1.5066572000000001e+01
-5.0000000000000000e-01 5.0000000000000000e-01
ITEM: ATOMS id type xs ys zs
393 38 0.0305017 0.0276265 0.5
733 37 0.000794432 0.0440382 0.5
483 28 0.0311209 0.0633272 0.5
656 21 0.0594304 0.0146461 0.5
272 36 -0.00109351 0.00810231 0.5
905 30 0.0606566 0.0437797 0.5
298 38 0.0898451 0.022567 0.5
700 26 0.0919502 0.056884 0.5
813 30 0.119375 0.044864 0.5
846 34 0.123139 0.00649463 0.5
249 34 0.152361 0.0270394 0.5
513 27 0.146286 0.060527 0.5
685 30 0.184899 0.0128655 0.5
380 38 0.180358 0.0469109 0.5
161 27 0.210871 0.0324291 0.5
498 29 0.24164 0.0231974 0.5
894 27 0.235377 0.0531081 0.5
215 28 0.267275 0.0507606 0.5
673 27 0.278255 0.0209161 0.5
466 42 0.219735 -0.00355338 0.5
743 32 0.309388 0.0086647 0.5
81 27 0.297731 0.0451329 0.5
941 29 0.326943 0.0357287 0.5
706 32 0.342629 0.00346123 0.5
517 36 0.320379 0.0721732 0.5
670 34 0.355245 0.0600429 0.5
451 33 0.367943 0.0266451 0.5
255 29 0.400719 0.020979 0.5
659 35 0.39097 0.0551602 0.5
374 35 0.425455 0.0470214 0.5
623 36 0.43597 0.0142999 0.5
330 27 0.457763 0.03953 0.5
535 25 0.470755 0.0123299 0.5
218 23 0.477586 0.0618662 0.5
71 34 0.493492 0.0346826 0.5
577 36 0.449824 0.0749331 0.5
189 13 0.496257 0.00463021 0.5
493 25 0.521459 0.0139189 0.5
769 29 0.526852 0.0449985 0.5
896 29 0.505021 0.069205 0.5
629 25 0.55104 0.0199045 0.5
222 33 0.55933 0.0512509 0.5
957 36 0.584147 0.0261181 0.5
430 33 0.589119 0.0613167 0.5
682 36 0.617402 0.0324364 0.5
763 34 0.608941 -0.00118991 0.5
798 34 0.6446 0.00809814 0.5
979 35 0.650837 0.044475 0.5
598 34 0.680136 0.0267353 0.5
551 30 0.681762 0.0605727 0.5
102 22 0.708851 0.0140886 0.5
250 30 0.738592 0.0286414 0.5
961 30 0.711178 0.0454081 0.5
930 26 0.741305 0.0606303 0.5
214 34 0.765689 0.00851971 0.5
982 32 0.769102 0.0421618 0.5
103 33 0.799312 0.0280967 0.5
877 29 0.803109 0.0608432 0.5
742 31 0.82896 0.0435475 0.5
270 31 0.829082 0.00883268 0.5
332 27 0.856361 0.025445 0.5
580 27 0.885541 0.0101582 0.5
569 33 0.887716 0.0445115 0.5
241 33 0.856511 0.0612028 0.5
356 25 0.915285 0.0625911 0.5
420 34 0.917487 0.0285258 0.5
895 29 0.969046 0.0279685 0.5
583 24 0.944196 0.00712745 0.5
622 28 0.944654 0.0452152 0.5
308 26 0.97097 0.0617681 0.5
378 31 0.00483885 0.0786642 0.5
768 31 0.00561436 0.114454 0.5
164 33 0.0345426 0.0970322 0.5
68 31 0.033805 0.131156 0.5
242 35 0.0630288 0.0757871 0.5
886 28 0.118617 0.076285 0.5
115 23 0.0919668 0.0884149 0.5
857 39 0.067641 0.113188 0.5
938 23 0.0936747 0.133183 0.5
538 34 0.115198 0.110868 0.5
279 32 0.144567 0.0963672 0.5
37 29 0.175353 0.117922 0.5
936 25 0.144108 0.126762 0.5
516 40 0.1788 0.0833857 0.5
694 31 0.206491 0.126429 0.5
596 27 0.205877 0.0658899 0.5
290 31 0.243694 0.115949 0.5
66 31 0.252515 0.0844178 0.5
87 28 0.215927 0.0940771 0.5
469 36 0.275446 0.114291 0.5
648 25 0.230866 0.146491 0.5
442 35 0.285318 0.0800105 0.5
927 32 0.310926 0.104486 0.5
939 37 0.302294 0.137748 0.5
487 30 0.335864 0.125189 0.5
819 30 0.346254 0.0932597 0.5
473 31 0.414529 0.0799207 0.5
559 33 0.380264 0.0894248 0.5
511 38 0.370169 0.123631 0.5
847 37 0.408675 0.113875 0.5
227 32 0.445095 0.109168 0.5
860 30 0.478897 0.0950198 0.5
274 27 0.493026 0.123746 0.5
203 39 0.463605 0.138267 0.5
181 32 0.429453 0.140575 0.5
831 29 0.534714 0.0764252 0.5
14 28 0.511164 0.101292 0.5
649 35 0.522356 0.132866 0.5
996 26 0.545799 0.111149 0.5
445 35 0.624522 0.0683708 0.5
492 39 0.566724 0.0878523 0.5
366 29 0.599449 0.095044 0.5
509 27 0.577142 0.11811 0.5
934 25 0.607191 0.127111 0.5
824 31 0.630264 0.104409 0.5
464 30 0.638013 0.138713 0.5
16 32 0.65547 0.0804764 0.5
704 34 0.661354 0.115183 0.5
609 30 0.685861 0.0908995 0.5
31 23 0.690629 0.12997 0.5
986 28 0.714635 0.0761012 0.5
912 38 0.715428 0.108936 0.5
358 28 0.74335 0.0925637 0.5
425 32 0.744695 0.129557 0.5
360 17 0.71487 0.139534 0.5
752 26 0.771068 0.110794 0.5
301 36 0.773981 0.0775177 0.5
211 19 0.830349 0.0736166 0.5
926 34 0.805956 0.0936093 0.5
744 33 0.79889 0.128564 0.5
106 20 0.831066 0.11073 0.5
182 33 0.856191 0.0950434 0.5
408 28 0.885109 0.0768503 0.5
139 29 0.884545 0.108176 0.5
660 28 0.857427 0.125925 0.5
737 34 0.913113 0.0937015 0.5
940 27 0.913619 0.12754 0.5
229 32 0.945283 0.0781988 0.5
919 24 0.975891 0.125195 0.5
63 29 0.972499 0.0945201 0.5
34 31 0.9418 0.108474 0.5
310 33 0.0033558 0.145941 0.5
855 31 0.00712643 0.179668 0.5
210 28 0.0381547 0.163125 0.5
589 24 0.0349617 0.195291 0.5
416 34 0.00511463 0.212948 0.5
24 29 0.0616881 0.212302 0.5
998 31 0.0644937 0.179622 0.5
712 29 0.0663613 0.148187 0.5
97 23 0.120566 0.147013 0.5
705 29 0.0937097 0.164762 0.5
766 29 0.0928407 0.197737 0.5
155 30 0.12332 0.177999 0.5
964 33 0.12073 0.213421 0.5
245 22 0.183517 0.145522 0.5
448 32 0.153541 0.1576 0.5
80 29 0.181266 0.175275 0.5
170 33 0.153161 0.193868 0.5
851 31 0.183561 0.209101 0.5
976 22 0.208378 0.1647 0.5
252 35 0.264469 0.149304 0.5
168 37 0.23762 0.176719 0.5
881 27 0.210948 0.19272 0.5
28 27 0.237095 0.211572 0.5
756 28 0.268602 0.18937 0.5
260 28 0.292389 0.170188 0.5
130 28 0.319045 0.187247 0.5
809 27 0.295125 0.205197 0.5
762 33 0.332129 0.158313 0.5
389 39 0.353835 0.189643 0.5
280 38 0.395625 0.147774 0.5
488 26 0.362789 0.155919 0.5
597 24 0.385195 0.176814 0.5
167 27 0.386418 0.204365 0.5
457 37 0.41696 0.17955 0.5
385 32 0.416755 0.215767 0.5
564 27 0.447696 0.167809 0.5
823 28 0.444623 0.199282 0.5
169 21 0.475403 0.176284 0.5
409 30 0.474343 0.207332 0.5
536 28 0.494704 0.154681 0.5
114 26 0.500631 0.188237 0.5
414 34 0.554683 0.145088 0.5
991 33 0.523717 0.1703 0.5
845 27 0.533504 0.202479 0.5
900 25 0.551745 0.179185 0.5
671 25 0.564401 0.211066 0.5
699 23 0.584817 0.151905 0.5
440 39 0.586651 0.185653 0.5
950 32 0.613408 0.160409 0.5
795 35 0.620906 0.194927 0.5
305 29 0.665311 0.153017 0.5
104 25 0.643052 0.173977 0.5
57 32 0.673774 0.184568 0.5
788 33 0.649989 0.212015 0.5
582 28 0.696717 0.160863 0.5
715 23 0.708345 0.186064 0.5
208 32 0.771211 0.145542 0.5
317 37 0.733501 0.1632 0.5
307 32 0.738114 0.198499 0.5
994 28 0.765236 0.179272 0.5
312 38 0.829759 0.144378 0.5
521 32 0.797873 0.163713 0.5
799 27 0.79741 0.196841 0.5
655 29 0.82658 0.180173 0.5
138 31 0.883352 0.143835 0.5
603 29 0.859742 0.161972 0.5
382 37 0.887601 0.179003 0.5
797 31 0.855369 0.19291 0.5
363 25 0.919579 0.196118 0.5
677 39 0.919225 0.162065 0.5
922 36 0.949111 0.143483 0.5
653 24 0.974775 0.161625 0.5
456 31 0.975992 0.191139 0.5
838 23 0.950147 0.174528 0.5
859 39 0.948059 0.210213 0.5
933 29 0.00899507 0.250083 0.5
923 33 0.0343913 0.230615 0.5
54 29 0.0367864 0.266939 0.5
244 29 0.0664109 0.279824 0.5
614 29 0.0630341 0.248479 0.5
920 29 0.0889784 0.230087 0.5
751 24 0.0896899 0.260544 0.5
171 34 0.118068 0.246797 0.5
698 21 0.126352 0.281721 0.5
2 28 0.148707 0.229189 0.5
849 35 0.149833 0.262022 0.5
897 31 0.183861 0.278045 0.5
770 41 0.181046 0.244824 0.5
995 25 0.210588 0.225627 0.5
162 32 0.237315 0.241673 0.5
429 27 0.212685 0.260931 0.5
293 35 0.243118 0.27626 0.5
848 28 0.2684 0.221634 0.5
837 33 0.268985 0.256067 0.5
124 28 0.325017 0.216724 0.5
802 35 0.299793 0.237447 0.5
18 41 0.300156 0.274903 0.5
754 31 0.330356 0.24987 0.5
856 28 0.333236 0.282161 0.5
273 28 0.354159 0.224113 0.5
953 29 0.388412 0.234739 0.5
966 25 0.361685 0.257124 0.5
917 39 0.393832 0.268711 0.5
239 35 0.425512 0.248947 0.5
592 25 0.450305 0.230125 0.5
841 31 0.455648 0.264462 0.5
608 29 0.430077 0.283633 0.5
144 34 0.480449 0.24372 0.5
403 25 0.486947 0.274748 0.5
626 35 0.507882 0.221077 0.5
368 33 0.512941 0.255532 0.5
871 28 0.540247 0.232788 0.5
372 27 0.544892 0.268861 0.5
491 30 0.517935 0.287014 0.5
73 31 0.597591 0.21965 0.5
90 39 0.573573 0.246026 0.5
263 29 0.605245 0.257825 0.5
607 37 0.578869 0.280603 0.5
452 33 0.628386 0.236562 0.5
121 32 0.637452 0.267852 0.5
174 31 0.682211 0.217173 0.5
963 27 0.660784 0.243531 0.5
874 37 0.67137 0.279266 0.5
571 43 0.697058 0.248503 0.5
426 23 0.703169 0.284056 0.5
413 26 0.711088 0.215899 0.5
779 37 0.768084 0.214012 0.5
508 28 0.735151 0.232734 0.5
666 32 0.732345 0.265804 0.5
265 41 0.764363 0.251948 0.5
952 34 0.825794 0.213632 0.5
568 31 0.795997 0.233736 0.5
485 34 0.797956 0.267094 0.5
530 29 0.82701 0.246037 0.5
821 26 0.845887 0.270142 0.5
745 35 0.886734 0.212334 0.5
879 33 0.858825 0.237529 0.5
540 35 0.891773 0.251283 0.5
17 27 0.872908 0.277908 0.5
365 27 0.91742 0.230032 0.5
346 29 0.977703 0.230072 0.5
615 28 0.979923 0.261823 0.5
165 22 0.951876 0.24547 0.5
661 30 0.926072 0.258771 0.5
6 15 0.952158 0.269338 0.5
202 38 0.00721285 0.285735 0.5
574 22 0.0153637 0.317607 0.5
806 27 0.0394791 0.300262 0.5
652 41 0.0053566 0.351498 0.5
345 32 0.0404498 0.33408 0.5
369 35 0.0969047 0.29459 0.5
776 31 0.0681369 0.314626 0.5
548 36 0.100443 0.330895 0.5
803 31 0.0722045 0.348839 0.5
672 31 0.128185 0.310726 0.5
729 23 0.130796 0.339285 0.5
662 32 0.157799 0.297055 0.5
723 29 0.159002 0.329306 0.5
555 30 0.188108 0.310124 0.5
967 24 0.189152 0.343151 0.5
407 26 0.21239 0.292589 0.5
636 22 0.237636 0.307466 0.5
812 27 0.214851 0.32556 0.5
216 41 0.24991 0.338506 0.5
376 40 0.270808 0.300738 0.5
628 31 0.309955 0.308552 0.5
785 33 0.289726 0.335306 0.5
882 36 0.32584 0.342265 0.5
534 33 0.344047 0.31157 0.5
405 29 0.36652 0.287803 0.5
621 27 0.378797 0.317229 0.5
885 25 0.360951 0.34186 0.5
690 26 0.404602 0.304059 0.5
728 34 0.40513 0.338238 0.5
303 28 0.378736 0.365292 0.5
664 32 0.431601 0.317587 0.5
400 34 0.458609 0.298875 0.5
935 25 0.464973 0.330289 0.5
556 29 0.440502 0.352154 0.5
331 26 0.469892 0.362153 0.5
325 32 0.491449 0.307411 0.5
72 26 0.549934 0.298208 0.5
701 37 0.522655 0.320817 0.5
232 27 0.494874 0.340142 0.5
888 28 0.528152 0.353624 0.5
361 33 0.556127 0.329363 0.5
646 28 0.610649 0.289239 0.5
914 25 0.581337 0.312278 0.5
333 30 0.586871 0.341173 0.5
794 31 0.6125 0.321004 0.5
581 23 0.618616 0.351996 0.5
424 23 0.64068 0.302292 0.5
497 32 0.669351 0.312785 0.5
434 24 0.643022 0.329729 0.5
637 28 0.67978 0.346072 0.5
4 33 0.703489 0.317606 0.5
296 30 0.648445 0.358336 0.5
251 32 0.712987 0.351956 0.5
761 29 0.760937 0.288145 0.5
944 29 0.729875 0.297501 0.5
476 22 0.732749 0.328411 0.5
566 31 0.762482 0.31908 0.5
402 37 0.749206 0.353131 0.5
443 28 0.821792 0.287758 0.5
329 34 0.794492 0.301745 0.5
91 25 0.827095 0.320144 0.5
988 19 0.830445 0.349219 0.5
832 41 0.795123 0.340367 0.5
217 32 0.905879 0.284162 0.5
529 28 0.850996 0.300223 0.5
166 30 0.882567 0.307884 0.5
500 41 0.858688 0.334381 0.5
679 42 0.893392 0.353692 0.5
225 34 0.912164 0.31917 0.5
377 27 0.968829 0.292961 0.5
27 33 0.937233 0.292313 0.5
12 34 0.983058 0.321055 0.5
100 33 0.947841 0.324483 0.5
283 36 0.967076 0.350833 0.5
353 29 0.930748 0.353046 0.5
829 25 0.014753 0.385385 0.5
41 31 0.00117334 0.414021 0.5
901 37 0.0373788 0.407985 0.5
611 36 0.0403709 0.36817 0.5
618 35 0.0747437 0.381397 0.5
781 29 0.102805 0.405629 0.5
983 32 0.0698684 0.413598 0.5
962 46 0.113183 0.370354 0.5
233 27 0.135939 0.39951 0.5
326 43 0.153845 0.36724 0.5
929 33 0.1732 0.401062 0.5
736 26 0.189619 0.372094 0.5
973 22 0.151314 0.422893 0.5
428 28 0.209899 0.42206 0.5
199 36 0.221133 0.358224 0.5
196 31 0.213715 0.39052 0.5
542 32 0.249163 0.380795 0.5
259 20 0.235986 0.409247 0.5
132 31 0.262285 0.418346 0.5
783 26 0.275874 0.362317 0.5
787 27 0.281252 0.393043 0.5
120 30 0.305445 0.370065 0.5
458 36 0.317754 0.401977 0.5
707 45 0.346145 0.374966 0.5
902 30 0.351247 0.413956 0.5
84 27 0.295991 0.426374 0.5
140 30 0.378967 0.395531 0.5
36 37 0.412799 0.372973 0.5
349 40 0.411735 0.407099 0.5
709 30 0.383044 0.426999 0.5
651 24 0.446627 0.38164 0.5
105 31 0.444996 0.411208 0.5
228 27 0.475616 0.392768 0.5
734 32 0.55996 0.362693 0.5
753 32 0.501519 0.373641 0.5
96 30 0.503971 0.410626 0.5
977 35 0.533785 0.386749 0.5
834 31 0.533809 0.420846 0.5
645 33 0.565898 0.396926 0.5
658 36 0.591063 0.374847 0.5
949 34 0.597972 0.40972 0.5
593 25 0.624718 0.380549 0.5
94 25 0.655346 0.386885 0.5
21 31 0.636788 0.411814 0.5
674 28 0.66885 0.412111 0.5
421 34 0.687006 0.380023 0.5
730 32 0.700345 0.411233 0.5
309 34 0.721359 0.383935 0.5
478 29 0.735662 0.414093 0.5
892 23 0.750854 0.385994 0.5
157 32 0.769788 0.408583 0.5
383 35 0.780517 0.375578 0.5
176 33 0.816115 0.373317 0.5
887 33 0.802782 0.402975 0.5
156 25 0.834235 0.400642 0.5
136 37 0.853618 0.371982 0.5
44 33 0.882077 0.390749 0.5
727 36 0.862163 0.418392 0.5
418 34 0.898878 0.421335 0.5
264 31 0.913916 0.383028 0.5
557 37 0.982627 0.383549 0.5
544 28 0.947773 0.381681 0.5
980 28 0.932813 0.410223 0.5
553 32 0.967804 0.417122 0.5
375 30 0.0197117 0.440131 0.5
519 24 0.00981831 0.467951 0.5
545 38 0.0395229 0.477328 0.5
822 35 0.0534511 0.443506 0.5
632 30 0.0102667 0.498493 0.5
606 34 0.123413 0.431148 0.5
313 33 0.0917667 0.442678 0.5
188 31 0.0745175 0.471636 0.5
716 30 0.107278 0.469732 0.5
85 23 0.0646293 0.498449 0.5
480 26 0.127247 0.492417 0.5
586 42 0.144919 0.460351 0.5
764 37 0.177316 0.437278 0.5
959 27 0.182224 0.471912 0.5
288 35 0.158465 0.495445 0.5
792 31 0.211337 0.453458 0.5
8 25 0.237395 0.43724 0.5
541 33 0.239798 0.469874 0.5
532 28 0.213373 0.488217 0.5
686 30 0.265122 0.449942 0.5
179 31 0.271617 0.484893 0.5
720 28 0.295805 0.458256 0.5
423 34 0.304663 0.491225 0.5
815 30 0.327662 0.437054 0.5
687 33 0.331366 0.468855 0.5
668 23 0.354892 0.446554 0.5
116 23 0.381299 0.458903 0.5
965 29 0.360893 0.483633 0.5
427 31 0.40972 0.473011 0.5
693 29 0.411624 0.44169 0.5
550 25 0.387674 0.496952 0.5
175 43 0.474472 0.431749 0.5
616 30 0.443444 0.445816 0.5
506 37 0.441866 0.481161 0.5
786 38 0.477859 0.470574 0.5
765 24 0.465392 0.501227 0.5
357 36 0.507796 0.44661 0.5
384 42 0.517119 0.481786 0.5
740 34 0.542727 0.454803 0.5
65 31 0.553844 0.49001 0.5
201 34 0.569106 0.430919 0.5
126 32 0.576202 0.465008 0.5
348 27 0.606721 0.477055 0.5
504 39 0.608016 0.442974 0.5
549 30 0.584883 0.499776 0.5
587 36 0.651883 0.441776 0.5
70 28 0.671495 0.470942 0.5
431 31 0.636829 0.472051 0.5
318 35 0.688442 0.442975 0.5
619 32 0.702452 0.472539 0.5
9 28 0.721949 0.443874 0.5
1000 35 0.739532 0.472445 0.5
711 34 0.755728 0.441956 0.5
278 33 0.824383 0.430359 0.5
125 30 0.789763 0.438286 0.5
46 34 0.815489 0.463368 0.5
347 44 0.781985 0.472784 0.5
64 31 0.814783 0.497982 0.5
282 27 0.84287 0.485748 0.5
206 32 0.848935 0.453123 0.5
289 22 0.880461 0.445747 0.5
910 30 0.873751 0.476371 0.5
277 26 0.899067 0.498172 0.5
578 29 0.903743 0.464846 0.5
39 26 0.987351 0.442806 0.5
191 37 0.977045 0.474958 0.5
177 24 0.955788 0.449363 0.5
141 32 0.927479 0.443919 0.5
364 32 0.933336 0.478637 0.5
585 32 0.0094512 0.531167 0.5
142 31 0.00582434 0.56334 0.5
135 29 0.0378892 0.51469 0.5
725 38 0.0370975 0.548239 0.5
575 32 0.096515 0.502273 0.5
726 29 0.0666457 0.527547 0.5
869 32 0.0980645 0.540369 0.5
495 33 0.068931 0.56054 0.5
807 23 0.124576 0.52276 0.5
791 27 0.101322 0.571689 0.5
906 38 0.131784 0.559131 0.5
713 37 0.156951 0.530503 0.5
793 29 0.189575 0.508523 0.5
503 37 0.190137 0.54246 0.5
95 32 0.165594 0.566055 0.5
925 23 0.248355 0.503299 0.5
336 35 0.220088 0.520747 0.5
641 29 0.222645 0.553137 0.5
26 39 0.25409 0.534607 0.5
631 30 0.256813 0.570073 0.5
524 33 0.335796 0.503253 0.5
422 30 0.283221 0.516308 0.5
951 29 0.312604 0.526732 0.5
82 33 0.286947 0.549175 0.5
234 34 0.319351 0.560088 0.5
702 28 0.342071 0.534465 0.5
127 23 0.36542 0.515586 0.5
634 18 0.369824 0.544045 0.5
826 30 0.393298 0.527911 0.5
620 28 0.424056 0.5426 0.5
594 33 0.360088 0.570306 0.5
186 31 0.39229 0.561737 0.5
275 32 0.419477 0.506774 0.5
77 20 0.443995 0.52068 0.5
51 31 0.45195 0.555942 0.5
956 33 0.47141 0.530271 0.5
563 35 0.483864 0.565529 0.5
446 28 0.496341 0.509936 0.5
29 29 0.5044 0.540846 0.5
875 34 0.526496 0.516107 0.5
814 31 0.536923 0.54983 0.5
665 41 0.560597 0.524349 0.5
796 26 0.516005 0.571371 0.5
767 39 0.617993 0.507839 0.5
306 27 0.59294 0.534318 0.5
692 28 0.569632 0.557788 0.5
92 27 0.621352 0.542261 0.5
866 29 0.60046 0.565517 0.5
101 27 0.687264 0.500191 0.5
531 26 0.653753 0.495547 0.5
112 25 0.645372 0.524587 0.5
479 21 0.674806 0.526984 0.5
62 28 0.654279 0.552535 0.5
133 32 0.687472 0.555736 0.5
893 30 0.704283 0.528062 0.5
83 31 0.722064 0.501613 0.5
688 26 0.752802 0.503627 0.5
471 24 0.737095 0.528886 0.5
904 34 0.721802 0.557928 0.5
42 40 0.769557 0.540977 0.5
281 25 0.752213 0.569619 0.5
323 30 0.785345 0.508155 0.5
118 26 0.803983 0.530175 0.5
23 28 0.811056 0.558445 0.5
772 32 0.836067 0.529136 0.5
35 37 0.841799 0.563071 0.5
999 36 0.866533 0.510018 0.5
805 27 0.869697 0.544617 0.5
267 27 0.897876 0.56211 0.5
438 27 0.894035 0.529574 0.5
971 20 0.954606 0.49855 0.5
625 32 0.982113 0.511345 0.5
212 25 0.982329 0.543034 0.5
911 29 0.952597 0.527779 0.5
381 32 0.925602 0.510761 0.5
47 31 0.923653 0.544577 0.5
343 33 0.956259 0.558783 0.5
696 27 0.00786945 0.593821 0.5
338 29 0.0311051 0.615328 0.5
818 25 0.00905396 0.638492 0.5
790 32 0.0373177 0.584211 0.5
489 21 0.0590142 0.622799 0.5
918 39 0.0734928 0.594028 0.5
777 27 0.090246 0.624633 0.5
237 35 0.115406 0.60222 0.5
109 42 0.120155 0.639887 0.5
579 28 0.144366 0.589288 0.5
750 32 0.174997 0.601196 0.5
465 27 0.15059 0.618646 0.5
240 29 0.184485 0.633982 0.5
187 33 0.198442 0.579199 0.5
865 22 0.230365 0.582536 0.5
872 39 0.21282 0.612309 0.5
913 29 0.248102 0.639092 0.5
512 31 0.250645 0.606562 0.5
351 31 0.281215 0.620689 0.5
22 34 0.29092 0.585598 0.5
344 21 0.308461 0.610282 0.5
714 29 0.332342 0.592969 0.5
399 34 0.335496 0.627154 0.5
985 25 0.305754 0.641493 0.5
600 35 0.363451 0.605998 0.5
475 26 0.393813 0.592473 0.5
111 28 0.395144 0.626913 0.5
129 36 0.364472 0.643245 0.5
300 36 0.422814 0.579882 0.5
40 39 0.428409 0.615254 0.5
287 35 0.456832 0.590508 0.5
640 37 0.464494 0.625938 0.5
722 33 0.489274 0.60065 0.5
732 28 0.547842 0.582065 0.5
108 33 0.524559 0.604343 0.5
470 29 0.501939 0.631844 0.5
543 33 0.5353 0.637955 0.5
958 23 0.557612 0.61142 0.5
928 33 0.632933 0.574628 0.5
394 29 0.577803 0.588479 0.5
406 30 0.587101 0.618823 0.5
128 31 0.610584 0.597077 0.5
404 31 0.618566 0.62916 0.5
20 35 0.66828 0.584156 0.5
454 32 0.644846 0.608465 0.5
595 35 0.678915 0.619492 0.5
864 25 0.700374 0.58398 0.5
908 21 0.709408 0.609941 0.5
870 30 0.648414 0.641275 0.5
771 25 0.730424 0.589541 0.5
432 29 0.737139 0.619026 0.5
850 23 0.759491 0.600307 0.5
981 30 0.765719 0.629822 0.5
297 30 0.706755 0.638884 0.5
691 38 0.782943 0.578933 0.5
760 26 0.815609 0.587634 0.5
110 30 0.795724 0.612315 0.5
867 37 0.830029 0.626655 0.5
119 29 0.84459 0.599044 0.5
590 25 0.870704 0.579833 0.5
633 30 0.867911 0.616322 0.5
295 33 0.896332 0.59703 0.5
968 38 0.897445 0.633666 0.5
294 29 0.978469 0.583169 0.5
533 35 0.927221 0.579788 0.5
784 28 0.985365 0.615436 0.5
974 26 0.953876 0.600433 0.5
271 30 0.925949 0.614721 0.5
341 25 0.957206 0.629251 0.5
861 35 0.00757068 0.672018 0.5
868 38 0.0392071 0.651196 0.5
98 35 0.0375836 0.688749 0.5
269 32 0.00618265 0.706181 0.5
613 27 0.0657365 0.672963 0.5
231 32 0.0692523 0.707612 0.5
853 20 0.0718373 0.646849 0.5
695 21 0.0932195 0.659434 0.5
601 31 0.097404 0.687878 0.5
801 26 0.128425 0.672777 0.5
146 25 0.127471 0.702982 0.5
398 38 0.155885 0.653546 0.5
675 27 0.157507 0.685759 0.5
946 30 0.185677 0.70082 0.5
680 29 0.185607 0.668075 0.5
833 33 0.215532 0.647903 0.5
748 35 0.241464 0.670901 0.5
145 25 0.212539 0.685471 0.5
854 28 0.238933 0.705 0.5
883 35 0.270088 0.688477 0.5
154 28 0.274539 0.655225 0.5
447 37 0.304774 0.674694 0.5
460 34 0.301642 0.708606 0.5
1 26 0.332744 0.69154 0.5
907 27 0.33467 0.66028 0.5
576 33 0.363187 0.679331 0.5
410 40 0.394391 0.667538 0.5
739 42 0.396448 0.705084 0.5
284 35 0.357515 0.712687 0.5
804 29 0.421029 0.647763 0.5
417 25 0.426006 0.679653 0.5
266 35 0.455044 0.662116 0.5
32 22 0.451307 0.691468 0.5
942 25 0.484862 0.656898 0.5
948 36 0.486026 0.689313 0.5
667 27 0.431269 0.711106 0.5
758 22 0.56641 0.639201 0.5
152 34 0.514743 0.66353 0.5
412 29 0.52853 0.694838 0.5
79 37 0.552482 0.670467 0.5
371 29 0.563699 0.704173 0.5
560 29 0.593386 0.655451 0.5
602 25 0.587531 0.687051 0.5
11 37 0.619 0.693597 0.5
840 26 0.622044 0.6612 0.5
321 31 0.649962 0.677122 0.5
324 38 0.677462 0.656961 0.5
810 31 0.68248 0.693116 0.5
932 27 0.652581 0.708084 0.5
820 29 0.711877 0.672158 0.5
573 30 0.738081 0.650584 0.5
354 34 0.742832 0.684259 0.5
163 26 0.710091 0.703204 0.5
49 27 0.769241 0.666295 0.5
899 23 0.776135 0.698845 0.5
43 35 0.79711 0.645957 0.5
678 30 0.797891 0.680183 0.5
997 34 0.827569 0.660881 0.5
599 33 0.828492 0.694073 0.5
322 23 0.803866 0.710123 0.5
137 33 0.857147 0.645923 0.5
584 25 0.85603 0.680167 0.5
778 24 0.881597 0.665029 0.5
319 29 0.888246 0.695736 0.5
474 28 0.911189 0.666455 0.5
878 32 0.919933 0.697616 0.5
654 25 0.862364 0.70969 0.5
862 25 0.931979 0.645335 0.5
960 40 0.978422 0.653396 0.5
546 32 0.976834 0.689797 0.5
683 34 0.945769 0.675689 0.5
435 23 0.952851 0.709875 0.5
539 31 0.0353231 0.723271 0.5
876 31 0.00599365 0.737609 0.5
450 24 0.0342439 0.753536 0.5
477 31 0.00697962 0.770346 0.5
261 38 0.0631057 0.772717 0.5
630 32 0.0659821 0.738566 0.5
60 27 0.100729 0.72021 0.5
359 34 0.0946521 0.754348 0.5
149 27 0.124094 0.738104 0.5
190 39 0.125541 0.772648 0.5
789 28 0.156342 0.717348 0.5
827 40 0.156972 0.752667 0.5
441 30 0.184679 0.731964 0.5
19 28 0.183489 0.772046 0.5
684 25 0.212293 0.717082 0.5
401 25 0.23743 0.734877 0.5
204 34 0.211244 0.755203 0.5
7 35 0.240155 0.77047 0.5
342 39 0.267637 0.722774 0.5
567 29 0.269124 0.758429 0.5
610 30 0.297009 0.74076 0.5
320 33 0.326031 0.759545 0.5
552 30 0.295329 0.775924 0.5
721 27 0.329041 0.725955 0.5
10 29 0.355231 0.746521 0.5
954 24 0.383535 0.734765 0.5
151 37 0.386408 0.768677 0.5
226 31 0.351713 0.78015 0.5
220 30 0.413963 0.736243 0.5
572 34 0.466739 0.716659 0.5
99 25 0.443651 0.73949 0.5
235 35 0.42409 0.76826 0.5
53 35 0.45818 0.769565 0.5
639 22 0.479221 0.748655 0.5
304 28 0.491408 0.77728 0.5
286 31 0.501425 0.719871 0.5
13 31 0.51204 0.753337 0.5
386 36 0.53673 0.726742 0.5
388 26 0.542538 0.759643 0.5
507 29 0.523248 0.78302 0.5
45 28 0.595511 0.717479 0.5
117 31 0.569215 0.738249 0.5
246 33 0.599393 0.750903 0.5
547 33 0.574299 0.772259 0.5
198 35 0.627842 0.728737 0.5
25 33 0.632692 0.760996 0.5
335 34 0.659517 0.741852 0.5
184 27 0.685206 0.7255 0.5
915 27 0.689301 0.756676 0.5
526 30 0.663991 0.776211 0.5
816 32 0.74416 0.71821 0.5
486 37 0.715543 0.73862 0.5
411 31 0.747614 0.75149 0.5
755 25 0.724369 0.770823 0.5
311 28 0.774646 0.729593 0.5
123 18 0.776257 0.757144 0.5
185 36 0.760873 0.784197 0.5
522 35 0.805035 0.742476 0.5
570 34 0.796832 0.776927 0.5
496 30 0.837079 0.726623 0.5
195 37 0.83244 0.763102 0.5
147 30 0.862919 0.744848 0.5
93 42 0.897066 0.730088 0.5
50 32 0.887792 0.768073 0.5
774 33 0.922913 0.758021 0.5
605 24 0.929548 0.726773 0.5
916 25 0.977042 0.72307 0.5
285 30 0.979051 0.756453 0.5
842 28 0.954019 0.739469 0.5
839 27 0.952927 0.772574 0.5
643 28 0.0329088 0.788355 0.5
992 37 0.00387749 0.809719 0.5
238 25 0.0400863 0.817451 0.5
328 23 -0.00195313 0.841895 0.5
236 41 0.0327303 0.851007 0.5
131 28 0.0665796 0.805877 0.5
134 34 0.0647824 0.837554 0.5
459 36 0.0954862 0.789644 0.5
224 30 0.0965056 0.823672 0.5
433 25 0.123047 0.841489 0.5
972 29 0.124443 0.810823 0.5
207 31 0.154978 0.790354 0.5
947 34 0.155805 0.823088 0.5
514 25 0.184578 0.804843 0.5
67 30 0.183264 0.839726 0.5
830 29 0.212297 0.788904 0.5
718 20 0.269578 0.788835 0.5
747 24 0.237044 0.803507 0.5
213 32 0.21379 0.824142 0.5
970 22 0.238358 0.842079 0.5
316 38 0.266089 0.819349 0.5
48 25 0.321656 0.792557 0.5
624 24 0.296314 0.806723 0.5
247 24 0.318907 0.822082 0.5
472 27 0.295974 0.838951 0.5
352 27 0.347599 0.81184 0.5
194 31 0.40502 0.798368 0.5
449 26 0.375622 0.802121 0.5
717 30 0.389593 0.830045 0.5
909 28 0.359032 0.840177 0.5
525 26 0.41958 0.827027 0.5
15 33 0.438403 0.799909 0.5
437 32 0.451655 0.829853 0.5
554 29 0.471932 0.803047 0.5
890 33 0.484432 0.835162 0.5
978 23 0.54919 0.790909 0.5
395 28 0.504925 0.809362 0.5
78 20 0.518507 0.842257 0.5
937 32 0.535688 0.817124 0.5
494 23 0.545853 0.84679 0.5
69 35 0.606725 0.784542 0.5
362 32 0.576734 0.803999 0.5
638 47 0.60937 0.824733 0.5
122 30 0.573406 0.83596 0.5
209 26 0.637913 0.851413 0.5
337 29 0.69519 0.788443 0.5
292 28 0.6378 0.794903 0.5
800 23 0.64321 0.822758 0.5
481 30 0.668265 0.807095 0.5
3 33 0.668136 0.841353 0.5
527 28 0.697722 0.822419 0.5
30 32 0.7266 0.802499 0.5
327 31 0.727594 0.835987 0.5
945 35 0.757166 0.821253 0.5
484 34 0.790024 0.811568 0.5
276 35 0.820311 0.83204 0.5
843 34 0.790446 0.847364 0.5
56 27 0.824275 0.799871 0.5
759 36 0.849711 0.850699 0.5
635 23 0.860627 0.78185 0.5
392 30 0.915405 0.788463 0.5
975 27 0.851491 0.81731 0.5
254 33 0.884555 0.804953 0.5
501 34 0.882272 0.837746 0.5
463 26 0.91256 0.822361 0.5
612 27 0.91225 0.858423 0.5
248 25 0.977589 0.790723 0.5
183 28 0.974367 0.82477 0.5
88 41 0.946254 0.804712 0.5
757 39 0.940788 0.842212 0.5
396 31 0.00262778 0.871642 0.5
697 36 0.0332205 0.888731 0.5
258 38 0.00133059 0.905591 0.5
644 30 0.030168 0.921771 0.5
828 29 0.0640916 0.869092 0.5
436 31 0.0636974 0.903994 0.5
113 35 0.0952961 0.857048 0.5
931 30 0.0925284 0.890146 0.5
367 28 0.121437 0.909481 0.5
38 29 0.123784 0.877359 0.5
891 33 0.0933021 0.923445 0.5
724 40 0.153221 0.857419 0.5
642 31 0.151985 0.892996 0.5
873 32 0.181816 0.910588 0.5
647 30 0.182371 0.874208 0.5
160 29 0.26589 0.853562 0.5
315 28 0.209594 0.857957 0.5
74 35 0.239108 0.8734 0.5
889 28 0.211134 0.890987 0.5
811 26 0.238501 0.909619 0.5
205 27 0.264803 0.892105 0.5
518 30 0.211201 0.925015 0.5
193 28 0.270451 0.924566 0.5
627 33 0.32689 0.851825 0.5
419 33 0.294847 0.873915 0.5
731 35 0.299197 0.908063 0.5
197 29 0.325143 0.885893 0.5
387 29 0.329549 0.916915 0.5
989 34 0.391237 0.862964 0.5
257 33 0.358374 0.873289 0.5
86 30 0.389579 0.895642 0.5
903 31 0.359262 0.905452 0.5
523 22 0.41522 0.882431 0.5
657 25 0.416817 0.914327 0.5
984 32 0.429107 0.856573 0.5
148 34 0.460775 0.863729 0.5
391 25 0.440836 0.889494 0.5
863 26 0.447484 0.919505 0.5
650 29 0.473842 0.893068 0.5
5 33 0.484172 0.923681 0.5
825 36 0.494544 0.866914 0.5
253 29 0.528948 0.869686 0.5
808 26 0.505462 0.898435 0.5
467 31 0.538484 0.900095 0.5
844 33 0.518932 0.928317 0.5
370 37 0.566059 0.871649 0.5
773 21 0.566916 0.906253 0.5
735 28 0.59719 0.858605 0.5
150 38 0.596389 0.895096 0.5
230 31 0.628035 0.880641 0.5
59 23 0.620179 0.919272 0.5
268 43 0.697028 0.862253 0.5
562 37 0.660791 0.875537 0.5
741 34 0.648062 0.907367 0.5
482 29 0.684802 0.897006 0.5
415 24 0.759533 0.856467 0.5
858 33 0.719196 0.894586 0.5
681 24 0.732835 0.866924 0.5
173 30 0.756152 0.887356 0.5
243 33 0.777464 0.908276 0.5
52 37 0.742117 0.919573 0.5
719 23 0.787308 0.879171 0.5
302 26 0.808467 0.898143 0.5
334 33 0.817856 0.865113 0.5
299 25 0.826924 0.920979 0.5
669 40 0.84261 0.890656 0.5
880 40 0.877586 0.873707 0.5
158 35 0.884164 0.909111 0.5
969 29 0.912704 0.889879 0.5
520 31 0.914522 0.924379 0.5
515 29 0.97335 0.858026 0.5
924 26 0.971109 0.888558 0.5
223 19 0.942625 0.875122 0.5
200 34 0.943622 0.905822 0.5
76 26 0.972464 0.920917 0.5
89 30 0.058349 0.934133 0.5
943 44 0.0334325 0.987926 0.5
143 30 -0.000508371 0.97151 0.5
502 25 -0.00133368 0.940083 0.5
219 28 0.0290555 0.951869 0.5
75 21 0.0560822 0.965758 0.5
663 33 0.0737195 0.989306 0.5
379 27 0.103888 0.980403 0.5
528 33 0.0864072 0.957447 0.5
710 37 0.11916 0.94769 0.5
350 16 0.129608 0.977356 0.5
987 35 0.150907 0.929115 0.5
33 30 0.152629 0.994534 0.5
262 32 0.152233 0.962307 0.5
505 33 0.181301 0.945005 0.5
510 35 0.184798 0.977692 0.5
455 31 0.258246 0.996321 0.5
468 27 0.240951 0.938449 0.5
462 29 0.243532 0.967636 0.5
490 32 0.212927 0.956936 0.5
439 28 0.27205 0.95442 0.5
617 33 0.289087 0.982059 0.5
775 33 0.322327 0.975203 0.5
852 34 0.303506 0.942838 0.5
172 21 0.334199 0.947017 0.5
291 27 0.389947 0.927302 0.5
461 32 0.378075 0.995145 0.5
180 33 0.355345 0.968828 0.5
565 27 0.360199 0.937035 0.5
61 32 0.387013 0.958456 0.5
339 36 0.410518 0.985426 0.5
921 37 0.422334 0.949783 0.5
738 32 0.444145 0.979912 0.5
884 36 0.459992 0.948285 0.5
390 32 0.477397 0.979771 0.5
256 33 0.497415 0.954645 0.5
993 30 0.55292 0.932312 0.5
58 27 0.542407 0.990987 0.5
898 28 0.512158 0.984491 0.5
444 33 0.532852 0.959608 0.5
107 29 0.566349 0.962864 0.5
817 36 0.586732 0.931735 0.5
835 33 0.575263 0.994295 0.5
178 23 0.59629 0.965557 0.5
604 22 0.615308 0.944749 0.5
708 26 0.626623 0.973531 0.5
159 34 0.672093 0.929814 0.5
537 27 0.656225 0.976425 0.5
355 31 0.644084 0.946486 0.5
453 25 0.682668 0.959123 0.5
373 35 0.690106 0.989802 0.5
192 36 0.706761 0.928915 0.5
990 40 0.732898 0.992701 0.5
782 28 0.713609 0.961868 0.5
499 19 0.744167 0.949976 0.5
153 37 0.768602 0.97415 0.5
591 26 0.768503 0.939953 0.5
55 28 0.800244 0.929312 0.5
561 32 0.797738 0.993371 0.5
836 29 0.799303 0.961019 0.5
746 24 0.828209 0.978961 0.5
221 23 0.832124 0.949555 0.5
314 31 0.8565 0.926949 0.5
749 28 0.856734 0.99169 0.5
676 31 0.884124 0.97692 0.5
340 22 0.856769 0.960381 0.5
689 30 0.883802 0.943616 0.5
397 33 0.913953 0.994147 0.5
955 28 0.914018 0.959923 0.5
703 30 0.968994 0.991227 0.5
558 31 0.970567 0.954783 0.5
780 29 0.94181 0.976001 0.5
588 26 0.942066 0.936886 0.5
