ITEM: TIMESTEP
1750000
ITEM: NUMBER OF ATOMS
1000
ITEM: BOX BOUNDS pp pp pp
-1.5066572000000001e+01 1.5066572000000001e+01
-1.5066572000000001e+01 1.5066572000000001e+01
-5.0000000000000000e-01 5.0000000000000000e-01
ITEM: ATOMS id type xs ys zs
703 30 0.0308551 0.0209223 0.5
272 36 0.0582406 0.03884 0.5
895 29 0.0261747 0.0553077 0.5
583 24 -0.000159356 0.0398042 0.5
143 30 0.0582609 0.00377221 0.5
780 29 0.00169371 0.00892953 0.5
943 44 0.0916208 0.0230554 0.5
656 21 0.117812 0.0482632 0.5
393 38 0.0902502 0.061955 0.5
663 33 0.132903 0.0229583 0.5
379 27 0.162522 0.0163205 0.5
846 34 0.182267 0.0431366 0.5
298 38 0.149664 0.0593567 0.5
33 30 0.212607 0.0307998 0.5
685 30 0.242467 0.0459119 0.5
249 34 0.211378 0.062894 0.5
350 16 0.188152 0.0117252 0.5
510 35 0.240314 0.0116896 0.5
466 42 0.275222 0.0323992 0.5
498 29 0.304719 0.0628348 0.5
455 31 0.310727 0.0316432 0.5
617 33 0.341717 0.0191003 0.5
743 32 0.365628 0.0444541 0.5
673 27 0.333612 0.053708 0.5
706 32 0.399208 0.0382168 0.5
451 33 0.423785 0.0614601 0.5
775 33 0.376726 0.0121515 0.5
180 33 0.410928 0.00703486 0.5
461 32 0.435855 0.029699 0.5
339 36 0.469842 0.0187195 0.5
623 36 0.495457 0.0463678 0.5
255 29 0.45898 0.0524298 0.5
738 32 0.504782 0.0125783 0.5
390 32 0.539297 0.0120063 0.5
189 13 0.551629 0.037265 0.5
535 25 0.526143 0.0403617 0.5
898 28 0.570888 0.0159446 0.5
58 27 0.60116 0.0208044 0.5
493 25 0.577684 0.0448409 0.5
629 25 0.605959 0.0509892 0.5
835 33 0.632761 0.0233126 0.5
763 34 0.667988 0.031929 0.5
957 36 0.639066 0.0578504 0.5
178 23 0.655514 -0.00159259 0.5
537 27 0.722777 0.00947488 0.5
798 34 0.704632 0.0387951 0.5
598 34 0.738573 0.0514857 0.5
708 26 0.689259 0.0064032 0.5
373 35 0.756106 0.0193936 0.5
990 40 0.794939 0.0251332 0.5
102 22 0.768699 0.0487299 0.5
782 28 0.780441 -0.00495943 0.5
561 32 0.861941 0.0241059 0.5
214 34 0.829125 0.0417686 0.5
153 37 0.827759 0.00657979 0.5
749 28 0.918304 0.0264701 0.5
746 24 0.88939 0.00969615 0.5
270 31 0.889433 0.0414495 0.5
580 27 0.946233 0.0453282 0.5
397 33 0.970344 0.0241464 0.5
420 34 0.976628 0.0604193 0.5
676 31 0.941226 0.00574266 0.5
308 26 0.0301631 0.0954704 0.5
733 37 0.0542817 0.0748553 0.5
622 28 0.00463985 0.0770092 0.5
229 32 0.00342854 0.113284 0.5
378 31 0.058358 0.113321 0.5
483 28 0.0890117 0.0941525 0.5
813 30 0.179347 0.0785535 0.5
905 30 0.119138 0.0787629 0.5
242 35 0.119324 0.112095 0.5
700 26 0.146228 0.0937031 0.5
886 28 0.172345 0.10959 0.5
115 23 0.14806 0.126282 0.5
513 27 0.206395 0.0942331 0.5
380 38 0.241052 0.0808674 0.5
516 40 0.234811 0.119233 0.5
161 27 0.27169 0.065667 0.5
894 27 0.289246 0.089485 0.5
596 27 0.264683 0.105109 0.5
66 31 0.308396 0.118828 0.5
215 28 0.322398 0.0864099 0.5
81 27 0.354078 0.0794024 0.5
442 35 0.342302 0.112597 0.5
941 29 0.388451 0.0710484 0.5
517 36 0.377956 0.10482 0.5
670 34 0.410696 0.0941119 0.5
559 33 0.436731 0.121206 0.5
659 35 0.446302 0.0883101 0.5
374 35 0.480246 0.0781726 0.5
473 31 0.47139 0.111996 0.5
71 34 0.548195 0.0657791 0.5
577 36 0.505252 0.10442 0.5
330 27 0.514397 0.0722648 0.5
218 23 0.536142 0.0943173 0.5
896 29 0.566436 0.0996985 0.5
769 29 0.582211 0.0735272 0.5
222 33 0.614525 0.0846372 0.5
831 29 0.59327 0.113062 0.5
682 36 0.677456 0.0659582 0.5
492 39 0.626695 0.118107 0.5
430 33 0.650845 0.09045 0.5
445 35 0.682992 0.1015 0.5
979 35 0.711637 0.0729947 0.5
551 30 0.743974 0.0862759 0.5
16 32 0.715228 0.109225 0.5
250 30 0.802784 0.061267 0.5
961 30 0.77351 0.0765121 0.5
930 26 0.80192 0.0924091 0.5
986 28 0.777516 0.108201 0.5
103 33 0.85967 0.0578507 0.5
982 32 0.830939 0.0768854 0.5
877 29 0.860667 0.0903039 0.5
301 36 0.831762 0.112381 0.5
332 27 0.919335 0.0581173 0.5
742 31 0.887514 0.0755927 0.5
241 33 0.915985 0.0919278 0.5
211 19 0.888993 0.104463 0.5
569 33 0.946888 0.0765096 0.5
408 28 0.946966 0.108908 0.5
356 25 0.973513 0.095581 0.5
63 29 0.0307251 0.134282 0.5
919 24 0.0337216 0.166178 0.5
922 36 0.00424976 0.178871 0.5
34 31 0.000714548 0.146274 0.5
164 33 0.0871939 0.129481 0.5
768 31 0.0589719 0.149206 0.5
310 33 0.0620301 0.181614 0.5
68 31 0.0926724 0.163058 0.5
712 29 0.120633 0.184792 0.5
857 39 0.125234 0.148325 0.5
538 34 0.171166 0.148046 0.5
938 23 0.150776 0.170813 0.5
97 23 0.173073 0.184533 0.5
279 32 0.197272 0.129727 0.5
936 25 0.19724 0.165479 0.5
37 29 0.222218 0.152605 0.5
245 22 0.232894 0.179906 0.5
290 31 0.275338 0.133647 0.5
87 28 0.253676 0.156739 0.5
694 31 0.282008 0.174586 0.5
648 25 0.300288 0.150712 0.5
927 32 0.366884 0.139212 0.5
252 35 0.317353 0.181027 0.5
469 36 0.333906 0.145979 0.5
939 37 0.354393 0.175184 0.5
819 30 0.403929 0.126821 0.5
487 30 0.39031 0.159973 0.5
511 38 0.424941 0.15517 0.5
488 26 0.415385 0.184848 0.5
280 38 0.448629 0.180944 0.5
847 37 0.459847 0.14619 0.5
227 32 0.499082 0.14004 0.5
181 32 0.482267 0.172007 0.5
860 30 0.529666 0.126369 0.5
274 27 0.545335 0.153307 0.5
203 39 0.518818 0.174111 0.5
14 28 0.565146 0.128217 0.5
996 26 0.603956 0.142039 0.5
649 35 0.576343 0.161619 0.5
414 34 0.610674 0.171931 0.5
366 29 0.660497 0.127051 0.5
509 27 0.634952 0.150526 0.5
934 25 0.664686 0.158753 0.5
699 23 0.641208 0.178029 0.5
824 31 0.690952 0.136826 0.5
464 30 0.697188 0.170001 0.5
704 34 0.723972 0.143879 0.5
609 30 0.747065 0.118601 0.5
358 28 0.801268 0.127568 0.5
31 23 0.747904 0.16283 0.5
912 38 0.771174 0.141063 0.5
425 32 0.798041 0.16058 0.5
360 17 0.771862 0.170771 0.5
926 34 0.866284 0.123083 0.5
752 26 0.825733 0.14424 0.5
744 33 0.854929 0.158201 0.5
208 32 0.825755 0.178403 0.5
182 33 0.911041 0.126414 0.5
106 20 0.885484 0.147339 0.5
660 28 0.914879 0.160763 0.5
312 38 0.883764 0.180652 0.5
737 34 0.97128 0.128755 0.5
139 29 0.941092 0.14257 0.5
138 31 0.940028 0.181913 0.5
940 27 0.971357 0.161441 0.5
653 24 0.0313381 0.199106 0.5
838 23 0.0052176 0.21009 0.5
456 31 0.032531 0.228701 0.5
859 39 0.00195487 0.242812 0.5
210 28 0.089241 0.198499 0.5
855 31 0.0625904 0.216167 0.5
416 34 0.0592972 0.2481 0.5
998 31 0.117891 0.217381 0.5
589 24 0.0890588 0.231685 0.5
705 29 0.147188 0.200644 0.5
155 30 0.176 0.216169 0.5
766 29 0.148129 0.231721 0.5
448 32 0.202985 0.194482 0.5
80 29 0.234092 0.209075 0.5
170 33 0.206461 0.22732 0.5
851 31 0.236431 0.241646 0.5
976 22 0.258883 0.194044 0.5
168 37 0.288913 0.207498 0.5
881 27 0.261092 0.224341 0.5
28 27 0.289461 0.24003 0.5
756 28 0.316986 0.224317 0.5
260 28 0.341854 0.206074 0.5
130 28 0.36859 0.21695 0.5
809 27 0.343087 0.236022 0.5
762 33 0.385425 0.191432 0.5
124 28 0.373833 0.247574 0.5
389 39 0.400499 0.224533 0.5
597 24 0.43081 0.20828 0.5
167 27 0.432359 0.239534 0.5
457 37 0.469001 0.209328 0.5
385 32 0.464357 0.246242 0.5
536 28 0.551334 0.184867 0.5
823 28 0.49346 0.232017 0.5
564 27 0.501372 0.203405 0.5
169 21 0.529612 0.206775 0.5
114 26 0.5568 0.215112 0.5
409 30 0.524405 0.234741 0.5
991 33 0.583249 0.196894 0.5
900 25 0.60983 0.208354 0.5
845 27 0.586993 0.229267 0.5
671 25 0.619087 0.237301 0.5
950 32 0.670423 0.189127 0.5
440 39 0.644193 0.212351 0.5
795 35 0.677442 0.224651 0.5
73 31 0.65158 0.247087 0.5
305 29 0.725576 0.183937 0.5
104 25 0.701847 0.203328 0.5
57 32 0.734275 0.216658 0.5
788 33 0.707999 0.235803 0.5
582 28 0.756036 0.192001 0.5
317 37 0.790004 0.194205 0.5
715 23 0.765196 0.220179 0.5
307 32 0.792915 0.230132 0.5
521 32 0.854763 0.19601 0.5
994 28 0.822005 0.210589 0.5
799 27 0.854839 0.230402 0.5
603 29 0.912485 0.20202 0.5
655 29 0.883225 0.215836 0.5
797 31 0.913096 0.235523 0.5
382 37 0.942937 0.217099 0.5
677 39 0.974412 0.200767 0.5
363 25 0.968688 0.237167 0.5
346 29 0.029799 0.26345 0.5
615 28 0.0346853 0.293245 0.5
6 15 0.00994059 0.303333 0.5
165 22 0.000706233 0.27845 0.5
24 29 0.120098 0.247661 0.5
933 29 0.0625547 0.280964 0.5
923 33 0.0910516 0.264381 0.5
614 29 0.119743 0.28005 0.5
54 29 0.093033 0.297684 0.5
964 33 0.177465 0.249237 0.5
920 29 0.147813 0.265323 0.5
171 34 0.174192 0.28492 0.5
751 24 0.145808 0.296732 0.5
2 28 0.206938 0.260487 0.5
770 41 0.237881 0.277341 0.5
849 35 0.20645 0.296533 0.5
995 25 0.265716 0.257131 0.5
162 32 0.291856 0.274933 0.5
429 27 0.266043 0.296282 0.5
293 35 0.295756 0.309135 0.5
848 28 0.318964 0.256339 0.5
837 33 0.324687 0.290436 0.5
802 35 0.352368 0.269399 0.5
18 41 0.358654 0.305884 0.5
273 28 0.407566 0.258811 0.5
754 31 0.384558 0.279701 0.5
966 25 0.416838 0.290849 0.5
953 29 0.43992 0.267711 0.5
917 39 0.450106 0.303309 0.5
239 35 0.477491 0.281106 0.5
592 25 0.50204 0.258886 0.5
841 31 0.51073 0.293243 0.5
144 34 0.530853 0.268821 0.5
403 25 0.539493 0.305328 0.5
626 35 0.558321 0.246128 0.5
368 33 0.564041 0.282514 0.5
871 28 0.593109 0.257819 0.5
372 27 0.594514 0.290277 0.5
90 39 0.625493 0.270973 0.5
263 29 0.658375 0.281659 0.5
452 33 0.684421 0.260537 0.5
607 37 0.631031 0.307479 0.5
174 31 0.738057 0.250426 0.5
121 32 0.691028 0.296674 0.5
963 27 0.715619 0.270459 0.5
413 26 0.767485 0.248586 0.5
571 43 0.756148 0.281104 0.5
508 28 0.792973 0.264972 0.5
666 32 0.787745 0.299129 0.5
779 37 0.823686 0.246058 0.5
265 41 0.819676 0.282943 0.5
568 31 0.851885 0.264454 0.5
485 34 0.848936 0.301287 0.5
952 34 0.883148 0.25085 0.5
530 29 0.878671 0.28385 0.5
879 33 0.909284 0.272942 0.5
821 26 0.903562 0.301923 0.5
745 35 0.940771 0.255276 0.5
365 27 0.975672 0.266659 0.5
661 30 0.97955 0.298644 0.5
540 35 0.945281 0.289964 0.5
377 27 0.0292827 0.323836 0.5
12 34 0.0413118 0.354643 0.5
100 33 0.00775892 0.357569 0.5
202 38 0.0637243 0.315536 0.5
244 29 0.121725 0.315655 0.5
574 22 0.0700844 0.348827 0.5
806 27 0.0956297 0.332441 0.5
345 32 0.0976404 0.365205 0.5
698 21 0.182098 0.315565 0.5
776 31 0.126636 0.347244 0.5
369 35 0.154762 0.328419 0.5
672 31 0.183277 0.34724 0.5
548 36 0.155909 0.366265 0.5
897 31 0.238069 0.315229 0.5
662 32 0.210901 0.333167 0.5
555 30 0.242408 0.345432 0.5
723 29 0.218614 0.36986 0.5
407 26 0.268227 0.32662 0.5
636 22 0.297947 0.342249 0.5
812 27 0.270683 0.355309 0.5
216 41 0.309934 0.371613 0.5
376 40 0.329834 0.331404 0.5
628 31 0.368048 0.341476 0.5
785 33 0.344027 0.364054 0.5
856 28 0.391491 0.315274 0.5
405 29 0.42141 0.322088 0.5
534 33 0.399317 0.346083 0.5
621 27 0.433701 0.350297 0.5
882 36 0.37885 0.373079 0.5
608 29 0.484769 0.312567 0.5
690 26 0.458736 0.335414 0.5
664 32 0.489772 0.348212 0.5
728 34 0.462921 0.368617 0.5
400 34 0.514021 0.326562 0.5
325 32 0.545649 0.335457 0.5
935 25 0.524585 0.36195 0.5
232 27 0.554721 0.368638 0.5
491 30 0.569453 0.313342 0.5
701 37 0.579729 0.346438 0.5
72 26 0.602596 0.324342 0.5
361 33 0.612901 0.353817 0.5
646 28 0.665891 0.315031 0.5
914 25 0.643589 0.33711 0.5
794 31 0.673907 0.345277 0.5
333 30 0.644663 0.367416 0.5
874 37 0.726659 0.305639 0.5
424 23 0.700026 0.328156 0.5
497 32 0.728567 0.340537 0.5
434 24 0.701866 0.357162 0.5
426 23 0.757635 0.317072 0.5
761 29 0.816752 0.318319 0.5
4 33 0.761015 0.347199 0.5
944 29 0.789248 0.331253 0.5
476 22 0.789704 0.360349 0.5
566 31 0.818081 0.351056 0.5
329 34 0.846643 0.334474 0.5
832 41 0.844547 0.373802 0.5
91 25 0.875637 0.348672 0.5
443 28 0.877255 0.31803 0.5
17 27 0.929631 0.3181 0.5
529 28 0.902435 0.336074 0.5
988 19 0.876088 0.377558 0.5
166 30 0.937612 0.348883 0.5
217 32 0.961165 0.325267 0.5
27 33 0.994154 0.327408 0.5
225 34 0.971217 0.356384 0.5
283 36 0.0289139 0.386842 0.5
557 37 0.0346186 0.423707 0.5
544 28 0.00554111 0.408023 0.5
652 41 0.0647166 0.383758 0.5
829 25 0.0699057 0.419196 0.5
611 36 0.0988132 0.40413 0.5
901 37 0.0961526 0.43954 0.5
803 31 0.126983 0.382498 0.5
618 35 0.133196 0.415773 0.5
962 46 0.169284 0.40471 0.5
729 23 0.189449 0.375771 0.5
967 24 0.247647 0.375254 0.5
233 27 0.189988 0.432117 0.5
326 43 0.210399 0.404913 0.5
736 26 0.247652 0.404714 0.5
199 36 0.278731 0.389656 0.5
542 32 0.305313 0.416277 0.5
196 31 0.271179 0.423862 0.5
783 26 0.332237 0.398097 0.5
120 30 0.362991 0.403515 0.5
787 27 0.343682 0.427451 0.5
458 36 0.37411 0.437523 0.5
885 25 0.411283 0.375514 0.5
707 45 0.400691 0.407594 0.5
303 28 0.43642 0.39234 0.5
556 29 0.497304 0.379735 0.5
140 30 0.437064 0.422608 0.5
36 37 0.471833 0.401968 0.5
651 24 0.501838 0.408694 0.5
331 26 0.530609 0.393483 0.5
753 32 0.560816 0.402989 0.5
228 27 0.534597 0.42429 0.5
888 28 0.582515 0.381061 0.5
977 35 0.592519 0.415329 0.5
734 32 0.616824 0.38881 0.5
581 23 0.678838 0.376322 0.5
645 33 0.626894 0.423968 0.5
658 36 0.65165 0.398549 0.5
637 28 0.734721 0.372039 0.5
593 25 0.686 0.411392 0.5
296 30 0.706838 0.38669 0.5
421 34 0.744101 0.4059 0.5
94 25 0.714141 0.415898 0.5
251 32 0.768955 0.380347 0.5
402 37 0.807267 0.386544 0.5
309 34 0.777749 0.413606 0.5
892 23 0.808303 0.415379 0.5
383 35 0.839709 0.410672 0.5
887 33 0.860134 0.438653 0.5
500 41 0.906728 0.370339 0.5
176 33 0.874518 0.405165 0.5
136 37 0.914749 0.405563 0.5
156 25 0.889963 0.430847 0.5
679 42 0.947199 0.384875 0.5
353 29 0.986602 0.384401 0.5
264 31 0.974128 0.415003 0.5
553 32 0.0262202 0.457382 0.5
39 26 0.0509515 0.478782 0.5
177 24 0.0215606 0.487305 0.5
141 32 -0.00498446 0.471476 0.5
41 31 0.0610729 0.447671 0.5
375 30 0.081703 0.471766 0.5
822 35 0.114 0.479565 0.5
983 32 0.127809 0.447737 0.5
781 29 0.159293 0.440299 0.5
313 33 0.1479 0.475186 0.5
606 34 0.185039 0.463871 0.5
929 33 0.238838 0.435034 0.5
973 22 0.213012 0.450052 0.5
764 37 0.235867 0.471105 0.5
586 42 0.206062 0.494491 0.5
259 20 0.292973 0.443657 0.5
428 28 0.26767 0.455737 0.5
8 25 0.292759 0.471067 0.5
792 31 0.266036 0.490347 0.5
132 31 0.32354 0.452053 0.5
686 30 0.327025 0.482132 0.5
84 27 0.352028 0.46257 0.5
720 28 0.358868 0.493596 0.5
902 30 0.406839 0.450872 0.5
815 30 0.381101 0.471587 0.5
668 23 0.410557 0.47887 0.5
687 33 0.389935 0.503988 0.5
349 40 0.469664 0.439459 0.5
709 30 0.441354 0.459018 0.5
116 23 0.436611 0.489977 0.5
693 29 0.468664 0.473292 0.5
616 30 0.501822 0.470223 0.5
105 31 0.50634 0.439079 0.5
96 30 0.563882 0.434832 0.5
175 43 0.537017 0.460694 0.5
786 38 0.535426 0.499474 0.5
834 31 0.601398 0.448194 0.5
357 36 0.572841 0.46888 0.5
740 34 0.607893 0.481367 0.5
949 34 0.662481 0.431919 0.5
201 34 0.636932 0.456693 0.5
504 39 0.674034 0.469504 0.5
126 32 0.639179 0.493076 0.5
21 31 0.694571 0.44254 0.5
587 36 0.713097 0.469688 0.5
674 28 0.729497 0.439929 0.5
318 35 0.748252 0.47109 0.5
730 32 0.763456 0.441967 0.5
478 29 0.796346 0.443583 0.5
9 28 0.781518 0.471106 0.5
157 32 0.829189 0.445492 0.5
711 34 0.815452 0.474563 0.5
125 30 0.851808 0.471851 0.5
46 34 0.877269 0.495128 0.5
278 33 0.884335 0.46139 0.5
727 36 0.918273 0.446761 0.5
206 32 0.909787 0.48158 0.5
44 33 0.943223 0.425718 0.5
980 28 0.998158 0.439906 0.5
289 22 0.938641 0.470585 0.5
418 34 0.96274 0.454608 0.5
578 29 0.967715 0.489506 0.5
971 20 0.0148457 0.531267 0.5
191 37 0.0406731 0.513594 0.5
625 32 0.0401402 0.546483 0.5
364 32 -0.00316718 0.507197 0.5
519 24 0.0690667 0.49938 0.5
632 30 0.0700033 0.530301 0.5
545 38 0.100191 0.512188 0.5
135 29 0.0996186 0.54878 0.5
716 30 0.171913 0.496186 0.5
188 31 0.138389 0.505895 0.5
85 23 0.128014 0.53149 0.5
575 32 0.155991 0.534645 0.5
959 27 0.239949 0.508714 0.5
480 26 0.185427 0.52464 0.5
807 23 0.189924 0.55584 0.5
288 35 0.215911 0.530821 0.5
541 33 0.29795 0.502461 0.5
793 29 0.247197 0.544681 0.5
532 28 0.272441 0.523782 0.5
925 23 0.307547 0.535817 0.5
336 35 0.277046 0.556953 0.5
179 31 0.332146 0.512397 0.5
423 34 0.362329 0.525968 0.5
422 30 0.33762 0.54485 0.5
951 29 0.367712 0.56131 0.5
524 33 0.393225 0.537647 0.5
965 29 0.420154 0.514845 0.5
127 23 0.421997 0.548071 0.5
427 31 0.462113 0.505358 0.5
550 25 0.446832 0.531964 0.5
275 32 0.477722 0.533411 0.5
826 30 0.448681 0.561342 0.5
506 37 0.497729 0.502883 0.5
77 20 0.503765 0.552757 0.5
765 24 0.517861 0.530089 0.5
446 28 0.551862 0.530281 0.5
956 33 0.53192 0.557436 0.5
384 42 0.576244 0.50637 0.5
65 31 0.612715 0.514904 0.5
875 34 0.585567 0.542123 0.5
665 41 0.620387 0.551533 0.5
348 27 0.669072 0.503667 0.5
549 30 0.645512 0.526118 0.5
767 39 0.67772 0.537712 0.5
431 31 0.697817 0.503288 0.5
70 28 0.73431 0.502961 0.5
531 26 0.714166 0.529046 0.5
101 27 0.748322 0.530599 0.5
112 25 0.704998 0.559221 0.5
479 21 0.731865 0.556223 0.5
619 32 0.764905 0.501172 0.5
1000 35 0.800248 0.504334 0.5
83 31 0.782297 0.532207 0.5
893 30 0.763962 0.55699 0.5
688 26 0.813761 0.535405 0.5
347 44 0.839243 0.507504 0.5
323 30 0.846274 0.544913 0.5
118 26 0.873289 0.559963 0.5
64 31 0.873654 0.528289 0.5
282 27 0.904393 0.513458 0.5
999 36 0.936388 0.536091 0.5
772 32 0.90464 0.54756 0.5
910 30 0.936604 0.501981 0.5
277 26 0.963286 0.519362 0.5
381 32 0.988423 0.540696 0.5
911 29 0.0111358 0.561876 0.5
212 25 0.043702 0.579755 0.5
294 29 0.0438362 0.613205 0.5
343 33 0.0136158 0.594577 0.5
585 32 0.0737692 0.567487 0.5
142 31 0.0732003 0.600115 0.5
725 38 0.105329 0.586314 0.5
726 29 0.129823 0.559079 0.5
869 32 0.162968 0.566915 0.5
495 33 0.138587 0.591341 0.5
791 27 0.16465 0.61188 0.5
713 37 0.220332 0.565107 0.5
906 38 0.191243 0.589719 0.5
95 32 0.224815 0.6053 0.5
503 37 0.252105 0.580838 0.5
187 33 0.256817 0.615807 0.5
641 29 0.28435 0.593663 0.5
865 22 0.287797 0.624676 0.5
26 39 0.310806 0.568836 0.5
631 30 0.315779 0.60312 0.5
82 33 0.344619 0.583845 0.5
22 34 0.346215 0.618721 0.5
702 28 0.399915 0.572065 0.5
234 34 0.376806 0.5964 0.5
634 18 0.425564 0.577758 0.5
594 33 0.409841 0.603075 0.5
714 29 0.385168 0.627372 0.5
186 31 0.445734 0.596373 0.5
620 28 0.477878 0.57071 0.5
300 36 0.479679 0.606873 0.5
51 31 0.505925 0.58493 0.5
563 35 0.540203 0.592679 0.5
287 35 0.515059 0.619168 0.5
29 29 0.562463 0.567959 0.5
796 26 0.573626 0.598406 0.5
814 31 0.593385 0.574397 0.5
732 28 0.606881 0.606242 0.5
306 27 0.654464 0.559833 0.5
692 28 0.629323 0.584264 0.5
866 29 0.659069 0.597954 0.5
92 27 0.681237 0.576212 0.5
394 29 0.63471 0.618368 0.5
928 33 0.691206 0.613325 0.5
62 28 0.712284 0.588795 0.5
133 32 0.744448 0.584753 0.5
20 35 0.726411 0.619325 0.5
471 24 0.795044 0.559928 0.5
864 25 0.758744 0.612682 0.5
904 34 0.780087 0.587219 0.5
281 25 0.808438 0.601953 0.5
771 25 0.786786 0.622739 0.5
42 40 0.825497 0.574524 0.5
23 28 0.862407 0.588649 0.5
691 38 0.837882 0.612457 0.5
760 26 0.870335 0.61861 0.5
35 37 0.897744 0.586728 0.5
805 27 0.928322 0.571287 0.5
590 25 0.924577 0.604082 0.5
119 29 0.900795 0.620859 0.5
438 27 0.958928 0.558072 0.5
47 31 0.982755 0.574728 0.5
267 27 0.955298 0.59292 0.5
533 35 0.983593 0.608551 0.5
974 26 0.0144446 0.627384 0.5
784 28 0.0387304 0.650801 0.5
960 40 0.0275797 0.685446 0.5
341 25 0.00803166 0.659561 0.5
790 32 0.0982039 0.623174 0.5
696 27 0.0663457 0.632735 0.5
818 25 0.0590528 0.673447 0.5
338 29 0.0837865 0.655534 0.5
489 21 0.113987 0.650549 0.5
918 39 0.136119 0.62912 0.5
237 35 0.170989 0.645643 0.5
853 20 0.121478 0.677545 0.5
777 27 0.143525 0.663494 0.5
109 42 0.176877 0.681477 0.5
579 28 0.197671 0.626484 0.5
750 32 0.230935 0.637737 0.5
465 27 0.205357 0.657624 0.5
240 29 0.237719 0.669759 0.5
872 39 0.270224 0.652029 0.5
913 29 0.302253 0.671811 0.5
512 31 0.314219 0.636574 0.5
351 31 0.336055 0.663398 0.5
344 21 0.361875 0.646327 0.5
985 25 0.366095 0.674411 0.5
600 35 0.422248 0.638102 0.5
399 34 0.392189 0.6585 0.5
129 36 0.422614 0.673839 0.5
475 26 0.454878 0.628207 0.5
111 28 0.452547 0.660116 0.5
40 39 0.484876 0.642352 0.5
804 29 0.480091 0.677847 0.5
722 33 0.548952 0.626559 0.5
640 37 0.523264 0.654115 0.5
470 29 0.559562 0.658641 0.5
108 33 0.583964 0.632199 0.5
958 23 0.614238 0.640096 0.5
543 33 0.590243 0.664844 0.5
758 22 0.620582 0.672007 0.5
128 31 0.66522 0.630141 0.5
406 30 0.641519 0.651818 0.5
404 31 0.674436 0.663572 0.5
560 29 0.648242 0.683532 0.5
454 32 0.699252 0.645587 0.5
595 35 0.732991 0.654831 0.5
870 30 0.704192 0.678961 0.5
908 21 0.761137 0.640903 0.5
432 29 0.792849 0.651211 0.5
297 30 0.767323 0.66905 0.5
573 30 0.795168 0.684068 0.5
850 23 0.815813 0.633686 0.5
981 30 0.820809 0.665307 0.5
110 30 0.84917 0.645404 0.5
43 35 0.855782 0.678746 0.5
867 37 0.884017 0.651746 0.5
633 30 0.923948 0.641689 0.5
137 33 0.916811 0.671905 0.5
295 33 0.952492 0.626093 0.5
968 38 0.952261 0.66047 0.5
271 30 0.982647 0.643605 0.5
862 25 0.98541 0.675537 0.5
546 32 0.0332237 0.723768 0.5
435 23 0.00554958 0.7418 0.5
683 34 0.00172542 0.708966 0.5
868 38 0.093047 0.687097 0.5
861 35 0.0611291 0.704211 0.5
269 32 0.0621663 0.738795 0.5
98 35 0.0927072 0.72286 0.5
695 21 0.146247 0.692627 0.5
613 27 0.122676 0.707998 0.5
231 32 0.123664 0.738562 0.5
601 31 0.154374 0.722293 0.5
398 38 0.212315 0.69187 0.5
801 26 0.186633 0.713385 0.5
146 25 0.182091 0.742045 0.5
675 27 0.215578 0.722907 0.5
680 29 0.242927 0.708982 0.5
946 30 0.244952 0.740265 0.5
833 33 0.267938 0.687735 0.5
748 35 0.29928 0.706313 0.5
145 25 0.270766 0.723968 0.5
854 28 0.296632 0.740875 0.5
154 28 0.33096 0.692537 0.5
883 35 0.328353 0.726557 0.5
447 37 0.362259 0.707659 0.5
460 34 0.357975 0.744885 0.5
907 27 0.395134 0.694089 0.5
1 26 0.389284 0.724562 0.5
576 33 0.421723 0.715205 0.5
284 35 0.414551 0.748931 0.5
410 40 0.452486 0.698875 0.5
417 25 0.483984 0.710493 0.5
739 42 0.453766 0.735708 0.5
667 27 0.48835 0.738971 0.5
942 25 0.543258 0.684929 0.5
266 35 0.511567 0.688515 0.5
32 22 0.511459 0.719023 0.5
948 36 0.544504 0.718388 0.5
152 34 0.572121 0.693716 0.5
79 37 0.607144 0.702478 0.5
412 29 0.581578 0.727312 0.5
371 29 0.614775 0.736119 0.5
840 26 0.677318 0.694086 0.5
602 25 0.646389 0.714414 0.5
11 37 0.677851 0.727503 0.5
45 28 0.649908 0.745047 0.5
324 38 0.737596 0.691631 0.5
321 31 0.70761 0.710818 0.5
810 31 0.743725 0.723332 0.5
932 27 0.716751 0.742016 0.5
820 29 0.771336 0.707532 0.5
354 34 0.80159 0.718435 0.5
163 26 0.77121 0.738163 0.5
49 27 0.827096 0.696054 0.5
678 30 0.856958 0.712274 0.5
899 23 0.831749 0.730198 0.5
322 23 0.862061 0.742071 0.5
997 34 0.888482 0.690152 0.5
599 33 0.888276 0.725706 0.5
584 25 0.916833 0.708719 0.5
654 25 0.918167 0.741368 0.5
778 24 0.940919 0.692732 0.5
319 29 0.943161 0.722293 0.5
474 28 0.970764 0.700404 0.5
878 32 0.973591 0.731315 0.5
916 25 0.0302152 0.758759 0.5
285 30 0.0309935 0.792501 0.5
842 28 0.00395771 0.777139 0.5
839 27 0.00252717 0.805451 0.5
539 31 0.0900984 0.755469 0.5
876 31 0.0605768 0.77148 0.5
477 31 0.0607961 0.805502 0.5
450 24 0.0870626 0.790428 0.5
261 38 0.11816 0.804497 0.5
630 32 0.121684 0.771736 0.5
60 27 0.153735 0.75246 0.5
359 34 0.152899 0.785225 0.5
149 27 0.182508 0.773545 0.5
190 39 0.182015 0.806869 0.5
789 28 0.213402 0.753465 0.5
827 40 0.214932 0.789615 0.5
441 30 0.24357 0.771451 0.5
19 28 0.241291 0.813903 0.5
684 25 0.271665 0.760912 0.5
204 34 0.269816 0.793266 0.5
401 25 0.297588 0.777436 0.5
7 35 0.299005 0.811864 0.5
342 39 0.325427 0.760519 0.5
610 30 0.35892 0.779456 0.5
567 29 0.328258 0.795407 0.5
552 30 0.354573 0.813 0.5
721 27 0.386004 0.764019 0.5
320 33 0.384818 0.799654 0.5
10 29 0.415856 0.783532 0.5
226 31 0.412958 0.814585 0.5
954 24 0.443148 0.767426 0.5
151 37 0.445615 0.799777 0.5
220 30 0.473213 0.765917 0.5
235 35 0.481449 0.796869 0.5
572 34 0.525491 0.748239 0.5
99 25 0.502147 0.770509 0.5
639 22 0.539661 0.776975 0.5
53 35 0.518333 0.802688 0.5
286 31 0.558201 0.752019 0.5
13 31 0.568516 0.787102 0.5
386 36 0.591824 0.759072 0.5
388 26 0.598836 0.791558 0.5
117 31 0.624182 0.768948 0.5
547 33 0.630359 0.800671 0.5
246 33 0.658875 0.778856 0.5
184 27 0.745835 0.7563 0.5
198 35 0.688658 0.760648 0.5
25 33 0.691578 0.794367 0.5
335 34 0.721822 0.77728 0.5
526 30 0.720152 0.810121 0.5
816 32 0.802787 0.751234 0.5
915 27 0.74907 0.791173 0.5
486 37 0.775589 0.77144 0.5
411 31 0.807061 0.784923 0.5
755 25 0.781645 0.804202 0.5
311 28 0.833199 0.760528 0.5
522 35 0.862792 0.776007 0.5
123 18 0.834481 0.789187 0.5
570 34 0.857099 0.808801 0.5
496 30 0.891248 0.758639 0.5
147 30 0.917355 0.775293 0.5
195 37 0.889971 0.795578 0.5
93 42 0.949543 0.759182 0.5
605 24 0.983642 0.758348 0.5
50 32 0.939444 0.799987 0.5
774 33 0.971584 0.787778 0.5
248 25 0.0331642 0.821504 0.5
183 28 0.0294547 0.856552 0.5
88 41 0.000396892 0.838084 0.5
643 28 0.0899986 0.820516 0.5
992 37 0.060221 0.839608 0.5
131 28 0.115464 0.838961 0.5
238 25 0.0896476 0.852476 0.5
134 34 0.121405 0.870377 0.5
459 36 0.149881 0.822587 0.5
972 29 0.180049 0.841953 0.5
224 30 0.150986 0.857469 0.5
207 31 0.212166 0.825176 0.5
514 25 0.241738 0.842821 0.5
947 34 0.211038 0.857888 0.5
67 30 0.241026 0.877617 0.5
830 29 0.269553 0.826897 0.5
747 24 0.29583 0.844687 0.5
213 32 0.271819 0.861667 0.5
970 22 0.298928 0.879413 0.5
718 20 0.326521 0.825864 0.5
624 24 0.35191 0.843455 0.5
316 38 0.323233 0.85778 0.5
472 27 0.356067 0.874342 0.5
247 24 0.384843 0.86135 0.5
48 25 0.382813 0.832905 0.5
352 27 0.409649 0.847614 0.5
909 28 0.41365 0.877293 0.5
449 26 0.436549 0.83481 0.5
717 30 0.443393 0.865509 0.5
194 31 0.464526 0.825712 0.5
525 26 0.473046 0.856049 0.5
304 28 0.549449 0.811518 0.5
15 33 0.496497 0.829126 0.5
437 32 0.504766 0.862182 0.5
554 29 0.52913 0.834624 0.5
890 33 0.537951 0.865078 0.5
507 29 0.577996 0.819205 0.5
395 28 0.564998 0.846532 0.5
937 32 0.596975 0.84845 0.5
978 23 0.605929 0.819022 0.5
69 35 0.661391 0.81409 0.5
362 32 0.632868 0.837195 0.5
638 47 0.667023 0.85492 0.5
292 28 0.692612 0.827644 0.5
481 30 0.729919 0.839062 0.5
800 23 0.704271 0.855293 0.5
337 29 0.758594 0.822391 0.5
527 28 0.755368 0.854217 0.5
30 32 0.789601 0.836981 0.5
327 31 0.786511 0.869907 0.5
185 36 0.81849 0.817744 0.5
945 35 0.817586 0.855149 0.5
484 34 0.849072 0.841287 0.5
635 23 0.912462 0.816348 0.5
56 27 0.883427 0.828426 0.5
276 35 0.87892 0.860256 0.5
975 27 0.910635 0.848915 0.5
392 30 0.969554 0.81943 0.5
254 33 0.93929 0.832055 0.5
463 26 0.968231 0.854008 0.5
501 34 0.939463 0.865208 0.5
328 23 0.0561522 0.870597 0.5
757 39 0.00106717 0.877152 0.5
515 29 0.0308833 0.89084 0.5
396 31 0.0584879 0.903609 0.5
924 26 0.0264671 0.92015 0.5
236 41 0.088928 0.8866 0.5
828 29 0.119395 0.904552 0.5
697 36 0.0865637 0.922346 0.5
436 31 0.116824 0.939541 0.5
433 25 0.181933 0.873349 0.5
113 35 0.148671 0.891324 0.5
38 29 0.177327 0.908398 0.5
931 30 0.146971 0.923911 0.5
724 40 0.208833 0.893905 0.5
647 30 0.242698 0.91431 0.5
642 31 0.209958 0.928259 0.5
315 28 0.268472 0.895269 0.5
74 35 0.299586 0.910417 0.5
889 28 0.270591 0.929459 0.5
811 26 0.299453 0.943012 0.5
160 29 0.329201 0.891161 0.5
419 33 0.353456 0.910876 0.5
205 27 0.327229 0.92914 0.5
627 33 0.384731 0.893485 0.5
197 29 0.389014 0.925961 0.5
257 33 0.415794 0.908961 0.5
903 31 0.416733 0.943577 0.5
86 30 0.448932 0.933986 0.5
989 34 0.447064 0.898455 0.5
984 32 0.481232 0.887728 0.5
523 22 0.472555 0.917034 0.5
391 25 0.499506 0.92283 0.5
148 34 0.51669 0.893019 0.5
825 36 0.551606 0.897219 0.5
650 29 0.528057 0.924429 0.5
78 20 0.573499 0.873722 0.5
494 23 0.602847 0.880266 0.5
808 26 0.563058 0.9269 0.5
253 29 0.583749 0.901423 0.5
122 30 0.631856 0.871029 0.5
370 37 0.625605 0.905135 0.5
735 28 0.658907 0.893351 0.5
3 33 0.728396 0.872494 0.5
230 31 0.685254 0.912744 0.5
209 26 0.690345 0.882554 0.5
562 37 0.721963 0.905483 0.5
482 29 0.747019 0.927233 0.5
268 43 0.758332 0.893297 0.5
681 24 0.790497 0.898424 0.5
858 33 0.777989 0.927527 0.5
843 34 0.848296 0.876097 0.5
173 30 0.813537 0.916953 0.5
415 24 0.815657 0.88643 0.5
719 23 0.842493 0.907353 0.5
302 26 0.867304 0.930353 0.5
759 36 0.90463 0.883527 0.5
334 33 0.87465 0.899847 0.5
669 40 0.903414 0.921958 0.5
223 19 0.999185 0.907327 0.5
880 40 0.934938 0.901845 0.5
612 27 0.967371 0.885917 0.5
969 29 0.972554 0.918038 0.5
258 38 0.0547941 0.939301 0.5
558 31 0.0299134 0.989947 0.5
502 25 0.0557548 0.970564 0.5
76 26 0.0275212 0.958399 0.5
588 26 -0.00148166 0.974179 0.5
219 28 0.0864844 0.987765 0.5
75 21 0.112805 1.00096 0.5
644 30 0.0841993 0.955575 0.5
89 30 0.114278 0.97033 0.5
367 28 0.177663 0.939856 0.5
528 33 0.140022 0.989892 0.5
710 37 0.175097 0.982713 0.5
891 33 0.146379 0.956714 0.5
873 32 0.24104 0.945599 0.5
262 32 0.210484 0.996964 0.5
987 35 0.208316 0.962375 0.5
505 33 0.239538 0.977839 0.5
490 32 0.270053 0.992641 0.5
462 29 0.299784 1.00332 0.5
518 30 0.270026 0.960898 0.5
468 27 0.300851 0.972777 0.5
731 35 0.359905 0.944187 0.5
439 28 0.32908 0.990302 0.5
852 34 0.360052 0.979396 0.5
193 28 0.329249 0.959483 0.5
172 21 0.38963 0.98647 0.5
387 29 0.389481 0.957664 0.5
565 27 0.417818 0.975345 0.5
61 32 0.443904 0.996857 0.5
921 37 0.480161 0.981276 0.5
657 25 0.47673 0.947274 0.5
291 27 0.448039 0.96408 0.5
863 26 0.507146 0.951306 0.5
884 36 0.521466 0.981226 0.5
256 33 0.557905 0.985326 0.5
5 33 0.542191 0.952774 0.5
467 31 0.597029 0.929547 0.5
444 33 0.592384 0.992239 0.5
844 33 0.575498 0.958794 0.5
993 30 0.609023 0.965563 0.5
773 21 0.622547 0.940539 0.5
150 38 0.652936 0.928647 0.5
107 29 0.627163 0.992715 0.5
604 22 0.674996 0.980175 0.5
817 36 0.646502 0.964743 0.5
59 23 0.67449 0.951234 0.5
741 34 0.707288 0.940304 0.5
355 31 0.705509 0.979084 0.5
453 25 0.746084 0.990366 0.5
159 34 0.734346 0.960177 0.5
499 19 0.804635 0.984178 0.5
192 36 0.770063 0.96203 0.5
52 37 0.803821 0.949859 0.5
243 33 0.83812 0.940141 0.5
836 29 0.860027 0.992454 0.5
591 26 0.829351 0.973372 0.5
55 28 0.860579 0.961816 0.5
299 25 0.888088 0.951063 0.5
340 22 0.914785 0.989311 0.5
221 23 0.886896 0.979918 0.5
314 31 0.915691 0.960418 0.5
200 34 0.999688 0.937865 0.5
158 35 0.94145 0.938683 0.5
689 30 0.945545 0.974638 0.5
955 28 0.973482 0.993639 0.5
520 31 0.971045 0.955177 0.5
