ITEM: TIMESTEP
2100000
ITEM: NUMBER OF ATOMS
1000
ITEM: BOX BOUNDS pp pp pp
-1.7671617000000001e+01 1.7671617000000001e+01
-1.7671617000000001e+01 1.7671617000000001e+01
-5.0000000000000000e-01 5.0000000000000000e-01
ITEM: ATOMS id type xs ys zs
106 15 0.0394202 0.010365 0.5
758 18 0.0205574 0.0228774 0.5
532 27 0.044578 0.0357575 0.5
245 18 0.0676256 0.00935349 0.5
766 28 0.0969906 0.0166493 0.5
313 34 0.104791 0.0446632 0.5
945 36 0.137213 0.0109305 0.5
276 37 0.156893 0.0401006 0.5
844 34 0.199212 0.0448253 0.5
730 32 0.198264 0.0021347 0.5
91 22 0.216916 0.021859 0.5
919 21 0.23288 0.0438082 0.5
364 33 0.2443 0.0150595 0.5
847 41 0.284263 0.0322009 0.5
765 21 0.30634 0.0125979 0.5
84 25 0.350012 0.017612 0.5
446 27 0.326824 0.039006 0.5
319 29 0.378992 0.0167952 0.5
923 35 0.402151 0.0436691 0.5
645 34 0.412965 0.0133344 0.5
402 40 0.437889 0.0399262 0.5
885 22 0.499964 0.0261166 0.5
217 33 0.46388 0.0143897 0.5
745 37 0.528568 0.0408097 0.5
312 42 0.558292 0.0233392 0.5
244 28 0.590637 0.0217569 0.5
806 26 0.583338 0.0492415 0.5
365 26 0.609669 0.0405458 0.5
962 53 0.623518 0.00904908 0.5
350 10 0.655645 0.0292241 0.5
673 25 0.68116 0.0158696 0.5
971 16 0.657179 0.00476239 0.5
536 26 0.702372 0.0329419 0.5
36 39 0.732437 0.0252709 0.5
819 29 0.762769 0.0337665 0.5
595 37 0.801742 0.00816092 0.5
290 31 0.796049 0.0394113 0.5
720 27 0.771862 0.00747195 0.5
335 35 0.82576 0.0296462 0.5
538 35 0.855833 0.0174722 0.5
100 34 0.884343 0.03146 0.5
127 20 0.905263 0.0124391 0.5
60 25 0.912161 0.0380536 0.5
73 31 0.933804 0.0117414 0.5
660 26 0.950205 0.0552619 0.5
10 29 0.971679 0.0387648 0.5
63 28 0.00388988 0.0426751 0.5
841 31 0.0461399 0.0826525 0.5
250 30 0.0107763 0.0716258 0.5
943 50 0.0724581 0.0596823 0.5
159 36 0.0794455 0.101655 0.5
213 32 0.133309 0.064049 0.5
606 36 0.104638 0.0781484 0.5
820 29 0.145658 0.0907583 0.5
381 33 0.168326 0.069313 0.5
979 37 0.198603 0.081802 0.5
726 29 0.174029 0.10114 0.5
685 30 0.232928 0.0867369 0.5
487 30 0.260392 0.094341 0.5
83 31 0.256209 0.0556382 0.5
607 40 0.285922 0.0671684 0.5
232 26 0.342418 0.0679784 0.5
907 25 0.318044 0.0781394 0.5
445 37 0.355804 0.09473 0.5
831 28 0.361466 0.0490343 0.5
342 43 0.382659 0.0725079 0.5
839 26 0.422832 0.0680968 0.5
117 32 0.449992 0.0750295 0.5
356 22 0.472222 0.0411031 0.5
50 33 0.481607 0.0783307 0.5
553 32 0.55721 0.0590711 0.5
905 30 0.500346 0.0553365 0.5
491 29 0.524883 0.073774 0.5
352 25 0.549795 0.0872263 0.5
991 34 0.581896 0.0812186 0.5
650 28 0.603601 0.101215 0.5
485 36 0.637583 0.0490412 0.5
963 25 0.613888 0.067905 0.5
889 27 0.635126 0.0878466 0.5
15 35 0.669747 0.0537418 0.5
640 39 0.667042 0.0868445 0.5
502 23 0.72707 0.087414 0.5
459 38 0.703844 0.0651305 0.5
69 37 0.742962 0.0580911 0.5
306 25 0.777001 0.0602854 0.5
895 28 0.758391 0.0878598 0.5
569 34 0.789576 0.102808 0.5
55 27 0.804945 0.0659118 0.5
209 24 0.831467 0.0654416 0.5
777 25 0.822674 0.090823 0.5
674 26 0.85335 0.0906453 0.5
510 37 0.858426 0.050903 0.5
687 34 0.898462 0.0655903 0.5
712 29 0.925904 0.0758807 0.5
589 21 0.904451 0.0924676 0.5
515 28 0.952848 0.089395 0.5
834 31 0.978265 0.0757307 0.5
973 18 0.024966 0.106226 0.5
632 30 0.0505237 0.113346 0.5
837 34 0.0382863 0.146553 0.5
44 34 0.0751656 0.139739 0.5
208 32 0.111901 0.113873 0.5
811 24 0.139368 0.126525 0.5
28 26 0.112645 0.141978 0.5
291 25 0.198423 0.112803 0.5
975 25 0.178567 0.136229 0.5
22 35 0.23503 0.119369 0.5
571 48 0.211524 0.146284 0.5
236 45 0.275383 0.125572 0.5
318 37 0.31133 0.10658 0.5
433 22 0.306908 0.134519 0.5
420 36 0.334914 0.132198 0.5
527 27 0.364617 0.126265 0.5
176 33 0.366492 0.154402 0.5
455 31 0.385896 0.105629 0.5
329 36 0.417445 0.0983976 0.5
132 31 0.429461 0.126563 0.5
684 23 0.456668 0.131419 0.5
480 24 0.484054 0.134792 0.5
551 30 0.459969 0.102589 0.5
48 23 0.509892 0.131785 0.5
989 36 0.495163 0.107236 0.5
424 20 0.53584 0.131895 0.5
672 31 0.526804 0.10608 0.5
961 29 0.560046 0.141632 0.5
256 34 0.569196 0.109621 0.5
210 26 0.587008 0.135916 0.5
656 17 0.608711 0.125181 0.5
372 25 0.629454 0.114881 0.5
93 48 0.640585 0.149564 0.5
742 31 0.660097 0.118225 0.5
222 34 0.692916 0.10743 0.5
375 30 0.676725 0.142713 0.5
355 32 0.727868 0.119268 0.5
755 23 0.703484 0.13702 0.5
369 36 0.76003 0.120062 0.5
537 25 0.795444 0.14283 0.5
186 32 0.826075 0.127857 0.5
564 25 0.854939 0.117805 0.5
910 30 0.842719 0.164495 0.5
292 27 0.880911 0.102431 0.5
653 22 0.863177 0.143282 0.5
497 33 0.889959 0.149674 0.5
102 19 0.944016 0.114235 0.5
438 26 0.910475 0.130238 0.5
482 29 0.00108715 0.0999526 0.5
218 20 0.00783712 0.125278 0.5
74 37 0.972343 0.115078 0.5
506 39 0.0229277 0.178928 0.5
535 22 0.0243635 0.208167 0.5
641 29 0.057243 0.169854 0.5
359 35 0.0890112 0.172886 0.5
464 30 0.0633764 0.201711 0.5
603 28 0.150266 0.152049 0.5
949 36 0.120572 0.170055 0.5
254 34 0.176515 0.16488 0.5
303 28 0.151473 0.184975 0.5
409 30 0.206806 0.18078 0.5
769 28 0.233963 0.188016 0.5
322 19 0.291854 0.152695 0.5
343 35 0.253099 0.155126 0.5
249 35 0.270946 0.18335 0.5
59 20 0.320225 0.157873 0.5
461 33 0.302308 0.179473 0.5
112 23 0.331987 0.178273 0.5
575 33 0.393644 0.140408 0.5
934 22 0.389392 0.172028 0.5
576 34 0.362523 0.187389 0.5
748 37 0.396095 0.199549 0.5
675 26 0.412674 0.161164 0.5
432 28 0.429107 0.187665 0.5
7 36 0.461433 0.161399 0.5
583 21 0.479957 0.184468 0.5
82 35 0.511447 0.164529 0.5
467 32 0.542161 0.166279 0.5
682 38 0.522649 0.198601 0.5
76 24 0.571608 0.169919 0.5
614 29 0.556336 0.191608 0.5
860 30 0.607773 0.159697 0.5
386 39 0.59017 0.194176 0.5
43 37 0.627344 0.184511 0.5
992 40 0.660552 0.181151 0.5
179 31 0.700201 0.169731 0.5
763 36 0.734196 0.14964 0.5
454 32 0.722623 0.189034 0.5
17 25 0.752862 0.174817 0.5
327 31 0.769183 0.150205 0.5
857 43 0.784528 0.184524 0.5
479 16 0.814738 0.158908 0.5
904 36 0.817703 0.195757 0.5
72 23 0.848667 0.192249 0.5
392 30 0.872292 0.175869 0.5
33 30 0.903688 0.179126 0.5
846 35 0.946526 0.143421 0.5
615 27 0.929791 0.167162 0.5
810 31 0.984673 0.146388 0.5
353 28 0.952613 0.183129 0.5
267 25 0.989257 0.17893 0.5
530 28 0.0147941 0.232268 0.5
38 29 0.998495 0.205904 0.5
330 26 0.0985102 0.204315 0.5
422 30 0.0500616 0.228419 0.5
611 39 0.0808888 0.2319 0.5
96 30 0.126271 0.205979 0.5
308 24 0.113384 0.233085 0.5
470 29 0.133614 0.258838 0.5
977 38 0.17301 0.213047 0.5
801 24 0.144422 0.232357 0.5
215 26 0.169655 0.244256 0.5
135 28 0.21787 0.212847 0.5
791 25 0.195455 0.232154 0.5
657 22 0.251704 0.213964 0.5
998 31 0.225012 0.242094 0.5
528 34 0.256375 0.24865 0.5
563 38 0.286917 0.221104 0.5
812 25 0.323469 0.201768 0.5
635 19 0.315511 0.229709 0.5
390 33 0.341158 0.223579 0.5
898 27 0.385262 0.233168 0.5
371 29 0.429281 0.252203 0.5
13 32 0.421972 0.22294 0.5
447 39 0.452788 0.214764 0.5
750 33 0.481105 0.242563 0.5
87 27 0.490089 0.213297 0.5
189 5 0.513026 0.220508 0.5
654 22 0.539516 0.229587 0.5
4 34 0.517945 0.251144 0.5
46 35 0.569651 0.226925 0.5
627 34 0.553713 0.25451 0.5
162 32 0.589586 0.251214 0.5
520 32 0.611874 0.223058 0.5
638 55 0.652105 0.220239 0.5
190 44 0.690074 0.201018 0.5
410 44 0.690571 0.238745 0.5
339 38 0.721999 0.22197 0.5
462 28 0.748465 0.203162 0.5
225 36 0.74835 0.247409 0.5
193 27 0.772979 0.214863 0.5
366 29 0.803094 0.223154 0.5
164 35 0.834813 0.223938 0.5
349 45 0.873615 0.215736 0.5
733 41 0.858962 0.249188 0.5
251 32 0.892809 0.244282 0.5
477 31 0.928048 0.198072 0.5
838 19 0.905307 0.217876 0.5
558 32 0.930413 0.237549 0.5
453 23 0.953673 0.252108 0.5
805 26 0.95023 0.216757 0.5
170 34 0.980167 0.234565 0.5
206 32 0.0304748 0.262169 0.5
644 30 0.00163177 0.294415 0.5
983 32 0.0411077 0.290487 0.5
596 26 0.00221906 0.256552 0.5
642 31 0.0607445 0.263641 0.5
759 38 0.0853583 0.285079 0.5
686 30 0.100592 0.257193 0.5
936 22 0.114024 0.28005 0.5
651 21 0.138485 0.291321 0.5
494 19 0.11032 0.303382 0.5
122 30 0.16303 0.271174 0.5
655 28 0.191688 0.25987 0.5
523 18 0.221071 0.270575 0.5
260 27 0.243073 0.282893 0.5
842 27 0.22128 0.303338 0.5
940 26 0.295589 0.250559 0.5
586 47 0.276389 0.277694 0.5
97 20 0.297134 0.301358 0.5
396 32 0.338985 0.285548 0.5
933 28 0.308965 0.277914 0.5
543 35 0.330309 0.254752 0.5
387 28 0.360303 0.245286 0.5
19 27 0.367199 0.283821 0.5
626 37 0.399453 0.263979 0.5
172 16 0.439243 0.276134 0.5
647 30 0.43168 0.300207 0.5
114 23 0.456182 0.25894 0.5
622 27 0.47196 0.279633 0.5
680 29 0.497962 0.294828 0.5
181 32 0.531262 0.282964 0.5
908 17 0.556785 0.301354 0.5
66 32 0.576959 0.278543 0.5
192 38 0.607443 0.287483 0.5
139 28 0.619907 0.255783 0.5
788 35 0.647419 0.283071 0.5
519 21 0.65386 0.25328 0.5
317 40 0.679544 0.272353 0.5
947 35 0.718968 0.259227 0.5
94 22 0.743575 0.276504 0.5
714 29 0.783163 0.24489 0.5
858 34 0.800466 0.273232 0.5
631 30 0.822904 0.252643 0.5
483 27 0.840655 0.275458 0.5
896 29 0.88619 0.272545 0.5
509 25 0.864135 0.287745 0.5
31 20 0.884681 0.301123 0.5
972 28 0.909643 0.286872 0.5
681 21 0.91417 0.26044 0.5
266 37 0.937995 0.276581 0.5
835 34 0.978888 0.27279 0.5
937 32 0.996578 0.326035 0.5
630 32 0.0322912 0.336475 0.5
911 28 0.059356 0.313993 0.5
951 29 0.0633051 0.347326 0.5
309 35 0.0884838 0.321371 0.5
823 27 0.132976 0.318853 0.5
325 33 0.184608 0.294694 0.5
728 35 0.163909 0.31776 0.5
853 14 0.190445 0.329165 0.5
927 33 0.216722 0.334575 0.5
601 31 0.25082 0.341485 0.5
780 29 0.252058 0.309989 0.5
70 26 0.278866 0.333472 0.5
280 41 0.312563 0.32656 0.5
621 26 0.340776 0.314872 0.5
930 24 0.367083 0.314166 0.5
143 30 0.38826 0.336221 0.5
800 20 0.361285 0.340291 0.5
25 34 0.395675 0.306328 0.5
795 38 0.423463 0.330864 0.5
47 31 0.460979 0.31597 0.5
264 31 0.490525 0.32481 0.5
950 32 0.453915 0.344441 0.5
619 32 0.52899 0.312771 0.5
623 39 0.581609 0.315249 0.5
137 34 0.550576 0.334586 0.5
874 41 0.61027 0.341412 0.5
301 39 0.655634 0.317096 0.5
211 13 0.630233 0.310097 0.5
737 36 0.640698 0.362416 0.5
829 22 0.677665 0.34338 0.5
263 28 0.687582 0.305345 0.5
98 37 0.705647 0.331052 0.5
984 33 0.713723 0.290666 0.5
294 29 0.736182 0.323196 0.5
547 34 0.775072 0.292936 0.5
807 20 0.777797 0.322195 0.5
756 27 0.794727 0.34043 0.5
533 37 0.837376 0.306215 0.5
144 35 0.8029 0.307485 0.5
815 30 0.822439 0.339514 0.5
658 38 0.867437 0.325378 0.5
216 46 0.938571 0.315302 0.5
147 30 0.89996 0.327097 0.5
248 23 0.944509 0.361389 0.5
436 31 0.92213 0.345926 0.5
849 37 0.97277 0.304276 0.5
521 33 0.967326 0.34249 0.5
49 26 0.0025018 0.354548 0.5
121 33 0.0293004 0.368987 0.5
24 29 0.0268105 0.407296 0.5
443 27 0.0914698 0.353315 0.5
423 35 0.0770292 0.381279 0.5
598 35 0.109404 0.376889 0.5
939 40 0.127117 0.349026 0.5
768 31 0.139363 0.381564 0.5
764 40 0.161983 0.359302 0.5
903 31 0.166828 0.392427 0.5
182 33 0.230356 0.365057 0.5
699 20 0.196773 0.354342 0.5
148 35 0.200215 0.387162 0.5
326 48 0.240908 0.398349 0.5
337 28 0.260439 0.36916 0.5
534 35 0.278831 0.392566 0.5
484 35 0.331441 0.353842 0.5
26 43 0.29751 0.359896 0.5
526 30 0.32003 0.384036 0.5
900 22 0.37569 0.364479 0.5
504 43 0.383174 0.402585 0.5
21 31 0.355785 0.382091 0.5
565 26 0.413819 0.389605 0.5
108 34 0.408357 0.361619 0.5
302 24 0.435203 0.374034 0.5
449 24 0.446389 0.397395 0.5
281 23 0.493628 0.359479 0.5
568 32 0.468986 0.371729 0.5
956 34 0.517395 0.343384 0.5
739 48 0.517883 0.380344 0.5
205 26 0.547529 0.36436 0.5
785 34 0.576646 0.355626 0.5
600 38 0.567114 0.39986 0.5
922 39 0.607935 0.376397 0.5
119 28 0.640102 0.394893 0.5
103 34 0.668651 0.377718 0.5
863 24 0.692563 0.392565 0.5
378 32 0.700267 0.364056 0.5
833 33 0.729064 0.352415 0.5
935 23 0.725083 0.38145 0.5
503 40 0.760845 0.345009 0.5
561 32 0.793234 0.369653 0.5
878 32 0.763195 0.376974 0.5
278 34 0.827322 0.372126 0.5
670 35 0.858962 0.384361 0.5
701 41 0.884641 0.356935 0.5
271 29 0.850813 0.353385 0.5
761 29 0.889772 0.389146 0.5
460 36 0.919301 0.37805 0.5
224 29 0.948773 0.392981 0.5
104 23 0.00601258 0.390731 0.5
996 24 0.980411 0.368266 0.5
228 26 0.978892 0.396509 0.5
814 31 0.0114793 0.445198 0.5
539 31 0.041769 0.432063 0.5
914 23 0.0504882 0.392141 0.5
142 31 0.0960025 0.413607 0.5
29 28 0.0656671 0.413084 0.5
351 31 0.0980193 0.443554 0.5
439 27 0.122632 0.404327 0.5
557 40 0.129942 0.439506 0.5
760 24 0.148619 0.413904 0.5
165 19 0.176967 0.417788 0.5
277 24 0.169091 0.440105 0.5
434 22 0.201825 0.420742 0.5
868 41 0.237824 0.435073 0.5
556 28 0.279701 0.424946 0.5
727 38 0.307519 0.413481 0.5
646 26 0.33579 0.438462 0.5
850 20 0.311143 0.442622 0.5
705 28 0.352784 0.412873 0.5
591 24 0.370693 0.433497 0.5
818 23 0.395739 0.434013 0.5
778 22 0.420679 0.422947 0.5
542 32 0.42524 0.452835 0.5
667 25 0.447882 0.429803 0.5
202 42 0.481836 0.403132 0.5
475 24 0.479953 0.433139 0.5
869 33 0.51148 0.416898 0.5
187 34 0.547106 0.438131 0.5
141 33 0.578091 0.42977 0.5
959 25 0.568461 0.460391 0.5
389 43 0.607107 0.412947 0.5
608 29 0.605666 0.452639 0.5
749 27 0.641673 0.42217 0.5
514 23 0.668473 0.414494 0.5
388 24 0.659768 0.446193 0.5
574 18 0.700298 0.421881 0.5
892 19 0.722054 0.405009 0.5
980 27 0.753106 0.407211 0.5
548 39 0.726236 0.434143 0.5
775 34 0.782764 0.403283 0.5
605 22 0.760546 0.431247 0.5
287 38 0.790367 0.438503 0.5
240 28 0.817253 0.399928 0.5
613 26 0.819161 0.428 0.5
233 25 0.857577 0.415064 0.5
468 26 0.845369 0.437988 0.5
457 40 0.891068 0.421332 0.5
252 37 0.924704 0.420328 0.5
145 22 0.904406 0.448739 0.5
964 34 0.999302 0.417545 0.5
643 26 0.961735 0.418238 0.5
735 26 0.980922 0.445585 0.5
946 29 0.0423785 0.463305 0.5
723 28 0.0188186 0.505183 0.5
289 19 0.0692992 0.452978 0.5
230 31 0.085835 0.47417 0.5
875 35 0.048419 0.492119 0.5
275 32 0.118809 0.476026 0.5
180 34 0.151081 0.466028 0.5
770 45 0.197849 0.453738 0.5
401 22 0.228531 0.464119 0.5
982 33 0.246337 0.493393 0.5
659 37 0.206629 0.490501 0.5
916 23 0.288382 0.459506 0.5
732 27 0.261176 0.455582 0.5
166 30 0.274983 0.482888 0.5
398 41 0.324633 0.468429 0.5
832 45 0.361683 0.463472 0.5
376 44 0.39743 0.475805 0.5
830 28 0.410395 0.505625 0.5
736 23 0.428095 0.479278 0.5
663 34 0.457055 0.456724 0.5
297 30 0.484889 0.468473 0.5
671 23 0.475892 0.494501 0.5
383 37 0.507026 0.492186 0.5
404 31 0.506648 0.447598 0.5
501 36 0.534908 0.469245 0.5
840 24 0.53497 0.50099 0.5
624 21 0.590085 0.474384 0.5
888 27 0.56094 0.499784 0.5
592 22 0.632002 0.451972 0.5
587 38 0.622116 0.48531 0.5
265 46 0.592426 0.510586 0.5
476 18 0.649521 0.470919 0.5
716 30 0.681567 0.476191 0.5
149 26 0.696647 0.451211 0.5
283 39 0.721044 0.471314 0.5
89 30 0.748566 0.45758 0.5
746 21 0.765263 0.482422 0.5
431 31 0.791859 0.476791 0.5
86 30 0.820517 0.455378 0.5
493 22 0.820712 0.488534 0.5
151 41 0.849483 0.469405 0.5
221 20 0.871443 0.445157 0.5
706 33 0.882338 0.490319 0.5
722 34 0.939165 0.451118 0.5
363 23 0.907729 0.475492 0.5
995 23 0.933985 0.483842 0.5
320 34 0.999396 0.481296 0.5
901 39 0.966516 0.476091 0.5
865 17 0.0313009 0.529406 0.5
637 27 0.00697236 0.532178 0.5
906 42 0.0599901 0.525519 0.5
394 29 0.095041 0.516413 0.5
67 30 0.124107 0.50805 0.5
709 30 0.150443 0.496366 0.5
541 34 0.116363 0.537604 0.5
178 20 0.175916 0.48228 0.5
694 31 0.147945 0.525884 0.5
226 32 0.179596 0.512945 0.5
57 33 0.224562 0.530582 0.5
928 34 0.273983 0.514213 0.5
870 29 0.29372 0.536856 0.5
229 33 0.254643 0.53881 0.5
779 40 0.309263 0.499653 0.5
859 43 0.344211 0.512626 0.5
703 30 0.321413 0.546845 0.5
876 31 0.379668 0.508518 0.5
771 23 0.36937 0.534971 0.5
549 29 0.401697 0.533173 0.5
357 39 0.443536 0.510039 0.5
925 19 0.446737 0.53806 0.5
921 40 0.475682 0.525011 0.5
718 15 0.487329 0.557905 0.5
80 29 0.50845 0.522686 0.5
194 31 0.53803 0.530333 0.5
168 39 0.56872 0.540772 0.5
499 13 0.613527 0.534236 0.5
419 34 0.635761 0.518376 0.5
6 7 0.659179 0.495768 0.5
784 27 0.665061 0.521629 0.5
197 28 0.692244 0.502012 0.5
762 33 0.704659 0.535944 0.5
11 40 0.728294 0.509243 0.5
158 37 0.745793 0.540715 0.5
45 27 0.759891 0.511535 0.5
451 34 0.779931 0.5343 0.5
993 29 0.799247 0.507508 0.5
340 18 0.824923 0.517711 0.5
393 42 0.818119 0.551741 0.5
427 31 0.846816 0.535062 0.5
237 37 0.849609 0.504158 0.5
813 30 0.874912 0.52757 0.5
990 44 0.948404 0.517323 0.5
511 41 0.913573 0.507048 0.5
188 32 0.92112 0.551616 0.5
752 24 0.893659 0.551803 0.5
131 26 0.988866 0.50842 0.5
518 30 0.980954 0.543093 0.5
692 27 0.00270812 0.561882 0.5
828 28 0.0402863 0.554321 0.5
912 42 0.0259165 0.582689 0.5
358 27 0.0585076 0.580699 0.5
332 25 0.0667567 0.555276 0.5
234 35 0.0908269 0.58812 0.5
604 18 0.0961874 0.561382 0.5
448 33 0.12121 0.576181 0.5
848 28 0.140173 0.554229 0.5
399 35 0.17464 0.544304 0.5
408 26 0.195056 0.586487 0.5
734 33 0.16829 0.578582 0.5
81 26 0.217011 0.566802 0.5
437 33 0.247652 0.577112 0.5
429 25 0.275269 0.558499 0.5
196 31 0.284344 0.585812 0.5
269 32 0.316173 0.575505 0.5
370 40 0.349456 0.564561 0.5
929 35 0.387681 0.564637 0.5
711 36 0.364854 0.594896 0.5
75 17 0.425469 0.544609 0.5
648 22 0.392446 0.594006 0.5
781 28 0.431011 0.576438 0.5
426 19 0.421002 0.600001 0.5
134 36 0.462561 0.566927 0.5
39 25 0.460719 0.596067 0.5
382 41 0.491285 0.589577 0.5
336 38 0.513348 0.552914 0.5
191 39 0.525245 0.592066 0.5
731 36 0.548416 0.566912 0.5
754 31 0.572032 0.588823 0.5
872 42 0.601014 0.573414 0.5
508 26 0.6306 0.557418 0.5
214 35 0.632502 0.589552 0.5
155 30 0.672274 0.551992 0.5
821 24 0.698076 0.566746 0.5
702 26 0.65957 0.577491 0.5
636 19 0.720883 0.555971 0.5
708 24 0.720376 0.588656 0.5
721 26 0.738806 0.606929 0.5
809 25 0.742774 0.572437 0.5
323 30 0.782205 0.564974 0.5
95 33 0.763459 0.591672 0.5
300 39 0.800088 0.594145 0.5
891 34 0.847055 0.568302 0.5
417 23 0.838208 0.595509 0.5
988 14 0.871947 0.55586 0.5
442 37 0.874343 0.584454 0.5
305 29 0.90706 0.577183 0.5
634 12 0.930475 0.578327 0.5
688 25 0.933836 0.600245 0.5
124 26 0.99462 0.587756 0.5
421 35 0.951705 0.555329 0.5
380 41 0.962612 0.590806 0.5
899 19 0.0509734 0.603945 0.5
880 44 0.0289323 0.638372 0.5
693 28 0.000299909 0.614631 0.5
246 34 0.061286 0.650308 0.5
324 42 0.0779411 0.620543 0.5
931 29 0.13231 0.611085 0.5
976 19 0.110716 0.624215 0.5
272 39 0.13997 0.64179 0.5
293 38 0.164529 0.614954 0.5
227 32 0.196342 0.614332 0.5
12 36 0.223298 0.598522 0.5
969 28 0.211614 0.639308 0.5
597 21 0.23809 0.632168 0.5
793 28 0.256445 0.60885 0.5
79 41 0.269009 0.63957 0.5
384 47 0.299415 0.615865 0.5
798 36 0.328919 0.636302 0.5
362 33 0.333312 0.603676 0.5
560 28 0.360612 0.628094 0.5
238 22 0.381925 0.643121 0.5
167 25 0.400825 0.6181 0.5
890 35 0.441173 0.620173 0.5
243 34 0.480469 0.622637 0.5
757 42 0.515357 0.63063 0.5
555 30 0.591734 0.612087 0.5
109 47 0.55305 0.618062 0.5
719 20 0.62664 0.616369 0.5
344 17 0.608475 0.633289 0.5
136 40 0.641032 0.643662 0.5
223 14 0.65895 0.60424 0.5
360 11 0.671451 0.635722 0.5
486 40 0.693353 0.65107 0.5
347 50 0.690958 0.610479 0.5
803 31 0.728415 0.640698 0.5
808 24 0.754537 0.628122 0.5
767 44 0.786773 0.627018 0.5
163 23 0.820493 0.616967 0.5
481 30 0.848278 0.627422 0.5
773 16 0.871221 0.617569 0.5
713 39 0.876573 0.646438 0.5
400 36 0.90179 0.61056 0.5
942 23 0.93995 0.626015 0.5
893 29 0.91045 0.642651 0.5
827 45 0.974362 0.633457 0.5
413 24 1.00022 0.651773 0.5
741 35 0.998428 0.690168 0.5
315 27 0.019998 0.668666 0.5
348 26 0.0475132 0.675349 0.5
610 30 0.076749 0.677965 0.5
579 26 0.100453 0.694275 0.5
440 43 0.0980159 0.651018 0.5
207 31 0.123157 0.674133 0.5
866 28 0.156605 0.679185 0.5
298 41 0.178711 0.648883 0.5
594 34 0.186569 0.692965 0.5
71 35 0.210306 0.672367 0.5
133 32 0.239316 0.662127 0.5
540 36 0.232017 0.698524 0.5
697 39 0.27589 0.679069 0.5
219 26 0.297006 0.652598 0.5
495 34 0.308888 0.686794 0.5
978 19 0.32483 0.663921 0.5
177 21 0.337346 0.685944 0.5
668 19 0.358209 0.700306 0.5
965 29 0.380195 0.674714 0.5
201 35 0.352172 0.659786 0.5
242 38 0.415363 0.64763 0.5
552 29 0.410982 0.684328 0.5
146 22 0.434407 0.670725 0.5
153 40 0.465311 0.652597 0.5
220 30 0.467118 0.685847 0.5
288 38 0.50883 0.66694 0.5
740 35 0.546041 0.652623 0.5
169 17 0.534366 0.678199 0.5
817 38 0.581738 0.642076 0.5
18 46 0.571528 0.681676 0.5
782 26 0.605264 0.684371 0.5
241 34 0.63566 0.684122 0.5
729 20 0.61462 0.6607 0.5
826 30 0.664401 0.665093 0.5
753 33 0.688957 0.683407 0.5
345 33 0.722423 0.672021 0.5
1000 38 0.759856 0.660385 0.5
314 32 0.789187 0.679906 0.5
416 35 0.749164 0.690753 0.5
88 46 0.820606 0.653475 0.5
171 35 0.821303 0.688179 0.5
710 40 0.851748 0.672706 0.5
116 19 0.889688 0.676042 0.5
9 26 0.873258 0.696116 0.5
111 28 0.91655 0.676185 0.5
822 37 0.942006 0.660067 0.5
175 49 0.949112 0.696558 0.5
743 33 0.97211 0.670241 0.5
580 26 0.03892 0.705112 0.5
107 29 0.0445023 0.739287 0.5
516 44 0.0115812 0.723304 0.5
617 34 0.073148 0.714223 0.5
689 30 0.0728775 0.751137 0.5
368 34 0.130049 0.703567 0.5
794 31 0.106843 0.722567 0.5
374 36 0.141971 0.745499 0.5
804 28 0.158912 0.710724 0.5
602 23 0.172541 0.735405 0.5
478 29 0.20945 0.722262 0.5
513 26 0.192982 0.75407 0.5
203 43 0.241183 0.733081 0.5
257 35 0.267076 0.710725 0.5
456 31 0.276679 0.740258 0.5
5 35 0.299717 0.718303 0.5
525 24 0.311835 0.744781 0.5
125 30 0.330173 0.713928 0.5
140 29 0.358521 0.749191 0.5
379 25 0.386752 0.701671 0.5
247 21 0.359647 0.723637 0.5
154 27 0.38239 0.735696 0.5
796 25 0.439727 0.69897 0.5
53 37 0.413854 0.716314 0.5
985 22 0.441813 0.731915 0.5
666 33 0.508265 0.705816 0.5
34 31 0.471947 0.717538 0.5
774 35 0.490666 0.74529 0.5
843 36 0.532732 0.750511 0.5
42 45 0.542237 0.707668 0.5
490 32 0.588372 0.711266 0.5
395 26 0.568337 0.731686 0.5
724 44 0.625064 0.720004 0.5
16 32 0.627815 0.755043 0.5
679 48 0.660931 0.707855 0.5
341 23 0.654986 0.739311 0.5
425 33 0.695131 0.735502 0.5
492 43 0.718562 0.708853 0.5
295 34 0.723657 0.749078 0.5
715 19 0.755238 0.733584 0.5
126 32 0.77286 0.712959 0.5
797 32 0.78502 0.745587 0.5
150 42 0.811666 0.722714 0.5
902 29 0.846854 0.709769 0.5
199 39 0.882497 0.731313 0.5
662 33 0.904157 0.704163 0.5
334 34 0.922812 0.731762 0.5
696 26 0.948813 0.744078 0.5
469 39 0.97534 0.72395 0.5
783 24 0.0493286 0.767168 0.5
299 22 0.0253683 0.759598 0.5
270 32 0.0303498 0.792435 0.5
465 26 0.0752595 0.784297 0.5
466 48 0.109709 0.763368 0.5
41 31 0.14382 0.776844 0.5
584 23 0.168714 0.760747 0.5
704 36 0.169628 0.798025 0.5
970 19 0.216665 0.765057 0.5
105 31 0.19711 0.78229 0.5
505 34 0.226311 0.792113 0.5
284 37 0.297044 0.770904 0.5
113 37 0.264279 0.769383 0.5
873 33 0.299502 0.80426 0.5
786 41 0.332822 0.768724 0.5
58 26 0.383245 0.765449 0.5
183 27 0.391617 0.8014 0.5
585 33 0.360579 0.790656 0.5
307 33 0.411914 0.748403 0.5
628 31 0.43542 0.767767 0.5
450 21 0.404982 0.779339 0.5
1 24 0.460261 0.748685 0.5
881 25 0.470563 0.775304 0.5
593 22 0.449354 0.799542 0.5
886 27 0.508849 0.776255 0.5
567 28 0.546295 0.778832 0.5
430 34 0.525132 0.799729 0.5
52 40 0.594095 0.753473 0.5
56 26 0.562343 0.757572 0.5
747 21 0.577214 0.780428 0.5
799 26 0.556759 0.804334 0.5
489 17 0.644904 0.782004 0.5
152 36 0.609835 0.7838 0.5
845 26 0.670325 0.793383 0.5
255 29 0.666988 0.765122 0.5
471 22 0.69903 0.775143 0.5
115 19 0.709895 0.798843 0.5
161 25 0.729223 0.77982 0.5
90 43 0.758011 0.764314 0.5
546 33 0.796606 0.778866 0.5
403 23 0.772827 0.792946 0.5
968 41 0.821422 0.756698 0.5
85 19 0.817796 0.794501 0.5
92 26 0.842296 0.78839 0.5
138 32 0.855391 0.750857 0.5
68 32 0.876202 0.775174 0.5
577 39 0.905108 0.759154 0.5
412 28 0.94238 0.77232 0.5
156 22 0.920939 0.78728 0.5
932 25 0.999214 0.753028 0.5
953 28 0.964895 0.795473 0.5
463 25 0.970017 0.767281 0.5
458 39 0.996831 0.786628 0.5
751 22 0.0207293 0.820818 0.5
678 29 0.0110576 0.849619 0.5
452 34 0.0469727 0.831455 0.5
913 28 0.100157 0.804745 0.5
966 22 0.0571902 0.802381 0.5
948 39 0.0796489 0.827579 0.5
955 27 0.130775 0.802906 0.5
517 39 0.11372 0.833794 0.5
20 37 0.152828 0.828479 0.5
328 20 0.178516 0.83859 0.5
333 30 0.200732 0.812982 0.5
609 30 0.234287 0.825923 0.5
296 29 0.209518 0.845774 0.5
200 36 0.257699 0.806742 0.5
304 26 0.259511 0.842053 0.5
909 26 0.281075 0.826494 0.5
545 42 0.333321 0.816534 0.5
676 31 0.31113 0.843742 0.5
789 27 0.340883 0.849337 0.5
418 36 0.365285 0.827705 0.5
498 29 0.400543 0.840284 0.5
253 29 0.366453 0.85902 0.5
836 28 0.420303 0.813656 0.5
570 35 0.429437 0.846117 0.5
618 38 0.487279 0.803192 0.5
744 34 0.457426 0.830264 0.5
690 25 0.486223 0.836674 0.5
981 29 0.518153 0.828698 0.5
851 32 0.552739 0.833816 0.5
974 24 0.559668 0.872932 0.5
825 39 0.587273 0.808836 0.5
37 28 0.582876 0.839642 0.5
578 28 0.611227 0.827212 0.5
986 27 0.636322 0.83986 0.5
361 34 0.632272 0.807063 0.5
802 37 0.662438 0.822971 0.5
926 35 0.693722 0.847029 0.5
23 26 0.746351 0.799772 0.5
958 19 0.691189 0.814974 0.5
414 36 0.732167 0.826714 0.5
887 33 0.765888 0.820305 0.5
488 24 0.792728 0.808423 0.5
717 30 0.787375 0.842526 0.5
101 26 0.838724 0.819345 0.5
897 31 0.839129 0.850633 0.5
262 32 0.864744 0.804928 0.5
649 38 0.896214 0.806953 0.5
198 37 0.935318 0.811469 0.5
120 30 0.901739 0.838442 0.5
507 28 0.992628 0.817378 0.5
871 27 0.96299 0.823378 0.5
441 29 0.0374123 0.85926 0.5
51 32 0.00591564 0.878929 0.5
938 20 0.0634412 0.859395 0.5
664 32 0.0903883 0.860885 0.5
884 39 0.075882 0.894504 0.5
669 44 0.13968 0.863463 0.5
62 27 0.113565 0.889612 0.5
944 29 0.175372 0.863957 0.5
346 29 0.166426 0.895215 0.5
920 28 0.20202 0.877107 0.5
316 41 0.236029 0.862948 0.5
428 27 0.280916 0.858208 0.5
261 41 0.272781 0.888086 0.5
695 17 0.300748 0.876761 0.5
231 32 0.327703 0.879023 0.5
331 25 0.320073 0.905653 0.5
999 39 0.378409 0.887438 0.5
130 27 0.402839 0.86785 0.5
616 29 0.434292 0.879294 0.5
259 15 0.433913 0.903354 0.5
590 22 0.460019 0.85832 0.5
385 32 0.461478 0.89171 0.5
620 26 0.482473 0.872602 0.5
65 32 0.507952 0.859532 0.5
8 23 0.537536 0.856326 0.5
118 24 0.513773 0.887299 0.5
204 35 0.589279 0.872884 0.5
824 32 0.547307 0.90286 0.5
776 31 0.621663 0.864551 0.5
354 36 0.643058 0.886898 0.5
790 33 0.61252 0.893472 0.5
883 38 0.661318 0.859403 0.5
500 46 0.692993 0.883162 0.5
77 15 0.728883 0.88627 0.5
612 25 0.718457 0.861901 0.5
64 32 0.752368 0.877122 0.5
474 27 0.755208 0.848942 0.5
854 27 0.780942 0.869994 0.5
544 27 0.790999 0.895478 0.5
941 28 0.811259 0.86632 0.5
559 34 0.848792 0.886405 0.5
562 39 0.871517 0.855995 0.5
787 25 0.877927 0.889595 0.5
61 33 0.901605 0.871582 0.5
268 49 0.935514 0.848766 0.5
683 36 0.934124 0.888767 0.5
129 39 0.978177 0.849788 0.5
864 22 0.970132 0.879722 0.5
861 37 0.0413848 0.891063 0.5
792 31 0.011581 0.937337 0.5
879 35 0.0410159 0.928863 0.5
529 27 0.0722116 0.92638 0.5
867 40 0.104358 0.921266 0.5
415 22 0.141042 0.904952 0.5
282 26 0.138312 0.935979 0.5
691 42 0.0984004 0.955701 0.5
856 26 0.193016 0.902688 0.5
435 20 0.159095 0.921676 0.5
877 28 0.164009 0.948679 0.5
212 22 0.242994 0.892273 0.5
816 33 0.222765 0.911846 0.5
554 28 0.234974 0.947408 0.5
311 26 0.196286 0.93264 0.5
531 24 0.292448 0.911028 0.5
987 36 0.256813 0.923787 0.5
967 22 0.287015 0.93817 0.5
581 20 0.347176 0.932373 0.5
629 23 0.32086 0.9348 0.5
550 22 0.345209 0.899854 0.5
373 37 0.373316 0.920499 0.5
997 36 0.407734 0.910588 0.5
915 25 0.398219 0.937903 0.5
160 28 0.429662 0.953241 0.5
78 15 0.440757 0.930387 0.5
698 17 0.467525 0.925262 0.5
407 24 0.486251 0.939263 0.5
285 30 0.461766 0.951011 0.5
128 31 0.488737 0.904065 0.5
195 39 0.517076 0.92612 0.5
882 38 0.549414 0.937502 0.5
599 34 0.582177 0.909434 0.5
273 27 0.602444 0.93459 0.5
235 37 0.632425 0.925055 0.5
35 40 0.649296 0.954864 0.5
738 33 0.662748 0.91191 0.5
852 35 0.685846 0.935933 0.5
32 18 0.738179 0.904979 0.5
173 30 0.713776 0.909663 0.5
952 35 0.718827 0.940546 0.5
588 24 0.761357 0.908279 0.5
27 34 0.761627 0.947104 0.5
957 38 0.791728 0.925975 0.5
496 30 0.821817 0.904342 0.5
14 28 0.820217 0.940731 0.5
582 27 0.846229 0.918199 0.5
524 35 0.879102 0.923896 0.5
279 33 0.908406 0.907791 0.5
954 21 0.929732 0.926316 0.5
572 35 0.906494 0.946608 0.5
99 23 0.941749 0.953813 0.5
405 28 0.990687 0.909326 0.5
472 25 0.959928 0.903586 0.5
258 41 0.970292 0.936134 0.5
661 30 0.0259115 0.963722 0.5
3 34 0.0157135 0.99627 0.5
677 42 0.994184 0.964529 0.5
573 30 0.0478096 0.98752 0.5
512 32 0.0901424 0.988636 0.5
444 35 0.0620623 0.95871 0.5
286 31 0.142355 0.968395 0.5
54 28 0.119607 0.985159 0.5
239 37 0.168236 0.991701 0.5
274 26 0.193492 0.959383 0.5
960 44 0.221568 0.976902 0.5
157 33 0.281999 0.993169 0.5
639 18 0.255379 0.988594 0.5
185 39 0.26587 0.959455 0.5
772 33 0.323857 0.991293 0.5
522 38 0.300455 0.963419 0.5
321 31 0.332598 0.960855 0.5
406 29 0.393966 0.988832 0.5
665 46 0.371134 0.956291 0.5
174 31 0.355503 0.987386 0.5
391 22 0.402555 0.964142 0.5
707 52 0.440503 0.987161 0.5
30 33 0.490881 0.997976 0.5
367 26 0.483664 0.967665 0.5
855 31 0.51395 0.963926 0.5
652 46 0.530356 0.998644 0.5
110 30 0.551418 0.968336 0.5
338 28 0.586889 0.9621 0.5
924 23 0.566941 0.992757 0.5
894 25 0.592493 0.990151 0.5
397 33 0.616994 0.970783 0.5
123 12 0.643073 0.983725 0.5
310 34 0.669416 0.980441 0.5
917 42 0.708647 0.997889 0.5
862 22 0.742599 0.99679 0.5
994 27 0.702994 0.967144 0.5
411 31 0.73469 0.968993 0.5
700 24 0.768765 0.977453 0.5
566 32 0.832637 0.997285 0.5
40 43 0.79864 0.967441 0.5
473 31 0.833073 0.966408 0.5
625 33 0.881975 0.997476 0.5
2 28 0.86898 0.952971 0.5
377 25 0.857577 0.978438 0.5
184 25 0.892339 0.971268 0.5
918 43 0.922773 0.981029 0.5
725 42 0.976193 0.00530326 0.5
633 30 0.960848 0.975053 0.5
