ITEM: TIMESTEP
2000000
ITEM: NUMBER OF ATOMS
1000
ITEM: BOX BOUNDS pp pp pp
-1.7671617000000001e+01 1.7671617000000001e+01
-1.7671617000000001e+01 1.7671617000000001e+01
-5.0000000000000000e-01 5.0000000000000000e-01
ITEM: ATOMS id type xs ys zs
444 35 0.0143939 0.0424449 0.5
472 25 0.0277196 0.0114624 0.5
954 21 0.00167989 0.0128863 0.5
63 28 0.0595174 0.0223431 0.5
359 35 0.103207 0.0295706 0.5
470 29 0.128931 0.0454607 0.5
28 26 0.152238 0.0267697 0.5
254 34 0.181326 0.0291127 0.5
343 35 0.163148 0.055004 0.5
97 20 0.264222 0.992437 0.5
685 30 0.239503 0.0170858 0.5
274 26 0.212579 0.0372227 0.5
919 21 0.210249 0.00813088 0.5
391 22 0.288663 0.0330991 0.5
975 25 0.268788 0.0166144 0.5
83 31 0.297871 -0.00238483 0.5
232 26 0.325657 0.0044149 0.5
157 33 0.318227 0.0368784 0.5
831 28 0.349091 0.0349486 0.5
907 25 0.352695 0.00708157 0.5
117 32 0.38119 0.0271604 0.5
329 36 0.429826 0.0356278 0.5
672 31 0.437455 1.00367 0.5
365 26 0.405984 0.0123437 0.5
402 40 0.468919 0.00517693 0.5
934 22 0.495184 0.0376352 0.5
551 30 0.46016 0.0365588 0.5
132 31 0.505974 0.0129862 0.5
48 23 0.517914 0.0488073 0.5
673 25 0.540418 0.0339999 0.5
235 37 0.565161 0.0105588 0.5
76 24 0.594074 0.0319085 0.5
35 40 0.637022 0.0300246 0.5
338 28 0.633405 0.991975 0.5
952 35 0.673002 0.0303634 0.5
354 36 0.662262 9.80325e-05 0.5
510 37 0.719172 0.0164134 0.5
350 10 0.730939 0.0398502 0.5
595 37 0.759382 0.0191359 0.5
335 35 0.794451 0.0146523 0.5
538 35 0.775076 0.0477112 0.5
537 25 0.811991 0.0373126 0.5
564 25 0.853848 0.0383552 0.5
918 43 0.834058 0.0143957 0.5
100 34 0.88325 0.0394301 0.5
268 49 0.872589 0.00471744 0.5
10 29 0.938225 0.0183312 0.5
572 35 0.908344 0.00163463 0.5
777 25 0.912169 0.0327801 0.5
677 42 0.972861 0.00180231 0.5
479 16 0.973172 0.0384366 0.5
573 30 0.0490418 0.053001 0.5
353 28 0.0289928 0.0764841 0.5
102 19 0.0468045 0.0935463 0.5
313 34 0.0807566 0.0518102 0.5
844 34 0.0781704 0.0896455 0.5
979 37 0.108959 0.0695178 0.5
435 20 0.141028 0.0715554 0.5
811 24 0.133007 0.100461 0.5
535 22 0.103034 0.105967 0.5
249 35 0.163997 0.0936506 0.5
236 45 0.19394 0.0722933 0.5
91 22 0.23621 0.0681629 0.5
877 28 0.261245 0.0556482 0.5
847 41 0.294078 0.0620384 0.5
318 37 0.262518 0.09041 0.5
923 35 0.324088 0.0851753 0.5
367 26 0.337965 0.0590522 0.5
915 25 0.368552 0.0589888 0.5
446 27 0.354666 0.0824315 0.5
342 43 0.403463 0.0577365 0.5
707 52 0.441146 0.0799848 0.5
575 33 0.409789 0.100724 0.5
812 25 0.475511 0.0634471 0.5
371 29 0.473654 0.0921448 0.5
645 34 0.502379 0.0784522 0.5
742 31 0.539931 0.0675217 0.5
123 12 0.533805 0.0990969 0.5
397 33 0.564221 0.0491271 0.5
467 32 0.577598 0.0837676 0.5
210 26 0.60526 0.0825208 0.5
352 25 0.593079 0.0590744 0.5
889 27 0.626878 0.059065 0.5
819 29 0.640649 0.0860414 0.5
852 35 0.657278 0.0584551 0.5
273 27 0.690949 0.0731527 0.5
459 38 0.668943 0.0973465 0.5
502 23 0.704091 0.0482223 0.5
15 35 0.726255 0.0757605 0.5
862 22 0.746572 0.056362 0.5
755 23 0.769636 0.0805439 0.5
569 34 0.801782 0.0640687 0.5
186 32 0.793617 0.107336 0.5
834 31 0.835841 0.0615312 0.5
33 30 0.821092 0.0902628 0.5
687 34 0.865404 0.0732772 0.5
14 28 0.897429 0.0794568 0.5
633 30 0.922523 0.0594551 0.5
74 37 0.953955 0.0604515 0.5
725 42 0.996129 0.0737538 0.5
532 27 0.967096 0.0867726 0.5
506 39 0.00647058 0.10731 0.5
530 28 0.0254225 0.13769 0.5
920 28 0.0538028 0.116925 0.5
611 39 0.0845946 0.128822 0.5
409 30 0.112325 0.153789 0.5
464 30 0.121167 0.125218 0.5
641 29 0.152475 0.121722 0.5
112 23 0.201917 0.109863 0.5
726 29 0.181879 0.127601 0.5
364 33 0.232302 0.101587 0.5
487 30 0.210822 0.135472 0.5
528 34 0.24836 0.139371 0.5
445 37 0.267229 0.169093 0.5
322 19 0.293255 0.0947935 0.5
291 25 0.27936 0.138932 0.5
730 32 0.319564 0.133967 0.5
639 18 0.339592 0.108336 0.5
839 26 0.348324 0.133181 0.5
480 24 0.36644 0.107153 0.5
420 36 0.3862 0.130401 0.5
356 22 0.38745 0.0839936 0.5
684 23 0.42579 0.124774 0.5
455 31 0.453138 0.115258 0.5
424 20 0.465366 0.141092 0.5
491 29 0.488235 0.119279 0.5
118 24 0.51374 0.111528 0.5
614 29 0.530831 0.148973 0.5
256 34 0.555847 0.110329 0.5
682 38 0.564202 0.141651 0.5
164 35 0.589854 0.119414 0.5
650 28 0.5961 0.148551 0.5
66 32 0.620063 0.110452 0.5
971 16 0.64583 0.114536 0.5
860 30 0.655002 0.137555 0.5
991 34 0.693988 0.136601 0.5
895 28 0.708182 0.164053 0.5
485 36 0.70549 0.105155 0.5
69 37 0.726995 0.129432 0.5
917 42 0.748014 0.10132 0.5
306 25 0.767258 0.130435 0.5
454 32 0.795574 0.146648 0.5
327 31 0.840054 0.112825 0.5
17 25 0.814486 0.125689 0.5
184 25 0.867747 0.10708 0.5
366 29 0.859469 0.134055 0.5
660 26 0.886057 0.139174 0.5
73 31 0.935806 0.0903002 0.5
292 27 0.908516 0.10827 0.5
349 45 0.926445 0.137684 0.5
218 20 0.95279 0.115181 0.5
60 25 0.977748 0.115161 0.5
943 50 0.993976 0.153247 0.5
38 29 0.0355987 0.166645 0.5
615 27 0.0141349 0.184086 0.5
213 32 0.062892 0.152243 0.5
838 19 0.0869026 0.162141 0.5
805 26 0.0941716 0.185626 0.5
642 31 0.122532 0.181796 0.5
949 36 0.146396 0.151524 0.5
977 38 0.153905 0.189362 0.5
571 48 0.185788 0.162578 0.5
607 40 0.231843 0.170355 0.5
433 22 0.20127 0.190839 0.5
303 28 0.2757 0.201764 0.5
208 32 0.298565 0.169041 0.5
70 26 0.333752 0.159959 0.5
432 28 0.333094 0.188843 0.5
527 27 0.364321 0.156776 0.5
59 20 0.385955 0.183263 0.5
387 28 0.438995 0.150718 0.5
176 33 0.409411 0.156376 0.5
390 33 0.426063 0.183606 0.5
553 32 0.489287 0.153738 0.5
576 34 0.463698 0.17281 0.5
905 30 0.488311 0.191775 0.5
7 36 0.521622 0.178027 0.5
806 26 0.55427 0.171879 0.5
863 24 0.582072 0.173723 0.5
656 17 0.555615 0.198391 0.5
536 26 0.62147 0.138447 0.5
162 32 0.612087 0.17394 0.5
654 22 0.639711 0.171916 0.5
878 32 0.672118 0.162476 0.5
992 40 0.696344 0.198263 0.5
392 30 0.659646 0.189212 0.5
93 48 0.735509 0.186272 0.5
369 36 0.763559 0.162547 0.5
904 36 0.770106 0.195316 0.5
290 31 0.794965 0.17628 0.5
846 35 0.829788 0.149967 0.5
858 34 0.829576 0.185102 0.5
558 32 0.858488 0.164927 0.5
515 28 0.875358 0.187999 0.5
589 21 0.856307 0.206539 0.5
758 18 0.905289 0.158584 0.5
910 30 0.907816 0.186479 0.5
973 18 0.935157 0.166661 0.5
267 25 0.965928 0.17245 0.5
712 29 0.960444 0.140319 0.5
250 30 0.942844 0.191934 0.5
308 24 0.0257451 0.217851 0.5
170 34 0.994844 0.242535 0.5
835 34 0.0494744 0.196678 0.5
801 24 0.0789228 0.206797 0.5
330 26 0.0530602 0.236071 0.5
983 32 0.0810088 0.235307 0.5
122 30 0.11212 0.209047 0.5
764 40 0.123756 0.240327 0.5
769 28 0.156183 0.223357 0.5
791 25 0.178211 0.207456 0.5
563 38 0.232183 0.205283 0.5
461 33 0.202721 0.225221 0.5
686 30 0.22229 0.249289 0.5
260 27 0.249999 0.254277 0.5
780 29 0.305127 0.197824 0.5
523 18 0.257388 0.221374 0.5
603 28 0.276951 0.238295 0.5
900 22 0.322563 0.222848 0.5
621 26 0.291757 0.266906 0.5
940 26 0.353307 0.232 0.5
748 37 0.360052 0.202032 0.5
657 22 0.381745 0.229104 0.5
956 34 0.400983 0.206711 0.5
647 30 0.428855 0.217973 0.5
680 29 0.412256 0.243685 0.5
50 33 0.446662 0.243624 0.5
583 21 0.454496 0.198682 0.5
989 36 0.483918 0.225358 0.5
635 19 0.512275 0.213583 0.5
82 35 0.509811 0.243239 0.5
264 31 0.540734 0.220027 0.5
190 44 0.581717 0.21305 0.5
520 32 0.562427 0.241141 0.5
43 37 0.620601 0.206776 0.5
638 55 0.608385 0.24338 0.5
193 27 0.641891 0.227724 0.5
225 36 0.677012 0.225673 0.5
720 27 0.720471 0.218523 0.5
355 32 0.716222 0.247406 0.5
222 34 0.749813 0.227661 0.5
807 20 0.77649 0.222543 0.5
462 28 0.798422 0.205999 0.5
640 39 0.802307 0.241746 0.5
547 34 0.827061 0.216442 0.5
72 23 0.899011 0.219871 0.5
896 29 0.880853 0.243244 0.5
497 33 0.851576 0.239094 0.5
632 30 0.932127 0.220532 0.5
653 22 0.919306 0.243465 0.5
841 31 0.965835 0.210203 0.5
453 23 0.991909 0.200071 0.5
230 31 0.0359109 0.261018 0.5
596 26 0.007897 0.276967 0.5
29 28 0.0382799 0.288934 0.5
837 34 0.0684326 0.271503 0.5
494 19 0.0970905 0.273002 0.5
939 40 0.0953415 0.30973 0.5
439 27 0.118841 0.285112 0.5
655 28 0.148233 0.259646 0.5
842 27 0.178073 0.243145 0.5
206 32 0.171588 0.276769 0.5
135 28 0.205354 0.27606 0.5
601 31 0.236717 0.280204 0.5
22 35 0.266914 0.281831 0.5
998 31 0.299024 0.294423 0.5
325 33 0.316345 0.249218 0.5
933 28 0.383779 0.257691 0.5
898 27 0.351248 0.260691 0.5
396 32 0.368673 0.287524 0.5
778 22 0.422643 0.27539 0.5
143 30 0.452712 0.272279 0.5
47 31 0.398263 0.291171 0.5
961 29 0.480326 0.255994 0.5
87 27 0.485096 0.284021 0.5
543 35 0.514108 0.275561 0.5
139 28 0.537178 0.255295 0.5
622 27 0.544673 0.288045 0.5
108 34 0.575285 0.269003 0.5
476 18 0.629758 0.275693 0.5
737 36 0.603375 0.285075 0.5
263 28 0.63511 0.299867 0.5
947 35 0.655451 0.255082 0.5
631 30 0.664269 0.289566 0.5
339 38 0.688904 0.264826 0.5
287 38 0.701376 0.297298 0.5
763 36 0.733675 0.27504 0.5
375 30 0.766301 0.255852 0.5
756 27 0.775714 0.284884 0.5
179 31 0.804494 0.273642 0.5
670 35 0.83521 0.26943 0.5
144 35 0.822307 0.300883 0.5
630 32 0.866287 0.268082 0.5
278 34 0.85401 0.296393 0.5
477 31 0.89121 0.299611 0.5
533 37 0.898445 0.268031 0.5
681 21 0.926486 0.292887 0.5
251 32 0.945442 0.266021 0.5
810 31 0.960646 0.240359 0.5
438 26 0.973611 0.266301 0.5
644 30 0.0157462 0.306078 0.5
320 34 0.0367854 0.330627 0.5
423 35 0.0599752 0.309407 0.5
694 31 0.0696904 0.338152 0.5
96 30 0.132051 0.321056 0.5
309 35 0.146384 0.29459 0.5
182 33 0.166067 0.319283 0.5
853 14 0.189515 0.297931 0.5
728 35 0.197386 0.330447 0.5
215 26 0.216376 0.302362 0.5
556 28 0.229281 0.337136 0.5
759 38 0.245461 0.310834 0.5
936 22 0.277726 0.314058 0.5
927 33 0.260173 0.339207 0.5
586 47 0.334417 0.289247 0.5
326 48 0.305808 0.329703 0.5
671 23 0.339923 0.332221 0.5
832 45 0.38253 0.320526 0.5
13 32 0.418451 0.332003 0.5
484 35 0.431478 0.303544 0.5
172 16 0.4383 0.362525 0.5
675 26 0.461447 0.298639 0.5
795 38 0.456404 0.334281 0.5
302 24 0.483004 0.313396 0.5
447 39 0.492724 0.341237 0.5
4 34 0.515671 0.31554 0.5
181 32 0.527427 0.346717 0.5
94 22 0.546983 0.320361 0.5
386 39 0.577897 0.307846 0.5
46 35 0.560101 0.345516 0.5
192 38 0.612681 0.322102 0.5
857 43 0.647759 0.332658 0.5
600 38 0.683688 0.326417 0.5
829 22 0.670314 0.358982 0.5
643 26 0.732502 0.309163 0.5
389 43 0.714198 0.344391 0.5
509 25 0.75961 0.306402 0.5
984 33 0.751082 0.333966 0.5
503 40 0.789742 0.31234 0.5
833 33 0.784237 0.34587 0.5
605 22 0.813653 0.341776 0.5
733 41 0.843501 0.335434 0.5
815 30 0.874174 0.325494 0.5
31 20 0.909062 0.31882 0.5
761 29 0.934759 0.317561 0.5
266 37 0.95593 0.295433 0.5
972 28 0.987159 0.293988 0.5
104 23 0.961371 0.329878 0.5
521 33 0.989815 0.326357 0.5
732 27 0.0356252 0.360801 0.5
443 27 0.00982543 0.349774 0.5
49 26 0.0173558 0.382425 0.5
351 31 0.0454287 0.391289 0.5
768 31 0.0639591 0.366758 0.5
850 20 0.0786833 0.399523 0.5
24 29 0.0913876 0.376691 0.5
598 35 0.121721 0.359277 0.5
437 33 0.155959 0.352695 0.5
916 23 0.1424 0.384932 0.5
651 21 0.17082 0.378874 0.5
868 41 0.194713 0.396047 0.5
699 20 0.182365 0.358134 0.5
422 30 0.210656 0.358939 0.5
25 34 0.24305 0.40144 0.5
26 43 0.242151 0.36791 0.5
903 31 0.27516 0.389741 0.5
148 35 0.285891 0.360922 0.5
19 27 0.331319 0.360115 0.5
626 37 0.352302 0.385868 0.5
591 24 0.317537 0.386345 0.5
114 23 0.391287 0.351168 0.5
337 28 0.359905 0.349858 0.5
21 31 0.385747 0.37766 0.5
398 41 0.418806 0.382463 0.5
280 41 0.467644 0.367624 0.5
189 5 0.498312 0.367575 0.5
504 43 0.490379 0.395385 0.5
750 33 0.540876 0.396888 0.5
930 24 0.518474 0.372827 0.5
874 41 0.568229 0.377886 0.5
714 29 0.620024 0.353303 0.5
950 32 0.591374 0.350445 0.5
736 23 0.637144 0.374489 0.5
301 39 0.601614 0.389977 0.5
627 34 0.661439 0.389616 0.5
410 44 0.695247 0.377739 0.5
980 27 0.728727 0.377975 0.5
294 29 0.75921 0.363006 0.5
775 34 0.773037 0.389275 0.5
240 28 0.809334 0.375896 0.5
224 29 0.828668 0.395729 0.5
964 34 0.841881 0.369322 0.5
701 41 0.874108 0.362258 0.5
891 34 0.859543 0.40088 0.5
658 38 0.911367 0.348267 0.5
483 27 0.941981 0.349672 0.5
378 32 0.907776 0.383418 0.5
271 29 0.948494 0.376471 0.5
216 46 0.977453 0.360799 0.5
289 19 0.0401116 0.417439 0.5
142 31 0.00997912 0.419246 0.5
165 19 0.0446004 0.44046 0.5
434 22 0.0637411 0.424521 0.5
709 30 0.0943059 0.420619 0.5
541 34 0.11681 0.395153 0.5
659 37 0.138768 0.427801 0.5
646 26 0.159336 0.406288 0.5
178 20 0.170965 0.44113 0.5
604 18 0.184472 0.422492 0.5
770 45 0.213808 0.431127 0.5
275 32 0.246166 0.440283 0.5
534 35 0.273126 0.424345 0.5
196 31 0.302979 0.449392 0.5
830 28 0.300432 0.407159 0.5
982 33 0.336254 0.415049 0.5
928 34 0.374686 0.409555 0.5
859 43 0.366647 0.442733 0.5
542 32 0.398984 0.429946 0.5
800 20 0.421144 0.415047 0.5
376 44 0.45158 0.400044 0.5
663 34 0.426936 0.441427 0.5
869 33 0.461924 0.433397 0.5
619 32 0.492237 0.431723 0.5
908 17 0.516018 0.414609 0.5
317 40 0.54489 0.430253 0.5
202 42 0.515831 0.456948 0.5
449 24 0.568468 0.407873 0.5
519 21 0.57642 0.437326 0.5
514 23 0.600464 0.430177 0.5
788 35 0.626941 0.416968 0.5
283 39 0.686019 0.413829 0.5
211 13 0.657541 0.416463 0.5
592 22 0.710172 0.439132 0.5
388 24 0.743694 0.401455 0.5
228 26 0.715231 0.403247 0.5
86 30 0.734731 0.426911 0.5
252 37 0.767756 0.422 0.5
103 34 0.799212 0.40521 0.5
431 31 0.842301 0.426226 0.5
813 30 0.817463 0.44184 0.5
493 22 0.872617 0.428281 0.5
340 18 0.899715 0.435104 0.5
951 29 0.888832 0.406222 0.5
147 30 0.929168 0.437594 0.5
911 28 0.928416 0.408005 0.5
760 24 0.959953 0.442163 0.5
937 32 0.991716 0.394637 0.5
457 40 0.961674 0.406317 0.5
557 40 0.993352 0.446514 0.5
67 30 0.0236506 0.456559 0.5
277 24 0.0550817 0.464327 0.5
906 42 0.019529 0.491088 0.5
408 26 0.0828663 0.44836 0.5
723 28 0.0769638 0.484812 0.5
124 26 0.103713 0.482941 0.5
394 29 0.113518 0.454381 0.5
899 19 0.127729 0.476747 0.5
399 35 0.185951 0.465864 0.5
71 35 0.152233 0.460982 0.5
931 29 0.185049 0.495449 0.5
401 22 0.225663 0.459952 0.5
226 32 0.24635 0.480047 0.5
727 38 0.215511 0.488882 0.5
705 28 0.272612 0.454722 0.5
298 41 0.279008 0.485621 0.5
166 30 0.332704 0.447911 0.5
269 32 0.31222 0.47827 0.5
526 30 0.353481 0.475985 0.5
549 29 0.394675 0.459722 0.5
384 47 0.3824 0.493071 0.5
929 35 0.449644 0.467067 0.5
429 25 0.414711 0.481016 0.5
818 23 0.468758 0.488514 0.5
297 30 0.479 0.461044 0.5
716 30 0.532504 0.492315 0.5
383 37 0.49974 0.487182 0.5
281 23 0.597996 0.455067 0.5
785 34 0.556729 0.467941 0.5
739 48 0.592642 0.489121 0.5
623 39 0.633774 0.450785 0.5
565 26 0.630429 0.48673 0.5
137 34 0.660478 0.482809 0.5
574 18 0.658246 0.438361 0.5
935 23 0.683061 0.450472 0.5
892 19 0.753083 0.447476 0.5
98 37 0.722151 0.466287 0.5
922 39 0.695359 0.488539 0.5
749 27 0.757907 0.475964 0.5
548 39 0.781308 0.452147 0.5
888 27 0.780851 0.491772 0.5
613 26 0.801943 0.474579 0.5
427 31 0.834313 0.472047 0.5
561 32 0.864201 0.454818 0.5
151 41 0.89864 0.464456 0.5
773 16 0.875081 0.486164 0.5
914 23 0.903201 0.497066 0.5
735 26 0.931015 0.46624 0.5
901 39 0.984556 0.490268 0.5
946 29 0.95715 0.472686 0.5
539 31 0.0244909 0.527277 0.5
180 34 0.0533012 0.50252 0.5
332 25 0.0844092 0.511487 0.5
234 35 0.0635346 0.537465 0.5
734 33 0.123411 0.514424 0.5
440 43 0.153048 0.495688 0.5
421 35 0.104196 0.538826 0.5
448 33 0.14846 0.54404 0.5
293 38 0.18232 0.530767 0.5
272 39 0.217971 0.525673 0.5
848 28 0.245422 0.511799 0.5
969 28 0.245793 0.543098 0.5
540 36 0.276138 0.522759 0.5
57 33 0.306491 0.511103 0.5
229 33 0.304042 0.541374 0.5
779 40 0.339213 0.508578 0.5
703 30 0.349026 0.542612 0.5
876 31 0.372332 0.525462 0.5
475 24 0.396073 0.550559 0.5
870 29 0.438673 0.501902 0.5
370 40 0.410789 0.519777 0.5
362 33 0.448076 0.532693 0.5
75 17 0.485162 0.510353 0.5
501 36 0.489123 0.536857 0.5
205 26 0.518047 0.529257 0.5
718 15 0.54065 0.517416 0.5
197 28 0.561514 0.501698 0.5
608 29 0.565138 0.53695 0.5
667 25 0.588794 0.521684 0.5
404 31 0.615934 0.514924 0.5
587 38 0.647239 0.515148 0.5
624 21 0.674732 0.50973 0.5
89 30 0.672606 0.536147 0.5
149 26 0.731719 0.512075 0.5
762 33 0.699949 0.521934 0.5
45 27 0.759191 0.512723 0.5
300 39 0.801755 0.522861 0.5
233 25 0.816252 0.496619 0.5
993 29 0.823164 0.548831 0.5
237 37 0.850585 0.497981 0.5
988 14 0.799338 0.549991 0.5
131 26 0.878955 0.509967 0.5
248 23 0.855153 0.53301 0.5
849 37 0.936648 0.500383 0.5
121 33 0.908692 0.523904 0.5
823 27 0.938337 0.53207 0.5
637 27 0.990641 0.519875 0.5
995 23 0.964531 0.512282 0.5
814 31 0.966227 0.540621 0.5
880 44 0.00224047 0.551442 0.5
692 27 0.0342153 0.554271 0.5
380 41 0.0221481 0.583781 0.5
111 28 0.0567881 0.578274 0.5
324 42 0.0875987 0.570472 0.5
617 34 0.113483 0.596802 0.5
12 36 0.123739 0.563798 0.5
227 32 0.169427 0.566099 0.5
374 36 0.181578 0.597415 0.5
79 41 0.20283 0.559678 0.5
525 24 0.235042 0.569543 0.5
697 39 0.270841 0.56484 0.5
771 23 0.301651 0.56928 0.5
201 35 0.252369 0.592438 0.5
668 19 0.296785 0.592268 0.5
242 38 0.325967 0.598481 0.5
81 26 0.325705 0.559142 0.5
238 22 0.373514 0.56135 0.5
793 28 0.350079 0.573894 0.5
357 39 0.388888 0.590006 0.5
194 31 0.42349 0.552431 0.5
711 36 0.422223 0.583887 0.5
648 22 0.446287 0.567612 0.5
80 29 0.472057 0.565841 0.5
840 24 0.457286 0.592334 0.5
141 33 0.538453 0.54947 0.5
568 32 0.500273 0.565763 0.5
731 36 0.497507 0.597995 0.5
11 40 0.528137 0.583222 0.5
119 28 0.564262 0.566904 0.5
817 38 0.592385 0.585911 0.5
136 40 0.644188 0.550957 0.5
265 46 0.606159 0.553912 0.5
360 11 0.627022 0.572005 0.5
6 7 0.670476 0.559554 0.5
636 19 0.69075 0.554187 0.5
393 42 0.659919 0.583369 0.5
508 26 0.698661 0.578805 0.5
706 33 0.746516 0.539797 0.5
214 35 0.722912 0.559926 0.5
417 23 0.7447 0.588647 0.5
468 26 0.764163 0.564704 0.5
363 23 0.777299 0.541076 0.5
809 25 0.769981 0.596855 0.5
996 24 0.789862 0.58053 0.5
460 36 0.818361 0.578556 0.5
828 28 0.88461 0.540862 0.5
436 31 0.84667 0.567735 0.5
518 30 0.879548 0.569193 0.5
912 42 0.917904 0.556711 0.5
221 20 0.902151 0.585644 0.5
145 22 0.928287 0.585409 0.5
693 28 0.950385 0.570016 0.5
713 39 0.980115 0.578999 0.5
865 17 0.959941 0.607205 0.5
463 25 0.0329342 0.629692 0.5
610 30 0.0489605 0.606321 0.5
348 26 0.0862484 0.604765 0.5
741 35 0.0659828 0.632969 0.5
827 45 0.106767 0.63547 0.5
315 27 0.143055 0.634477 0.5
875 35 0.149683 0.60057 0.5
978 19 0.167445 0.621455 0.5
133 32 0.171324 0.647933 0.5
203 43 0.198743 0.629438 0.5
478 29 0.221716 0.59304 0.5
53 37 0.233901 0.623368 0.5
495 34 0.273229 0.616487 0.5
154 27 0.263105 0.645608 0.5
113 37 0.303986 0.630416 0.5
219 26 0.33937 0.625692 0.5
18 46 0.366992 0.64563 0.5
781 28 0.360601 0.602353 0.5
191 39 0.40198 0.622317 0.5
890 35 0.433978 0.619638 0.5
925 19 0.464189 0.617217 0.5
382 41 0.488566 0.633519 0.5
134 36 0.454334 0.64467 0.5
187 34 0.526184 0.623367 0.5
490 32 0.549056 0.646138 0.5
872 42 0.561912 0.602475 0.5
425 33 0.579721 0.638889 0.5
499 13 0.592938 0.615584 0.5
555 30 0.625194 0.596879 0.5
729 20 0.610123 0.628886 0.5
702 26 0.647086 0.613284 0.5
419 34 0.685695 0.605878 0.5
821 24 0.662561 0.639281 0.5
155 30 0.717724 0.601352 0.5
721 26 0.688384 0.635552 0.5
959 25 0.716861 0.631175 0.5
746 21 0.73986 0.614676 0.5
323 30 0.77233 0.62437 0.5
767 44 0.80386 0.611283 0.5
634 12 0.837515 0.627399 0.5
451 34 0.795776 0.645409 0.5
990 44 0.84766 0.600607 0.5
358 27 0.881154 0.600851 0.5
511 41 0.86262 0.644006 0.5
688 25 0.897657 0.638486 0.5
116 19 0.938496 0.614166 0.5
722 34 0.911701 0.612133 0.5
752 24 0.923422 0.641455 0.5
175 49 0.992917 0.624749 0.5
400 36 0.955703 0.63834 0.5
976 19 0.0129343 0.649295 0.5
469 39 0.0455597 0.666562 0.5
334 34 0.010259 0.678589 0.5
413 24 0.0809897 0.658986 0.5
966 22 0.0906792 0.685427 0.5
864 22 0.034227 0.698055 0.5
609 30 0.115736 0.66699 0.5
579 26 0.14577 0.66522 0.5
804 28 0.127916 0.693729 0.5
207 31 0.167154 0.683162 0.5
597 21 0.195615 0.659208 0.5
695 17 0.186178 0.700448 0.5
873 33 0.235646 0.658845 0.5
257 35 0.244359 0.691374 0.5
584 23 0.213723 0.678195 0.5
798 36 0.295946 0.665225 0.5
167 25 0.283428 0.691212 0.5
985 22 0.266288 0.672059 0.5
146 22 0.326143 0.648372 0.5
567 28 0.314363 0.696327 0.5
243 34 0.354509 0.682032 0.5
666 33 0.393196 0.680893 0.5
336 38 0.415207 0.654016 0.5
109 47 0.444191 0.678667 0.5
39 25 0.414984 0.69802 0.5
921 40 0.487463 0.674816 0.5
361 34 0.515669 0.653989 0.5
740 35 0.531065 0.681406 0.5
724 44 0.566873 0.680272 0.5
843 36 0.609407 0.696601 0.5
753 33 0.602141 0.662431 0.5
168 39 0.632337 0.647843 0.5
799 26 0.635519 0.679676 0.5
782 26 0.658475 0.665248 0.5
784 27 0.686444 0.664497 0.5
826 30 0.715908 0.664603 0.5
88 46 0.70119 0.69508 0.5
1000 38 0.745613 0.687428 0.5
158 37 0.753973 0.649781 0.5
942 23 0.774742 0.670523 0.5
95 33 0.781112 0.698409 0.5
481 30 0.805972 0.681542 0.5
305 29 0.835823 0.683006 0.5
156 22 0.881265 0.666732 0.5
902 29 0.885492 0.692829 0.5
442 37 0.909554 0.668432 0.5
710 40 0.947421 0.672883 0.5
893 29 0.984989 0.660791 0.5
794 31 0.982041 0.692238 0.5
9 26 0.0127253 0.71098 0.5
299 22 0.00584343 0.740774 0.5
580 26 0.0387077 0.722885 0.5
458 39 0.0651453 0.702492 0.5
368 34 0.0938926 0.743496 0.5
105 31 0.0634445 0.752602 0.5
783 24 0.0953785 0.713612 0.5
602 23 0.12193 0.727004 0.5
107 29 0.147558 0.713385 0.5
594 34 0.175295 0.724111 0.5
970 19 0.194428 0.743682 0.5
200 36 0.211241 0.709245 0.5
296 29 0.246481 0.723004 0.5
456 31 0.224368 0.742316 0.5
560 28 0.276102 0.722708 0.5
5 35 0.256768 0.751155 0.5
183 27 0.305616 0.72345 0.5
965 29 0.333592 0.718162 0.5
585 33 0.328937 0.751377 0.5
307 33 0.363724 0.737539 0.5
426 19 0.36156 0.7096 0.5
344 17 0.393168 0.711782 0.5
765 21 0.390877 0.735054 0.5
379 25 0.445749 0.711085 0.5
153 40 0.420278 0.734067 0.5
220 30 0.475731 0.707524 0.5
498 29 0.458684 0.738149 0.5
698 17 0.487914 0.737475 0.5
757 42 0.50776 0.707225 0.5
288 38 0.549683 0.710963 0.5
52 40 0.528754 0.737821 0.5
593 22 0.582541 0.715869 0.5
395 26 0.559084 0.74065 0.5
489 17 0.587645 0.748726 0.5
16 32 0.615617 0.74822 0.5
754 31 0.637088 0.717094 0.5
845 26 0.664878 0.72592 0.5
241 34 0.667024 0.694053 0.5
679 48 0.696449 0.735717 0.5
416 35 0.730836 0.721204 0.5
163 23 0.752798 0.742224 0.5
85 19 0.75813 0.716978 0.5
546 33 0.783112 0.729052 0.5
803 31 0.814605 0.723845 0.5
223 14 0.838554 0.730821 0.5
822 37 0.857638 0.707179 0.5
126 32 0.865407 0.743773 0.5
743 33 0.895219 0.730873 0.5
188 32 0.91329 0.707034 0.5
932 25 0.934554 0.725773 0.5
913 28 0.982787 0.727129 0.5
246 34 0.954302 0.70497 0.5
649 38 0.96125 0.753102 0.5
3 34 0.025827 0.770684 0.5
99 23 0.0422384 0.792842 0.5
938 20 0.993837 0.794728 0.5
516 44 0.072854 0.786193 0.5
466 48 0.146961 0.750441 0.5
696 26 0.118137 0.766888 0.5
513 26 0.138572 0.783753 0.5
270 32 0.116654 0.800857 0.5
41 31 0.175346 0.776253 0.5
531 24 0.207528 0.76365 0.5
125 30 0.235669 0.774629 0.5
545 42 0.265976 0.785136 0.5
786 41 0.290155 0.751383 0.5
247 21 0.299911 0.781625 0.5
550 22 0.323613 0.781324 0.5
552 29 0.355146 0.773139 0.5
385 32 0.380246 0.795524 0.5
590 22 0.398632 0.764633 0.5
130 27 0.350424 0.800173 0.5
1 24 0.440646 0.761354 0.5
84 25 0.407674 0.789252 0.5
58 26 0.436106 0.787615 0.5
789 27 0.466807 0.769845 0.5
836 28 0.488383 0.790192 0.5
34 31 0.498067 0.761169 0.5
407 24 0.522725 0.779157 0.5
796 25 0.552067 0.767311 0.5
628 31 0.551456 0.795347 0.5
56 26 0.595278 0.798708 0.5
169 17 0.5751 0.783293 0.5
747 21 0.598418 0.773692 0.5
161 25 0.625457 0.776732 0.5
341 23 0.652943 0.776149 0.5
719 20 0.642923 0.753837 0.5
715 19 0.670301 0.752499 0.5
32 18 0.692393 0.76867 0.5
578 28 0.699322 0.796558 0.5
347 50 0.723371 0.769408 0.5
64 32 0.72687 0.804173 0.5
255 29 0.754115 0.786124 0.5
486 40 0.77658 0.763005 0.5
968 41 0.783742 0.800967 0.5
314 32 0.836544 0.755367 0.5
708 24 0.80747 0.755686 0.5
797 32 0.820147 0.785141 0.5
120 30 0.863248 0.775031 0.5
662 33 0.922548 0.751398 0.5
68 32 0.925959 0.787119 0.5
199 39 0.894346 0.777669 0.5
465 26 0.989799 0.768441 0.5
61 33 0.961968 0.791044 0.5
953 28 0.0212127 0.812492 0.5
529 27 0.0137739 0.840396 0.5
661 30 0.0527185 0.823243 0.5
861 37 0.0866468 0.820911 0.5
866 28 0.121549 0.835505 0.5
505 34 0.155961 0.807583 0.5
328 20 0.185165 0.802991 0.5
676 31 0.180117 0.833156 0.5
418 36 0.210888 0.792282 0.5
304 26 0.205851 0.820937 0.5
987 36 0.22561 0.843647 0.5
331 25 0.23617 0.8162 0.5
140 29 0.28116 0.818442 0.5
261 41 0.296884 0.845888 0.5
284 37 0.259832 0.839815 0.5
316 41 0.311729 0.812548 0.5
997 36 0.340333 0.832682 0.5
177 21 0.36701 0.824679 0.5
128 31 0.396283 0.835508 0.5
599 34 0.420711 0.8161 0.5
981 29 0.445437 0.832247 0.5
570 35 0.462358 0.806255 0.5
690 25 0.48841 0.827779 0.5
881 25 0.4743 0.84928 0.5
430 34 0.511896 0.807219 0.5
774 35 0.537685 0.830112 0.5
450 21 0.510957 0.837683 0.5
883 38 0.571608 0.820779 0.5
926 35 0.604296 0.827552 0.5
42 45 0.637814 0.81128 0.5
808 24 0.670789 0.794073 0.5
152 36 0.670348 0.824956 0.5
23 26 0.704026 0.829609 0.5
474 27 0.708608 0.857628 0.5
851 32 0.73546 0.847926 0.5
345 33 0.754298 0.815761 0.5
492 43 0.787645 0.837258 0.5
588 24 0.796932 0.868966 0.5
559 34 0.8159 0.818955 0.5
150 42 0.848134 0.803627 0.5
488 24 0.856888 0.843112 0.5
171 35 0.879074 0.820371 0.5
138 32 0.908219 0.811291 0.5
582 27 0.94545 0.849241 0.5
792 31 0.988135 0.820788 0.5
577 39 0.939622 0.81563 0.5
106 15 0.963602 0.832043 0.5
51 32 0.037817 0.862437 0.5
664 32 0.0039039 0.867838 0.5
405 28 0.0296745 0.892347 0.5
20 37 0.0771452 0.85256 0.5
879 35 0.094705 0.880384 0.5
517 39 0.127605 0.865892 0.5
441 29 0.152241 0.840231 0.5
689 30 0.198902 0.862526 0.5
751 22 0.16884 0.863545 0.5
333 30 0.177874 0.891357 0.5
856 26 0.236723 0.872486 0.5
174 31 0.271448 0.870387 0.5
554 28 0.298142 0.882584 0.5
231 32 0.324384 0.862921 0.5
253 29 0.323357 0.893439 0.5
999 39 0.354352 0.877298 0.5
909 26 0.377645 0.857233 0.5
772 33 0.389402 0.883343 0.5
373 37 0.420463 0.855955 0.5
665 46 0.423805 0.894755 0.5
620 26 0.450166 0.860091 0.5
204 35 0.497677 0.867569 0.5
886 27 0.469378 0.878963 0.5
824 32 0.529681 0.866 0.5
744 34 0.552272 0.8867 0.5
65 32 0.558231 0.856 0.5
776 31 0.586194 0.878016 0.5
958 19 0.584927 0.847875 0.5
77 15 0.61075 0.852599 0.5
612 25 0.634058 0.878667 0.5
544 27 0.644052 0.854445 0.5
941 28 0.661267 0.879065 0.5
471 22 0.681368 0.859548 0.5
825 39 0.690464 0.888726 0.5
887 33 0.733186 0.881846 0.5
986 27 0.716815 0.907892 0.5
802 37 0.761564 0.865237 0.5
897 31 0.788677 0.895544 0.5
115 19 0.759753 0.893503 0.5
295 34 0.827374 0.854348 0.5
625 33 0.819787 0.885154 0.5
854 27 0.851415 0.871346 0.5
787 25 0.87804 0.85977 0.5
871 27 0.87399 0.88602 0.5
198 37 0.914643 0.848607 0.5
562 39 0.937588 0.883704 0.5
884 39 0.904154 0.887182 0.5
678 29 0.965697 0.870865 0.5
507 28 0.994494 0.897923 0.5
955 27 0.0660377 0.886494 0.5
346 29 0.0251485 0.922375 0.5
945 36 0.0576162 0.931787 0.5
512 32 0.0889569 0.913696 0.5
948 39 0.146399 0.897874 0.5
766 28 0.115786 0.902339 0.5
944 29 0.148392 0.931946 0.5
282 26 0.118411 0.93114 0.5
967 22 0.171775 0.917816 0.5
428 27 0.197813 0.911657 0.5
311 26 0.182235 0.940591 0.5
212 22 0.215303 0.89332 0.5
415 22 0.238291 0.910073 0.5
691 42 0.21344 0.944219 0.5
321 31 0.251128 0.944399 0.5
669 44 0.269103 0.903938 0.5
581 20 0.302325 0.915009 0.5
406 29 0.317237 0.936774 0.5
618 38 0.345344 0.919503 0.5
885 22 0.375686 0.931932 0.5
629 23 0.370137 0.902919 0.5
616 29 0.394377 0.913479 0.5
259 15 0.396619 0.942562 0.5
195 39 0.421532 0.930068 0.5
855 31 0.489758 0.903217 0.5
78 15 0.464823 0.911016 0.5
312 42 0.472656 0.942141 0.5
882 38 0.521565 0.898773 0.5
414 36 0.547526 0.925136 0.5
652 46 0.5136 0.934895 0.5
37 28 0.576105 0.906488 0.5
8 23 0.582832 0.937055 0.5
500 46 0.610987 0.914189 0.5
738 33 0.635531 0.937755 0.5
957 38 0.6509 0.907828 0.5
566 32 0.695713 0.946945 0.5
55 27 0.666352 0.938364 0.5
974 24 0.686104 0.920597 0.5
496 30 0.723669 0.938741 0.5
310 34 0.786116 0.925493 0.5
411 31 0.753349 0.919976 0.5
473 31 0.79719 0.954143 0.5
27 34 0.763834 0.949693 0.5
101 26 0.812787 0.912651 0.5
90 43 0.84781 0.91255 0.5
262 32 0.826449 0.937886 0.5
683 36 0.882192 0.915196 0.5
279 33 0.906573 0.937854 0.5
717 30 0.923758 0.912473 0.5
245 18 0.994601 0.924338 0.5
412 28 0.956872 0.907669 0.5
129 39 0.968602 0.938602 0.5
276 37 0.0367957 0.965989 0.5
820 29 0.05525 0.993824 0.5
381 33 0.0104425 0.947438 0.5
62 27 0.0828868 0.00579776 0.5
606 36 0.0695464 0.967019 0.5
867 40 0.102581 0.981053 0.5
44 34 0.137597 0.991523 0.5
54 28 0.0922276 0.946261 0.5
286 31 0.131294 0.958307 0.5
239 37 0.169868 0.998835 0.5
159 36 0.167153 0.965735 0.5
704 36 0.196288 0.979131 0.5
522 38 0.234172 0.980908 0.5
185 39 0.283228 0.936427 0.5
816 33 0.279398 0.970532 0.5
160 28 0.347929 0.950337 0.5
960 44 0.318214 0.970364 0.5
110 30 0.354245 0.977719 0.5
217 33 0.381698 0.993368 0.5
319 29 0.377206 0.95754 0.5
285 30 0.402783 0.970024 0.5
790 33 0.434059 0.960129 0.5
963 25 0.461625 0.973795 0.5
962 53 0.496699 0.97532 0.5
372 25 0.536824 0.99841 0.5
745 37 0.534828 0.966615 0.5
924 23 0.560833 0.952321 0.5
173 30 0.564104 0.97915 0.5
30 33 0.592091 0.963356 0.5
244 28 0.603063 0.005349 0.5
894 25 0.620392 0.966138 0.5
36 39 0.651087 0.966441 0.5
994 27 0.680746 0.97425 0.5
700 24 0.693888 0.997752 0.5
209 24 0.713187 0.972394 0.5
377 25 0.738149 0.9656 0.5
674 26 0.742675 0.994178 0.5
524 35 0.778235 0.981717 0.5
403 23 0.8067 0.98744 0.5
40 43 0.831413 0.970509 0.5
2 28 0.870904 0.963924 0.5
92 26 0.89874 0.972064 0.5
258 41 0.944631 0.979979 0.5
452 34 0.937028 0.946325 0.5
482 29 0.00542612 0.980561 0.5
127 20 0.973657 0.969306 0.5
