ITEM: TIMESTEP
250000
ITEM: NUMBER OF ATOMS
1000
ITEM: BOX BOUNDS pp pp pp
-1.7671617000000001e+01 1.7671617000000001e+01
-1.7671617000000001e+01 1.7671617000000001e+01
-5.0000000000000000e-01 5.0000000000000000e-01
ITEM: ATOMS id type xs ys zs
935 23 0.0503243 0.0192021 0.5
694 31 0.0272363 0.0425139 0.5
455 31 0.0210575 0.0108237 0.5
440 43 0.0828267 0.0133696 0.5
720 27 0.120117 -0.00212509 0.5
970 19 0.143888 0.0101798 0.5
256 34 0.113124 0.0304479 0.5
651 21 0.201921 0.00149373 0.5
816 33 0.205678 0.0313135 0.5
639 18 0.174802 0.0319022 0.5
469 39 0.234263 0.00807621 0.5
758 18 0.233466 0.0395127 0.5
670 35 0.273996 0.00480463 0.5
125 30 0.260232 0.031883 0.5
177 21 0.291672 0.0301707 0.5
167 25 0.308786 0.0571735 0.5
549 29 0.289822 0.972741 0.5
562 39 0.308983 0.00521229 0.5
9 26 0.372267 0.0103469 0.5
322 19 0.35236 0.0275146 0.5
462 28 0.376214 0.0386694 0.5
948 39 0.415835 0.0591206 0.5
771 23 0.398309 0.0199535 0.5
49 26 0.443717 0.0417111 0.5
394 29 0.421545 0.991594 0.5
116 19 0.421561 0.0269478 0.5
291 25 0.504889 0.052654 0.5
645 34 0.481164 0.989755 0.5
331 25 0.508522 -0.00168458 0.5
185 39 0.525699 0.0289412 0.5
1000 38 0.543199 0.995308 0.5
893 29 0.560772 0.024398 0.5
405 28 0.586981 0.00750324 0.5
768 31 0.58827 0.0378476 0.5
658 38 0.619452 -0.0068377 0.5
478 29 0.618577 0.0272135 0.5
797 32 0.646438 0.0160006 0.5
512 32 0.677514 0.0175416 0.5
544 27 0.708459 0.042542 0.5
504 43 0.717273 0.00942115 0.5
456 31 0.678526 0.0502627 0.5
374 36 0.752982 0.0119728 0.5
760 24 0.736532 0.0378643 0.5
741 35 0.765313 0.0484891 0.5
249 35 0.825239 0.0519149 0.5
151 41 0.794903 0.0282458 0.5
91 22 0.835955 0.0210937 0.5
631 30 0.85533 0.0408995 0.5
393 42 0.879325 0.0119608 0.5
712 29 0.916536 0.0256576 0.5
193 27 0.940483 0.00363072 0.5
67 30 0.944298 0.0376911 0.5
770 45 0.8909 0.0473394 0.5
81 26 0.965059 0.0165344 0.5
162 32 0.99548 0.0331942 0.5
352 25 0.989398 0.00423782 0.5
406 29 0.0363982 0.0730132 0.5
60 25 0.0122654 0.0967923 0.5
104 23 0.0682379 0.0793239 0.5
882 38 0.05915 0.049214 0.5
525 24 0.0898567 0.0471949 0.5
260 27 0.0940827 0.0758447 0.5
132 31 0.146157 0.0394668 0.5
89 30 0.122919 0.0619451 0.5
671 23 0.155513 0.0666624 0.5
932 25 0.18811 0.0544424 0.5
554 28 0.217624 0.0625429 0.5
265 46 0.187219 0.091254 0.5
390 33 0.249634 0.0676683 0.5
989 36 0.226433 0.0946819 0.5
837 34 0.259085 0.101819 0.5
20 37 0.28064 0.0749169 0.5
168 39 0.320416 0.0905726 0.5
942 23 0.289291 0.104986 0.5
87 27 0.32361 0.0325247 0.5
500 46 0.344451 0.0598097 0.5
72 23 0.34397 0.112903 0.5
493 22 0.355377 0.0906253 0.5
668 19 0.370377 0.128049 0.5
333 30 0.381753 0.0704402 0.5
953 28 0.473009 0.0607058 0.5
166 30 0.444509 0.0737132 0.5
165 19 0.471872 0.0870591 0.5
517 39 0.504056 0.0869767 0.5
349 45 0.485266 0.0258701 0.5
73 31 0.531853 0.0612854 0.5
480 24 0.564752 0.0565372 0.5
867 40 0.549048 0.0909057 0.5
496 30 0.61262 0.0995974 0.5
606 36 0.58625 0.0777417 0.5
25 34 0.613739 0.0578082 0.5
875 35 0.645385 0.0493256 0.5
698 17 0.633529 0.0849077 0.5
26 43 0.663545 0.0809362 0.5
277 24 0.699618 0.0712886 0.5
940 26 0.757907 0.0790544 0.5
696 26 0.726677 0.0651155 0.5
447 39 0.729646 0.0966174 0.5
428 27 0.795735 0.0661321 0.5
857 43 0.822452 0.0897657 0.5
202 42 0.85824 0.073695 0.5
293 38 0.892259 0.0855865 0.5
575 33 0.92443 0.0609713 0.5
414 36 0.00370646 0.0668689 0.5
958 19 0.951444 0.0756597 0.5
155 30 0.974164 0.0580593 0.5
841 31 0.0456196 0.102435 0.5
597 21 0.997968 0.129219 0.5
18 46 0.0307723 0.136728 0.5
806 26 0.0826384 0.102854 0.5
885 22 0.10542 0.123747 0.5
551 30 0.0655149 0.130581 0.5
608 29 0.153462 0.0994389 0.5
623 39 0.122297 0.0958058 0.5
834 31 0.133369 0.129051 0.5
298 41 0.172054 0.126627 0.5
228 26 0.204774 0.120434 0.5
126 32 0.234618 0.130774 0.5
107 29 0.252082 0.167234 0.5
550 22 0.299905 0.131009 0.5
563 38 0.268197 0.138063 0.5
756 27 0.309575 0.156069 0.5
692 27 0.379221 0.101411 0.5
717 30 0.337525 0.140846 0.5
491 29 0.365979 0.154749 0.5
740 35 0.413308 0.0933815 0.5
31 20 0.450902 0.101486 0.5
488 24 0.430705 0.126114 0.5
435 20 0.424021 0.150336 0.5
252 37 0.456498 0.144713 0.5
814 31 0.476726 0.119729 0.5
979 37 0.492945 0.149811 0.5
832 45 0.517827 0.122892 0.5
618 38 0.552661 0.133168 0.5
879 35 0.583719 0.112774 0.5
475 24 0.614566 0.133682 0.5
745 37 0.588213 0.148647 0.5
115 19 0.635024 0.117127 0.5
503 40 0.665456 0.11962 0.5
446 27 0.638581 0.145379 0.5
188 32 0.666767 0.158025 0.5
998 31 0.694178 0.101174 0.5
2 28 0.693684 0.136496 0.5
418 36 0.724788 0.132003 0.5
336 38 0.757753 0.119379 0.5
41 31 0.743121 0.159738 0.5
961 29 0.790446 0.0964747 0.5
574 18 0.771574 0.147929 0.5
566 32 0.804603 0.1578 0.5
662 33 0.792211 0.128936 0.5
400 36 0.853822 0.108151 0.5
710 40 0.833011 0.135977 0.5
466 48 0.89863 0.125042 0.5
22 35 0.926654 0.098737 0.5
350 10 0.948307 0.113596 0.5
419 34 0.99077 0.156636 0.5
707 52 0.977975 0.0979832 0.5
706 33 0.967518 0.133645 0.5
977 38 0.0270643 0.175036 0.5
822 37 0.0594281 0.161581 0.5
883 38 0.0908509 0.182871 0.5
427 31 0.094138 0.14915 0.5
787 25 0.120685 0.161569 0.5
750 33 0.153709 0.15621 0.5
464 30 0.131519 0.188967 0.5
543 35 0.189691 0.158286 0.5
11 40 0.166546 0.188635 0.5
239 37 0.201068 0.192168 0.5
140 29 0.222122 0.164704 0.5
153 40 0.238103 0.198931 0.5
186 32 0.273695 0.202073 0.5
860 30 0.283016 0.168872 0.5
902 29 0.295699 0.225638 0.5
591 24 0.305754 0.188974 0.5
376 44 0.337847 0.177905 0.5
899 19 0.353001 0.206047 0.5
929 35 0.376888 0.185625 0.5
783 24 0.352246 0.236558 0.5
802 37 0.399631 0.127049 0.5
560 28 0.401764 0.164937 0.5
383 37 0.378632 0.222916 0.5
506 39 0.442419 0.178442 0.5
304 26 0.448888 0.212171 0.5
619 32 0.476289 0.180109 0.5
877 28 0.507749 0.187531 0.5
595 37 0.527657 0.158865 0.5
988 14 0.536936 0.191254 0.5
174 31 0.557831 0.167242 0.5
57 33 0.562001 0.199027 0.5
784 27 0.613847 0.167167 0.5
888 27 0.587163 0.184185 0.5
906 42 0.61205 0.204651 0.5
733 41 0.642579 0.181102 0.5
973 18 0.683169 0.213375 0.5
497 33 0.710064 0.162764 0.5
76 24 0.68228 0.185121 0.5
542 32 0.710236 0.1971 0.5
622 27 0.740702 0.190687 0.5
738 33 0.796721 0.1905 0.5
723 28 0.770638 0.207352 0.5
487 30 0.767327 0.176949 0.5
628 31 0.826608 0.182298 0.5
4 34 0.854791 0.16422 0.5
850 20 0.865716 0.135892 0.5
95 33 0.874118 0.195559 0.5
633 30 0.884024 0.157485 0.5
664 32 0.915918 0.160444 0.5
693 28 0.934837 0.136119 0.5
389 43 0.953335 0.169045 0.5
788 35 0.0213709 0.211377 0.5
754 31 0.00983853 0.241639 0.5
739 48 0.047344 0.237613 0.5
966 22 0.0596272 0.197645 0.5
372 25 0.111726 0.211862 0.5
371 29 0.0835783 0.222385 0.5
184 25 0.078175 0.254787 0.5
40 43 0.114168 0.246132 0.5
789 27 0.139123 0.220411 0.5
212 22 0.14721 0.245446 0.5
357 39 0.171851 0.226263 0.5
602 23 0.216462 0.219936 0.5
432 28 0.201025 0.246629 0.5
154 27 0.240354 0.23378 0.5
801 24 0.230793 0.258418 0.5
59 20 0.268187 0.232416 0.5
45 27 0.286687 0.254627 0.5
108 34 0.325649 0.215618 0.5
972 28 0.314805 0.278129 0.5
404 31 0.317553 0.247728 0.5
620 26 0.342581 0.272375 0.5
826 30 0.372554 0.260562 0.5
133 32 0.40008 0.27405 0.5
278 34 0.4077 0.241254 0.5
324 42 0.411916 0.196837 0.5
674 26 0.458313 0.238358 0.5
6 7 0.43018 0.226603 0.5
384 47 0.487213 0.216766 0.5
715 19 0.483442 0.257238 0.5
921 40 0.529103 0.218733 0.5
42 45 0.516354 0.253574 0.5
765 21 0.55675 0.234362 0.5
897 31 0.584157 0.254354 0.5
17 25 0.582352 0.22413 0.5
276 37 0.615763 0.244834 0.5
175 49 0.649444 0.220825 0.5
713 39 0.643581 0.268276 0.5
134 36 0.674295 0.251645 0.5
781 28 0.702375 0.232595 0.5
345 33 0.733063 0.223582 0.5
24 29 0.759803 0.237344 0.5
793 28 0.766629 0.268254 0.5
269 32 0.790096 0.231366 0.5
191 39 0.820229 0.216048 0.5
514 23 0.826683 0.248227 0.5
119 28 0.801533 0.26085 0.5
786 41 0.855555 0.230938 0.5
729 20 0.882845 0.249079 0.5
700 24 0.909464 0.237491 0.5
379 25 0.886973 0.222218 0.5
785 34 0.917202 0.193462 0.5
144 35 0.952966 0.203938 0.5
524 35 0.983942 0.191631 0.5
600 38 0.977992 0.22918 0.5
564 25 0.026674 0.264678 0.5
297 30 0.0225108 0.29845 0.5
586 47 0.0550139 0.282518 0.5
571 48 0.106479 0.286927 0.5
460 36 0.143116 0.275938 0.5
474 27 0.172536 0.259758 0.5
195 39 0.208605 0.281869 0.5
993 29 0.248815 0.282836 0.5
659 37 0.232988 0.311037 0.5
584 23 0.259373 0.258007 0.5
209 24 0.265383 0.313197 0.5
235 37 0.283206 0.28536 0.5
190 44 0.303976 0.315413 0.5
653 22 0.3322 0.299315 0.5
691 42 0.369458 0.294927 0.5
53 37 0.404065 0.308908 0.5
207 31 0.434614 0.259209 0.5
351 31 0.463447 0.274674 0.5
62 27 0.432442 0.293501 0.5
900 22 0.414852 0.338068 0.5
690 25 0.496325 0.285256 0.5
112 23 0.522258 0.290647 0.5
755 23 0.465515 0.30496 0.5
105 31 0.495025 0.315047 0.5
128 31 0.527983 0.323709 0.5
965 29 0.550491 0.266949 0.5
796 25 0.55103 0.2983 0.5
111 28 0.575169 0.282544 0.5
479 16 0.602173 0.317459 0.5
521 33 0.605488 0.277697 0.5
282 26 0.575423 0.313294 0.5
827 45 0.630335 0.304945 0.5
601 31 0.672458 0.28525 0.5
77 15 0.698533 0.274588 0.5
854 27 0.718736 0.293908 0.5
725 42 0.732706 0.261235 0.5
183 27 0.750051 0.291716 0.5
812 25 0.767565 0.314407 0.5
949 36 0.796131 0.291555 0.5
614 29 0.824317 0.277479 0.5
908 17 0.81947 0.308117 0.5
920 28 0.858711 0.26719 0.5
762 33 0.847082 0.303377 0.5
438 26 0.889285 0.275528 0.5
403 23 0.876879 0.300282 0.5
326 48 0.923131 0.269272 0.5
219 26 0.935139 0.228796 0.5
213 32 0.90566 0.301516 0.5
410 44 0.962192 0.286195 0.5
364 33 0.986476 0.261658 0.5
971 16 1.00458 0.279678 0.5
936 22 0.955628 0.25357 0.5
441 29 0.00621521 0.331256 0.5
538 35 0.0387575 0.328625 0.5
98 37 0.0222086 0.366942 0.5
536 26 0.068465 0.317083 0.5
5 35 0.0661139 0.351373 0.5
630 32 0.101209 0.32666 0.5
373 37 0.133168 0.309253 0.5
229 33 0.130232 0.345984 0.5
92 26 0.102672 0.357622 0.5
728 35 0.172486 0.290609 0.5
534 35 0.164606 0.324998 0.5
408 26 0.188386 0.344459 0.5
179 31 0.197186 0.315036 0.5
395 26 0.205212 0.36999 0.5
705 28 0.21748 0.340429 0.5
220 30 0.258149 0.342494 0.5
946 29 0.289479 0.346773 0.5
257 35 0.322299 0.349573 0.5
732 27 0.34764 0.32595 0.5
96 30 0.354127 0.356818 0.5
928 34 0.380796 0.333325 0.5
833 33 0.393397 0.365932 0.5
683 36 0.44175 0.323419 0.5
604 18 0.425762 0.363278 0.5
596 26 0.452343 0.365366 0.5
522 38 0.503344 0.353982 0.5
915 25 0.475106 0.340722 0.5
83 31 0.544002 0.36074 0.5
919 21 0.557033 0.334034 0.5
848 28 0.58421 0.340806 0.5
323 30 0.616406 0.340155 0.5
774 35 0.598831 0.369102 0.5
27 34 0.650824 0.33868 0.5
585 33 0.693635 0.30996 0.5
94 22 0.663749 0.312175 0.5
730 32 0.683407 0.346431 0.5
918 43 0.636274 0.374408 0.5
392 30 0.71601 0.339617 0.5
967 22 0.739502 0.321615 0.5
764 40 0.762711 0.346389 0.5
588 24 0.735259 0.362677 0.5
135 28 0.79469 0.326236 0.5
960 44 0.827342 0.338067 0.5
141 33 0.795883 0.359384 0.5
647 30 0.866618 0.329236 0.5
130 27 0.856224 0.359802 0.5
423 35 0.90132 0.334682 0.5
636 19 0.883173 0.356902 0.5
868 41 0.9361 0.319722 0.5
433 22 0.930431 0.351879 0.5
120 30 0.990973 0.305443 0.5
164 35 0.970075 0.329312 0.5
242 38 0.988154 0.359746 0.5
259 15 0.0050978 0.414463 0.5
465 26 0.00107929 0.389282 0.5
830 28 0.0294299 0.399585 0.5
63 28 0.0527432 0.378411 0.5
261 41 0.0609202 0.409458 0.5
273 27 0.0883981 0.386118 0.5
951 29 0.125995 0.37536 0.5
680 29 0.114824 0.411772 0.5
569 34 0.160333 0.394291 0.5
686 30 0.160268 0.358864 0.5
29 28 0.191862 0.40387 0.5
656 17 0.1826 0.378286 0.5
627 34 0.236058 0.364916 0.5
552 29 0.222048 0.400092 0.5
617 34 0.264843 0.383223 0.5
391 22 0.29557 0.377149 0.5
401 22 0.284199 0.407232 0.5
8 23 0.331322 0.379544 0.5
102 19 0.30797 0.397767 0.5
38 29 0.331454 0.411841 0.5
412 28 0.360701 0.426043 0.5
665 46 0.3657 0.391325 0.5
71 35 0.417121 0.389612 0.5
963 25 0.38839 0.415631 0.5
321 31 0.42149 0.421592 0.5
288 38 0.452326 0.397309 0.5
21 31 0.453091 0.430494 0.5
573 30 0.479104 0.378208 0.5
638 55 0.514219 0.39235 0.5
46 35 0.481014 0.416098 0.5
892 19 0.567145 0.379079 0.5
531 24 0.549993 0.397745 0.5
463 25 0.507541 0.432321 0.5
481 30 0.591184 0.397904 0.5
495 34 0.625986 0.409973 0.5
923 35 0.660901 0.404492 0.5
708 24 0.668487 0.372652 0.5
258 41 0.70461 0.375301 0.5
200 36 0.70492 0.411625 0.5
43 37 0.7366 0.394023 0.5
790 33 0.768739 0.378988 0.5
866 28 0.763972 0.410103 0.5
661 30 0.795152 0.393494 0.5
7 36 0.826689 0.415412 0.5
171 35 0.823275 0.375801 0.5
968 41 0.854794 0.39627 0.5
131 26 0.886746 0.387398 0.5
791 25 0.892223 0.416135 0.5
532 27 0.906543 0.366942 0.5
648 22 0.912594 0.397811 0.5
250 30 0.937534 0.383556 0.5
886 27 0.956436 0.35783 0.5
792 31 0.971169 0.388053 0.5
992 40 0.952883 0.415347 0.5
872 42 0.0303598 0.433988 0.5
876 31 1.00377 0.459577 0.5
577 39 0.983132 0.435639 0.5
205 26 0.0375205 0.470098 0.5
314 32 0.0619186 0.450343 0.5
226 32 0.0926147 0.466339 0.5
152 36 0.0887011 0.430448 0.5
809 25 0.119346 0.440486 0.5
23 26 0.143264 0.420609 0.5
731 36 0.180927 0.436136 0.5
234 35 0.151487 0.450995 0.5
100 34 0.215647 0.431088 0.5
916 23 0.209031 0.459847 0.5
210 26 0.252664 0.410188 0.5
244 28 0.245031 0.442728 0.5
398 41 0.27972 0.466413 0.5
747 21 0.270986 0.430277 0.5
457 40 0.304038 0.430858 0.5
914 23 0.334645 0.442291 0.5
815 30 0.351515 0.464563 0.5
470 29 0.314084 0.461404 0.5
236 45 0.384566 0.451465 0.5
904 36 0.424239 0.456577 0.5
995 23 0.37155 0.489106 0.5
626 37 0.458949 0.462988 0.5
572 35 0.496834 0.47241 0.5
489 17 0.485258 0.44552 0.5
251 32 0.525718 0.458011 0.5
311 26 0.534713 0.423993 0.5
736 23 0.566637 0.41968 0.5
637 27 0.556219 0.44771 0.5
962 53 0.594678 0.43899 0.5
338 28 0.616865 0.469803 0.5
861 37 0.636292 0.441727 0.5
541 34 0.67467 0.435458 0.5
3 34 0.665941 0.46616 0.5
533 37 0.72795 0.441151 0.5
312 42 0.703909 0.467556 0.5
688 25 0.758715 0.438139 0.5
643 26 0.778498 0.457277 0.5
669 44 0.741706 0.473685 0.5
714 29 0.80856 0.475509 0.5
295 34 0.790672 0.42681 0.5
605 22 0.809214 0.447431 0.5
450 21 0.839657 0.463615 0.5
52 40 0.860192 0.434609 0.5
911 28 0.894388 0.444089 0.5
299 22 0.865204 0.464827 0.5
578 28 0.92126 0.427035 0.5
48 23 0.892634 0.472391 0.5
145 22 0.953947 0.446542 0.5
416 35 0.926206 0.45895 0.5
924 23 0.970397 0.465583 0.5
97 20 0.94485 0.483003 0.5
836 28 0.0372217 0.501323 0.5
360 11 0.0140538 0.482142 0.5
359 35 0.989079 0.489364 0.5
903 31 0.00898999 0.51477 0.5
74 37 0.0667675 0.482893 0.5
315 27 0.100203 0.499611 0.5
361 34 0.0778409 0.524595 0.5
266 37 0.124961 0.47594 0.5
287 38 0.130717 0.511377 0.5
422 30 0.18033 0.469808 0.5
101 26 0.154763 0.487456 0.5
956 34 0.18239 0.501919 0.5
735 26 0.209048 0.487179 0.5
36 39 0.242341 0.476933 0.5
285 30 0.26307 0.503832 0.5
721 26 0.259272 0.535258 0.5
337 28 0.299751 0.499678 0.5
284 37 0.330172 0.489672 0.5
437 33 0.399348 0.485524 0.5
937 32 0.385208 0.515628 0.5
722 34 0.416724 0.521176 0.5
386 39 0.432939 0.49085 0.5
335 35 0.449423 0.519715 0.5
703 30 0.471886 0.496351 0.5
840 24 0.522981 0.488547 0.5
494 19 0.502255 0.501954 0.5
878 32 0.553655 0.484806 0.5
329 36 0.53704 0.516841 0.5
203 43 0.572563 0.515503 0.5
599 34 0.586138 0.481461 0.5
246 34 0.608701 0.505639 0.5
757 42 0.642631 0.492306 0.5
306 25 0.665691 0.528702 0.5
477 31 0.681129 0.494754 0.5
123 12 0.714583 0.499811 0.5
471 22 0.750136 0.505486 0.5
938 20 0.724313 0.520317 0.5
163 23 0.772653 0.522966 0.5
858 34 0.80496 0.538326 0.5
510 37 0.777304 0.489208 0.5
289 19 0.748641 0.531331 0.5
931 29 0.808605 0.506444 0.5
567 28 0.835115 0.492197 0.5
317 40 0.837022 0.525282 0.5
895 28 0.872598 0.534417 0.5
93 48 0.871689 0.500172 0.5
990 44 0.916177 0.497559 0.5
223 14 0.963838 0.496749 0.5
748 37 0.978704 0.524842 0.5
238 22 0.946298 0.51318 0.5
215 26 0.0242992 0.569179 0.5
939 40 0.042198 0.534732 0.5
498 29 0.0809566 0.557785 0.5
508 26 0.0514361 0.570751 0.5
947 35 0.108083 0.543303 0.5
804 28 0.104301 0.577486 0.5
117 32 0.144944 0.54279 0.5
499 13 0.161633 0.518031 0.5
10 29 0.178238 0.536967 0.5
344 17 0.198553 0.553128 0.5
666 33 0.164667 0.56973 0.5
594 34 0.232114 0.51149 0.5
864 22 0.203379 0.521366 0.5
702 26 0.226152 0.575979 0.5
852 35 0.227889 0.544219 0.5
624 21 0.27669 0.55294 0.5
327 31 0.290553 0.530962 0.5
486 40 0.311714 0.559087 0.5
981 29 0.320673 0.520857 0.5
122 30 0.353233 0.515699 0.5
513 26 0.340698 0.541338 0.5
70 26 0.403059 0.550586 0.5
354 36 0.372121 0.54654 0.5
777 25 0.435923 0.549827 0.5
537 25 0.413913 0.590192 0.5
612 25 0.438602 0.57664 0.5
330 26 0.466901 0.580229 0.5
955 27 0.469189 0.551116 0.5
206 32 0.48251 0.524483 0.5
810 31 0.497041 0.574007 0.5
570 35 0.514951 0.542499 0.5
110 30 0.530344 0.58049 0.5
805 26 0.58579 0.563151 0.5
88 46 0.553226 0.551055 0.5
950 32 0.600775 0.538025 0.5
632 30 0.634897 0.537447 0.5
880 44 0.6195 0.569755 0.5
843 36 0.694926 0.52586 0.5
798 36 0.657029 0.561798 0.5
621 26 0.688444 0.563089 0.5
997 36 0.720021 0.551202 0.5
189 5 0.744609 0.55098 0.5
275 32 0.752465 0.571789 0.5
341 23 0.777255 0.586028 0.5
271 29 0.77998 0.553351 0.5
382 41 0.807862 0.572447 0.5
397 33 0.833437 0.598563 0.5
307 33 0.842531 0.561594 0.5
37 28 0.897177 0.550241 0.5
695 17 0.872626 0.561211 0.5
353 28 0.863527 0.587044 0.5
523 18 0.897903 0.523458 0.5
907 25 0.920391 0.569765 0.5
482 29 0.89273 0.579597 0.5
654 22 0.921452 0.532153 0.5
819 29 0.947606 0.542099 0.5
641 29 0.00518332 0.544499 0.5
33 30 0.999957 0.585485 0.5
211 13 0.0362147 0.627318 0.5
505 34 1.00688 0.620103 0.5
676 31 0.0451533 0.598786 0.5
590 22 0.0709812 0.586099 0.5
208 32 0.0876909 0.611037 0.5
905 30 0.11853 0.648833 0.5
467 32 0.133319 0.581058 0.5
501 36 0.121064 0.61565 0.5
280 41 0.164643 0.603099 0.5
362 33 0.195933 0.582051 0.5
635 19 0.218075 0.606055 0.5
644 30 0.254162 0.570738 0.5
109 47 0.250577 0.608192 0.5
79 41 0.28793 0.587765 0.5
697 39 0.313574 0.619646 0.5
149 26 0.320679 0.591028 0.5
767 44 0.351125 0.575404 0.5
429 25 0.345633 0.609269 0.5
319 29 0.374374 0.605755 0.5
845 26 0.385113 0.574864 0.5
157 33 0.439397 0.614043 0.5
980 27 0.469293 0.60859 0.5
887 33 0.483252 0.634374 0.5
292 27 0.505934 0.602455 0.5
61 33 0.536587 0.612437 0.5
974 24 0.5126 0.633097 0.5
201 35 0.540677 0.645157 0.5
825 39 0.561342 0.588547 0.5
844 34 0.567278 0.62533 0.5
759 38 0.595785 0.59823 0.5
56 26 0.619789 0.61843 0.5
930 24 0.645302 0.592652 0.5
492 43 0.660997 0.621737 0.5
889 27 0.676541 0.590953 0.5
518 30 0.737047 0.602022 0.5
898 27 0.710273 0.580437 0.5
609 30 0.703102 0.608918 0.5
262 32 0.76917 0.613619 0.5
526 30 0.760623 0.644758 0.5
820 29 0.801002 0.60495 0.5
598 35 0.826659 0.630013 0.5
366 29 0.860225 0.618698 0.5
365 26 0.89064 0.613291 0.5
912 42 0.881354 0.646183 0.5
869 33 0.918403 0.59966 0.5
147 30 0.94782 0.618126 0.5
86 30 0.922105 0.634303 0.5
795 38 0.975001 0.562409 0.5
13 32 0.976823 0.605544 0.5
999 39 0.948478 0.584997 0.5
47 31 0.0344362 0.654188 0.5
99 23 0.0629308 0.654686 0.5
987 36 0.059907 0.684449 0.5
871 27 0.0608676 0.62498 0.5
582 27 0.0885502 0.64607 0.5
187 34 0.0920494 0.676421 0.5
673 25 0.120744 0.682853 0.5
453 23 0.112389 0.708939 0.5
54 28 0.19357 0.619436 0.5
444 35 0.15023 0.636101 0.5
243 34 0.181959 0.649227 0.5
769 28 0.150705 0.669192 0.5
279 33 0.222279 0.634613 0.5
579 26 0.255694 0.643952 0.5
873 33 0.212199 0.665985 0.5
472 25 0.281226 0.626545 0.5
975 25 0.371142 0.634943 0.5
687 34 0.396845 0.649904 0.5
222 34 0.340327 0.641939 0.5
753 33 0.404458 0.617542 0.5
890 35 0.387396 0.69648 0.5
954 21 0.427504 0.641744 0.5
300 39 0.42271 0.672075 0.5
985 22 0.453368 0.638731 0.5
507 28 0.463373 0.66756 0.5
436 31 0.534986 0.675994 0.5
320 34 0.501712 0.666057 0.5
347 50 0.573026 0.66805 0.5
952 35 0.599366 0.641946 0.5
821 24 0.632394 0.648218 0.5
192 38 0.638398 0.683564 0.5
800 20 0.609117 0.670953 0.5
55 27 0.69424 0.64449 0.5
763 36 0.665331 0.658795 0.5
842 27 0.71306 0.672204 0.5
546 33 0.730236 0.639177 0.5
340 18 0.72399 0.699886 0.5
558 32 0.74191 0.679367 0.5
121 33 0.792476 0.635578 0.5
420 36 0.780344 0.667542 0.5
16 32 0.814538 0.671608 0.5
711 36 0.845966 0.658761 0.5
983 32 0.855133 0.691846 0.5
264 31 0.884804 0.68189 0.5
675 26 0.91142 0.668434 0.5
862 22 0.946381 0.651058 0.5
449 24 0.93905 0.675837 0.5
378 32 0.972707 0.637682 0.5
68 32 1.00008 0.660766 0.5
204 35 0.0273302 0.686848 0.5
142 31 0.970629 0.669875 0.5
254 34 0.988005 0.733145 0.5
776 31 0.0168919 0.719099 0.5
367 26 0.0541772 0.758744 0.5
689 30 0.0483047 0.717646 0.5
782 26 0.0803311 0.709035 0.5
646 26 0.0720893 0.735189 0.5
286 31 0.102494 0.735806 0.5
255 29 0.140157 0.704524 0.5
387 28 0.17245 0.708665 0.5
535 22 0.175341 0.680694 0.5
328 20 0.203486 0.697059 0.5
667 25 0.242462 0.667627 0.5
156 22 0.227659 0.689798 0.5
69 37 0.274236 0.675021 0.5
218 20 0.301999 0.689708 0.5
388 24 0.306657 0.649913 0.5
399 35 0.254834 0.704624 0.5
342 43 0.365832 0.668229 0.5
15 35 0.327597 0.673134 0.5
941 28 0.355762 0.702074 0.5
634 12 0.374061 0.72149 0.5
587 38 0.400548 0.728979 0.5
51 32 0.377222 0.752073 0.5
811 24 0.418231 0.703042 0.5
30 33 0.46051 0.724945 0.5
281 23 0.448283 0.697293 0.5
150 42 0.484742 0.697419 0.5
684 23 0.489417 0.733157 0.5
835 34 0.514193 0.74716 0.5
737 36 0.522454 0.711252 0.5
199 39 0.557938 0.705795 0.5
301 39 0.553201 0.746528 0.5
896 29 0.601513 0.697772 0.5
348 26 0.612335 0.734228 0.5
527 27 0.584742 0.725301 0.5
779 40 0.689049 0.695704 0.5
808 24 0.626645 0.712914 0.5
270 32 0.660003 0.712366 0.5
12 36 0.707521 0.726014 0.5
424 20 0.738584 0.719507 0.5
716 30 0.677513 0.738155 0.5
182 33 0.762149 0.705141 0.5
519 21 0.797142 0.693959 0.5
778 22 0.76279 0.734222 0.5
158 37 0.822581 0.710811 0.5
425 33 0.789822 0.722945 0.5
766 28 0.852496 0.724466 0.5
853 14 0.839675 0.746732 0.5
603 28 0.840283 0.773644 0.5
828 28 0.881147 0.712461 0.5
719 20 0.890446 0.738199 0.5
640 39 0.915448 0.706879 0.5
772 33 0.921345 0.741155 0.5
922 39 0.952419 0.706143 0.5
129 39 0.990875 0.695707 0.5
849 37 0.95398 0.744159 0.5
561 32 0.0223371 0.750397 0.5
752 24 -0.00415446 0.764471 0.5
409 30 0.0868611 0.763368 0.5
58 26 0.0661873 0.791769 0.5
380 41 0.107523 0.789803 0.5
106 15 0.12762 0.730499 0.5
197 28 0.119818 0.758722 0.5
610 30 0.154363 0.734415 0.5
127 20 0.196466 0.726263 0.5
724 44 0.152426 0.773047 0.5
1 24 0.191667 0.773346 0.5
160 28 0.22388 0.716481 0.5
555 30 0.181134 0.747682 0.5
913 28 0.211077 0.748895 0.5
547 34 0.24761 0.742578 0.5
925 19 0.277907 0.738492 0.5
375 30 0.28744 0.711434 0.5
926 35 0.308969 0.734561 0.5
678 29 0.325729 0.704325 0.5
430 34 0.321859 0.765957 0.5
370 40 0.344077 0.731799 0.5
283 39 0.372439 0.788751 0.5
363 23 0.353224 0.7642 0.5
426 19 0.488209 0.758601 0.5
613 26 0.433537 0.744959 0.5
64 32 0.460985 0.757888 0.5
817 38 0.408579 0.76601 0.5
863 24 0.46277 0.788355 0.5
50 33 0.55446 0.780489 0.5
681 21 0.53911 0.80231 0.5
176 33 0.586926 0.757306 0.5
959 25 0.619757 0.764553 0.5
198 37 0.646545 0.780862 0.5
294 29 0.639852 0.743243 0.5
217 33 0.701924 0.791859 0.5
986 27 0.679404 0.767976 0.5
530 28 0.70886 0.761667 0.5
75 17 0.761024 0.781472 0.5
241 34 0.737992 0.748499 0.5
727 38 0.781986 0.760898 0.5
704 36 0.784975 0.795357 0.5
381 33 0.813451 0.744834 0.5
751 22 0.811079 0.774222 0.5
302 24 0.839953 0.825013 0.5
894 25 0.867108 0.750264 0.5
196 31 0.821147 0.80151 0.5
221 20 0.867193 0.77604 0.5
170 34 0.899599 0.773027 0.5
411 31 0.931737 0.77253 0.5
642 31 -0.0182355 0.792094 0.5
615 27 0.00772522 0.8102 0.5
308 24 0.960906 0.774552 0.5
240 28 -0.00227895 0.837772 0.5
113 37 0.0337658 0.783592 0.5
138 32 0.043757 0.817914 0.5
44 34 0.0859696 0.816311 0.5
139 28 0.127284 0.836078 0.5
540 36 0.146922 0.808015 0.5
194 31 0.152063 0.855161 0.5
396 32 0.176749 0.827206 0.5
32 18 0.18353 0.798649 0.5
169 17 0.203501 0.818614 0.5
458 39 0.205065 0.850768 0.5
448 33 0.215778 0.794537 0.5
66 32 0.230121 0.824619 0.5
181 32 0.24805 0.797937 0.5
439 27 0.23417 0.770634 0.5
454 32 0.265372 0.77017 0.5
829 22 0.276719 0.797018 0.5
824 32 0.291226 0.824576 0.5
509 25 0.294507 0.775163 0.5
325 33 0.326814 0.82168 0.5
699 20 0.307245 0.796969 0.5
417 23 0.336946 0.791671 0.5
216 46 0.410511 0.813898 0.5
232 26 0.444723 0.82292 0.5
726 29 0.433782 0.787965 0.5
749 27 0.494793 0.788746 0.5
434 22 0.475864 0.811222 0.5
982 33 0.507096 0.818003 0.5
994 27 0.522037 0.782366 0.5
114 23 0.571527 0.81873 0.5
173 30 0.584641 0.791215 0.5
701 41 0.604401 0.821589 0.5
267 25 0.616015 0.791928 0.5
172 16 0.674499 0.795188 0.5
303 28 0.655721 0.814019 0.5
794 31 0.733277 0.781039 0.5
515 28 0.685109 0.819334 0.5
356 22 0.715855 0.820684 0.5
310 34 0.750559 0.811944 0.5
568 32 0.773849 0.832453 0.5
65 32 0.807503 0.830588 0.5
528 34 0.854834 0.855682 0.5
823 27 0.822897 0.856659 0.5
589 21 0.808201 0.88055 0.5
780 29 0.854713 0.800115 0.5
305 29 0.88608 0.801402 0.5
358 27 0.872355 0.829055 0.5
502 23 0.866958 0.883743 0.5
660 26 0.920219 0.800688 0.5
103 34 0.906378 0.826195 0.5
520 32 0.965777 0.833105 0.5
253 29 0.935815 0.839487 0.5
248 23 0.97767 0.860213 0.5
231 32 0.952341 0.80082 0.5
839 26 0.025634 0.846472 0.5
964 34 0.0402314 0.877347 0.5
891 34 0.057196 0.850229 0.5
459 38 0.006693 0.872649 0.5
743 33 0.0756935 0.883405 0.5
516 44 0.0949808 0.851391 0.5
180 34 0.107657 0.8905 0.5
245 18 0.127024 0.865513 0.5
927 33 0.145439 0.886513 0.5
290 31 0.178239 0.870943 0.5
976 19 0.1958 0.892846 0.5
677 42 0.225627 0.882153 0.5
969 28 0.242592 0.854431 0.5
909 26 0.260109 0.828457 0.5
233 25 0.259727 0.879929 0.5
318 37 0.275002 0.855378 0.5
316 41 0.312526 0.850384 0.5
884 39 0.29433 0.884284 0.5
978 19 0.348676 0.841123 0.5
78 15 0.34442 0.867089 0.5
274 26 0.357578 0.816799 0.5
473 31 0.369968 0.859435 0.5
334 34 0.388464 0.884868 0.5
583 21 0.433176 0.847907 0.5
996 24 0.381676 0.83099 0.5
991 34 0.454191 0.869895 0.5
85 19 0.506238 0.848721 0.5
663 34 0.478178 0.841284 0.5
679 48 0.489664 0.878311 0.5
268 49 0.539649 0.836918 0.5
934 22 0.55694 0.8655 0.5
807 20 0.579768 0.845856 0.5
90 43 0.608115 0.858283 0.5
592 22 0.634263 0.833335 0.5
402 40 0.666724 0.845266 0.5
431 31 0.640732 0.866276 0.5
943 50 0.707233 0.855706 0.5
859 43 0.678396 0.88154 0.5
709 30 0.736485 0.877442 0.5
813 30 0.743729 0.847378 0.5
818 23 0.793772 0.85692 0.5
84 25 0.766926 0.867054 0.5
652 46 0.751061 0.911044 0.5
355 32 0.781796 0.894831 0.5
655 28 0.81224 0.907868 0.5
611 39 0.890946 0.857821 0.5
34 31 0.837214 0.882311 0.5
744 34 0.867015 0.914218 0.5
82 35 0.898794 0.894862 0.5
616 29 0.928655 0.901164 0.5
672 31 0.922529 0.869358 0.5
332 25 0.98685 0.89755 0.5
237 37 0.956638 0.879501 0.5
369 36 0.0305991 0.93724 0.5
484 35 0.0163369 0.904808 0.5
649 38 0.0522017 0.908515 0.5
476 18 0.0617411 0.93638 0.5
511 41 0.0885404 0.919262 0.5
581 20 0.114037 0.940102 0.5
230 31 0.13031 0.915091 0.5
159 36 0.17091 0.939647 0.5
468 26 0.170599 0.90579 0.5
657 22 0.193537 0.917388 0.5
865 17 0.217492 0.912299 0.5
346 29 0.247283 0.909504 0.5
851 32 0.205482 0.946419 0.5
442 37 0.241073 0.941816 0.5
685 30 0.277999 0.913698 0.5
838 19 0.306687 0.914551 0.5
224 29 0.331141 0.936209 0.5
19 27 0.29881 0.939619 0.5
421 35 0.329468 0.894503 0.5
247 21 0.360363 0.885871 0.5
933 28 0.382021 0.917659 0.5
35 40 0.419358 0.918482 0.5
148 35 0.404247 0.854366 0.5
846 35 0.423816 0.882908 0.5
775 34 0.455764 0.905038 0.5
136 40 0.516742 0.905332 0.5
124 26 0.52974 0.869938 0.5
855 31 0.546557 0.92351 0.5
296 29 0.549989 0.893147 0.5
718 15 0.574787 0.881958 0.5
945 36 0.577027 0.911437 0.5
901 39 0.619358 0.896368 0.5
545 42 0.63855 0.926161 0.5
746 21 0.649546 0.89519 0.5
625 33 0.671554 0.916114 0.5
485 36 0.713178 0.900372 0.5
313 34 0.694683 0.938581 0.5
407 24 0.7251 0.934082 0.5
881 25 0.752069 0.946658 0.5
443 27 0.718756 0.962007 0.5
847 41 0.783165 0.930672 0.5
80 29 0.81538 0.938563 0.5
593 22 0.838353 0.923007 0.5
146 22 0.904779 0.922675 0.5
161 25 0.853333 0.945491 0.5
377 25 0.884715 0.93973 0.5
14 28 0.932285 0.934064 0.5
539 31 0.90824 0.960224 0.5
548 39 0.961528 0.91434 0.5
557 40 0.995572 0.932915 0.5
178 20 0.0530599 0.958612 0.5
225 36 0.0549566 0.988458 0.5
452 34 0.0251183 0.970667 0.5
773 16 0.0962348 0.986258 0.5
957 38 0.0858683 0.959176 0.5
831 28 0.151331 0.983435 0.5
227 32 0.118434 0.968792 0.5
565 26 0.141092 0.947503 0.5
856 26 0.173909 1.00469 0.5
607 40 0.18306 0.972585 0.5
368 34 0.223006 0.972613 0.5
984 33 0.256553 0.975781 0.5
28 26 0.270787 0.947633 0.5
339 38 0.326249 0.970862 0.5
490 32 0.358936 0.944971 0.5
910 30 0.344661 0.000519758 0.5
580 26 0.352638 0.914599 0.5
413 24 0.358856 0.974916 0.5
803 31 0.423218 0.953315 0.5
451 34 0.391211 0.95031 0.5
559 34 0.38928 0.983179 0.5
682 38 0.449812 0.974298 0.5
118 24 0.451778 0.00956242 0.5
445 37 0.454389 0.940506 0.5
263 28 0.511996 0.968733 0.5
629 23 0.487883 0.920301 0.5
553 32 0.484223 0.956388 0.5
529 27 0.518608 0.940089 0.5
761 29 0.54357 0.961242 0.5
799 26 0.571117 0.978038 0.5
734 33 0.575426 0.942559 0.5
343 35 0.598913 0.965489 0.5
214 35 0.605136 0.931499 0.5
385 32 0.655366 0.98533 0.5
742 31 0.629095 0.95993 0.5
309 35 0.661075 0.95341 0.5
874 41 0.691383 0.982169 0.5
556 28 0.741664 0.981195 0.5
483 27 0.782134 0.995166 0.5
944 29 0.773975 0.9655 0.5
870 29 0.805266 0.966996 0.5
461 33 0.817232 0.997821 0.5
137 34 0.836664 0.969928 0.5
39 25 0.849397 0.997776 0.5
917 42 0.87356 0.973934 0.5
415 22 0.937704 0.971436 0.5
272 39 0.911565 0.993654 0.5
143 30 0.966448 0.984136 0.5
576 34 0.959266 0.951092 0.5
650 28 0.991768 0.967202 0.5
