ITEM: TIMESTEP
2000000
ITEM: NUMBER OF ATOMS
1000
ITEM: BOX BOUNDS pp pp pp
-1.6508578000000000e+01 1.6508578000000000e+01
-1.6508578000000000e+01 1.6508578000000000e+01
-5.0000000000000000e-01 5.0000000000000000e-01
ITEM: ATOMS id type xs ys zs
33 30 0.0310188 0.0402941 0.5
89 30 0.0225098 0.00756755 0.5
164 32 0.0538283 0.0173995 0.5
987 32 0.0895598 0.0270242 0.5
846 32 0.0611603 0.0489678 0.5
38 30 0.117564 0.00700491 0.5
998 31 0.119854 0.0382143 0.5
461 31 0.153272 0.0487946 0.5
328 27 0.149036 0.018435 0.5
172 26 0.180162 0.0260946 0.5
505 31 0.209402 0.0343835 0.5
538 32 0.204665 0.0024059 0.5
466 35 0.244857 0.048287 0.5
947 32 0.267476 0.0225974 0.5
565 29 0.236836 0.00953561 0.5
721 29 0.274593 0.0611936 0.5
279 31 0.297812 0.0380508 0.5
490 31 0.324703 0.00617164 0.5
339 33 0.292774 0.00174783 0.5
80 30 0.327939 0.0462225 0.5
380 34 0.354968 0.0174193 0.5
168 33 0.388311 0.0294638 0.5
374 32 0.424103 0.0367102 0.5
577 33 0.412061 0.00693616 0.5
218 27 0.44625 0.0157638 0.5
852 32 0.458781 0.0437332 0.5
835 31 0.482717 0.0190447 0.5
58 29 0.490972 0.0498058 0.5
409 30 0.512928 0.0281495 0.5
808 29 0.537045 0.00543656 0.5
934 28 0.544304 0.0368779 0.5
31 27 0.578267 0.0428245 0.5
451 31 0.566702 0.0144318 0.5
824 31 0.603172 0.0248214 0.5
898 29 0.640591 0.0352879 0.5
598 32 0.626353 0.00356896 0.5
430 32 0.615469 0.0539743 0.5
752 29 0.662717 0.0141242 0.5
445 32 0.669272 0.0474395 0.5
655 30 0.693139 0.0187575 0.5
420 32 0.725245 0.029373 0.5
250 30 0.75927 0.0385417 0.5
173 30 0.751366 0.0076099 0.5
509 29 0.718854 -0.00275651 0.5
715 27 0.789349 0.0562432 0.5
926 32 0.78896 0.0236469 0.5
484 32 0.818184 0.0409806 0.5
241 32 0.849057 0.0129764 0.5
591 29 0.850712 0.044066 0.5
719 27 0.88141 0.0232336 0.5
483 29 0.886764 0.0525459 0.5
182 31 0.910649 0.030513 0.5
258 34 0.934991 0.00891346 0.5
397 31 0.943706 0.0446309 0.5
502 28 0.998975 0.0286597 0.5
895 30 0.975566 0.0495505 0.5
622 30 0.968323 0.0173016 0.5
656 27 0.00169249 0.0654973 0.5
378 31 0.0390236 0.0730058 0.5
663 31 0.0164473 0.0957521 0.5
379 29 0.047287 0.105605 0.5
685 30 0.0945616 0.0583421 0.5
242 33 0.0706751 0.0814169 0.5
976 27 0.104347 0.0917466 0.5
920 30 0.129763 0.0698285 0.5
298 34 0.133919 0.102185 0.5
67 30 0.163766 0.0799274 0.5
197 30 0.188979 0.0579649 0.5
498 30 0.19323 0.0948907 0.5
891 32 0.217636 0.0697544 0.5
694 31 0.22364 0.103278 0.5
516 34 0.249726 0.0823404 0.5
37 30 0.281362 0.0943941 0.5
215 29 0.30501 0.0697112 0.5
455 31 0.315819 0.100762 0.5
255 30 0.360662 0.0551202 0.5
819 30 0.335044 0.0763353 0.5
811 29 0.372002 0.0850822 0.5
180 31 0.398686 0.0595725 0.5
996 29 0.391255 0.111011 0.5
738 31 0.414901 0.0910818 0.5
592 28 0.433949 0.066232 0.5
673 29 0.447704 0.101989 0.5
71 32 0.466553 0.0765164 0.5
559 31 0.476728 0.113077 0.5
473 31 0.50057 0.0820946 0.5
844 31 0.522076 0.0588795 0.5
953 30 0.534146 0.0904336 0.5
682 33 0.556028 0.0665425 0.5
649 33 0.564762 0.101533 0.5
467 31 0.58732 0.0734022 0.5
699 27 0.644356 0.0692295 0.5
788 32 0.618235 0.0864486 0.5
178 27 0.649978 0.0994665 0.5
75 27 0.701178 0.05061 0.5
704 32 0.67309 0.0792237 0.5
301 33 0.70709 0.0818394 0.5
749 29 0.731823 0.061398 0.5
305 30 0.739919 0.0946708 0.5
744 32 0.762496 0.071753 0.5
312 34 0.772979 0.104168 0.5
485 32 0.83104 0.0725263 0.5
158 32 0.800597 0.0864362 0.5
703 30 0.863817 0.0750066 0.5
528 32 0.866902 0.106327 0.5
990 34 0.894387 0.0856329 0.5
660 29 0.918068 0.0638064 0.5
857 34 0.928813 0.102361 0.5
940 29 0.950255 0.0767616 0.5
332 29 0.979043 0.0895764 0.5
208 31 0.959164 0.113911 0.5
964 32 0.0518721 0.137152 0.5
365 29 0.0229947 0.125812 0.5
676 31 0.0761536 0.116615 0.5
766 30 0.0826769 0.147959 0.5
155 30 0.107717 0.128911 0.5
350 25 0.113683 0.162279 0.5
448 31 0.164109 0.117252 0.5
614 30 0.13991 0.137918 0.5
513 29 0.167831 0.151804 0.5
754 31 0.19584 0.129444 0.5
770 35 0.201951 0.161483 0.5
290 31 0.227532 0.138208 0.5
813 30 0.253199 0.114446 0.5
517 33 0.260665 0.146472 0.5
903 31 0.285712 0.125903 0.5
442 32 0.294405 0.156584 0.5
81 29 0.318099 0.13481 0.5
247 28 0.348811 0.106085 0.5
511 33 0.346387 0.155029 0.5
193 29 0.367201 0.130809 0.5
487 30 0.377841 0.170824 0.5
227 31 0.4245 0.125902 0.5
325 31 0.399504 0.148211 0.5
847 33 0.430582 0.157992 0.5
927 31 0.454543 0.136881 0.5
991 31 0.464696 0.167258 0.5
493 28 0.491385 0.142224 0.5
203 34 0.510431 0.116173 0.5
871 30 0.541955 0.125972 0.5
763 32 0.52053 0.150976 0.5
14 30 0.550575 0.160312 0.5
961 30 0.596044 0.109046 0.5
896 30 0.572687 0.131806 0.5
607 33 0.60453 0.143517 0.5
104 28 0.627194 0.117841 0.5
795 33 0.636832 0.157473 0.5
930 29 0.684438 0.108104 0.5
107 30 0.658799 0.128698 0.5
16 31 0.689113 0.142867 0.5
307 31 0.717595 0.119514 0.5
737 32 0.749092 0.126865 0.5
425 31 0.725135 0.152062 0.5
499 26 0.814804 0.116453 0.5
779 33 0.785917 0.136088 0.5
994 30 0.816398 0.146609 0.5
986 30 0.841512 0.128626 0.5
653 28 0.844475 0.163296 0.5
408 29 0.87009 0.141621 0.5
63 30 0.899894 0.118499 0.5
356 28 0.927967 0.134515 0.5
561 31 0.902644 0.152926 0.5
838 27 0.933148 0.165755 0.5
229 31 0.992023 0.117955 0.5
569 31 0.96981 0.144012 0.5
933 30 1.00111 0.149662 0.5
589 28 0.0254873 0.167863 0.5
939 33 0.027171 0.200192 0.5
170 32 0.0573512 0.170792 0.5
700 29 0.0651953 0.212135 0.5
272 33 0.0871698 0.186518 0.5
143 30 0.119958 0.195162 0.5
712 30 0.141526 0.172425 0.5
662 31 0.150578 0.207772 0.5
97 27 0.17921 0.185092 0.5
18 35 0.210655 0.195654 0.5
252 32 0.184793 0.217032 0.5
216 35 0.234561 0.171701 0.5
245 27 0.263599 0.184961 0.5
488 29 0.239662 0.209573 0.5
385 31 0.268458 0.220874 0.5
706 31 0.321212 0.176095 0.5
367 29 0.291747 0.198207 0.5
564 29 0.323982 0.207072 0.5
389 34 0.351157 0.18964 0.5
280 34 0.381586 0.203231 0.5
169 27 0.356882 0.221725 0.5
809 29 0.41015 0.182845 0.5
132 31 0.413582 0.213758 0.5
239 32 0.44164 0.190337 0.5
274 29 0.474763 0.197985 0.5
181 31 0.49618 0.173918 0.5
464 30 0.505933 0.203536 0.5
372 29 0.529148 0.18344 0.5
957 33 0.539306 0.215649 0.5
900 28 0.580515 0.165223 0.5
845 29 0.560915 0.189788 0.5
174 31 0.590009 0.20627 0.5
492 34 0.609739 0.179436 0.5
457 33 0.621312 0.211916 0.5
944 30 0.648592 0.189992 0.5
799 29 0.667955 0.165333 0.5
413 29 0.702005 0.176523 0.5
358 29 0.678885 0.196856 0.5
57 31 0.709239 0.206162 0.5
317 33 0.758137 0.158702 0.5
103 31 0.73396 0.181941 0.5
603 30 0.765452 0.19103 0.5
677 34 0.791081 0.171475 0.5
100 32 0.796677 0.205962 0.5
211 26 0.822272 0.18222 0.5
530 30 0.825653 0.218809 0.5
644 30 0.851964 0.194767 0.5
138 31 0.874688 0.17177 0.5
938 27 0.884945 0.206323 0.5
270 31 0.908821 0.186122 0.5
574 27 0.944235 0.198799 0.5
249 32 0.995179 0.187203 0.5
68 31 0.964646 0.175918 0.5
382 33 0.97557 0.213309 0.5
733 33 0.0363023 0.232765 0.5
661 30 0.0127102 0.256712 0.5
310 32 0.0458065 0.267408 0.5
705 30 0.0952932 0.219459 0.5
849 32 0.071671 0.243867 0.5
648 28 0.103635 0.254588 0.5
2 30 0.0765937 0.278767 0.5
936 28 0.129369 0.230563 0.5
210 29 0.132549 0.265312 0.5
199 33 0.156675 0.245264 0.5
66 31 0.215069 0.235157 0.5
787 29 0.186965 0.254776 0.5
130 30 0.221638 0.265848 0.5
596 29 0.244948 0.245199 0.5
54 30 0.275702 0.253658 0.5
403 28 0.305737 0.232262 0.5
597 28 0.305935 0.26244 0.5
469 33 0.334465 0.244758 0.5
966 28 0.364733 0.253769 0.5
171 32 0.341765 0.281829 0.5
995 28 0.387358 0.234828 0.5
608 30 0.419291 0.245023 0.5
28 29 0.391833 0.268003 0.5
273 29 0.431014 0.277452 0.5
802 32 0.444802 0.222928 0.5
414 32 0.478143 0.233193 0.5
856 29 0.453055 0.252797 0.5
671 28 0.488264 0.263341 0.5
73 31 0.510312 0.23522 0.5
753 31 0.517144 0.275339 0.5
440 34 0.54039 0.249248 0.5
769 30 0.5687 0.229519 0.5
402 33 0.599381 0.23915 0.5
646 29 0.571623 0.260365 0.5
114 28 0.604618 0.270338 0.5
568 31 0.652684 0.224466 0.5
914 28 0.629366 0.248056 0.5
834 31 0.660653 0.257307 0.5
950 31 0.684482 0.231276 0.5
424 27 0.692992 0.269102 0.5
761 30 0.742937 0.212447 0.5
582 30 0.717264 0.236488 0.5
121 31 0.746067 0.248785 0.5
91 28 0.722043 0.274558 0.5
508 29 0.771126 0.226514 0.5
94 28 0.781857 0.263331 0.5
217 31 0.801835 0.239356 0.5
580 29 0.812744 0.27145 0.5
768 31 0.857994 0.227216 0.5
742 31 0.834605 0.249003 0.5
912 34 0.889229 0.240487 0.5
571 36 0.917932 0.22043 0.5
329 32 0.924968 0.253316 0.5
115 27 1.00431 0.227145 0.5
855 31 0.950256 0.232957 0.5
106 26 0.980889 0.24746 0.5
529 30 0.954156 0.265548 0.5
803 31 0.0185388 0.288993 0.5
886 29 0.0485681 0.298927 0.5
776 31 0.0253086 0.321235 0.5
346 30 0.108916 0.286265 0.5
762 31 0.080405 0.311239 0.5
545 34 0.112755 0.320001 0.5
24 30 0.161791 0.279969 0.5
729 27 0.139537 0.301036 0.5
618 33 0.145381 0.331619 0.5
120 30 0.199177 0.29064 0.5
202 34 0.171961 0.311563 0.5
429 29 0.20973 0.325809 0.5
124 29 0.252778 0.27861 0.5
140 30 0.228996 0.30131 0.5
736 28 0.265396 0.312467 0.5
881 29 0.239259 0.332646 0.5
815 30 0.283756 0.28711 0.5
260 30 0.292375 0.326166 0.5
837 31 0.314172 0.298252 0.5
967 28 0.330006 0.335783 0.5
823 30 0.372011 0.291621 0.5
902 30 0.350142 0.313339 0.5
756 30 0.380916 0.321172 0.5
427 31 0.40433 0.298431 0.5
96 30 0.436972 0.307627 0.5
621 29 0.460296 0.284177 0.5
701 33 0.4937 0.297759 0.5
664 31 0.467243 0.317228 0.5
841 31 0.501892 0.328676 0.5
90 34 0.527127 0.306761 0.5
728 32 0.548837 0.282313 0.5
434 28 0.576795 0.296304 0.5
232 29 0.560611 0.321446 0.5
888 29 0.592142 0.324664 0.5
497 31 0.634765 0.278046 0.5
263 30 0.613333 0.302691 0.5
645 31 0.64549 0.311647 0.5
112 28 0.668171 0.287783 0.5
368 31 0.677426 0.317729 0.5
225 32 0.703649 0.299335 0.5
251 31 0.718152 0.329529 0.5
666 31 0.754865 0.279354 0.5
988 26 0.734151 0.303437 0.5
637 29 0.765098 0.31179 0.5
887 31 0.791609 0.294402 0.5
963 29 0.817001 0.320575 0.5
265 35 0.838548 0.296711 0.5
393 34 0.864163 0.265665 0.5
797 31 0.873449 0.297134 0.5
832 35 0.898317 0.274424 0.5
456 31 0.929537 0.287192 0.5
521 31 0.906985 0.308984 0.5
377 29 0.987827 0.28034 0.5
353 30 0.994604 0.311868 0.5
611 33 0.959985 0.299962 0.5
345 31 0.0568058 0.33255 0.5
27 32 0.0315109 0.353686 0.5
923 32 0.00790177 0.379349 0.5
244 30 0.0868555 0.346335 0.5
177 28 0.0619614 0.369305 0.5
283 33 0.0938091 0.37798 0.5
557 33 0.120059 0.355958 0.5
751 28 0.150986 0.366826 0.5
652 35 0.177038 0.345109 0.5
407 29 0.184521 0.378904 0.5
369 32 0.210682 0.358509 0.5
326 36 0.216275 0.391277 0.5
720 30 0.266179 0.348884 0.5
84 29 0.242342 0.368734 0.5
672 31 0.278557 0.37915 0.5
293 33 0.302955 0.357006 0.5
196 31 0.307799 0.392771 0.5
897 31 0.331996 0.370725 0.5
794 31 0.360775 0.346613 0.5
935 28 0.36665 0.378498 0.5
87 30 0.391466 0.353892 0.5
167 29 0.397137 0.389121 0.5
376 34 0.413877 0.331085 0.5
651 28 0.444622 0.338697 0.5
668 27 0.419479 0.369188 0.5
400 32 0.451676 0.373677 0.5
144 32 0.475857 0.34872 0.5
707 37 0.484275 0.385085 0.5
296 30 0.53491 0.340439 0.5
357 33 0.509346 0.361663 0.5
581 27 0.544221 0.373503 0.5
77 26 0.564654 0.350588 0.5
491 30 0.574533 0.380447 0.5
949 32 0.594706 0.356012 0.5
452 32 0.627378 0.338262 0.5
278 32 0.66012 0.345444 0.5
348 29 0.637096 0.368837 0.5
500 35 0.671371 0.379269 0.5
587 33 0.694602 0.352195 0.5
593 28 0.702815 0.384941 0.5
309 32 0.726094 0.363417 0.5
72 28 0.749081 0.337337 0.5
874 33 0.764334 0.365768 0.5
384 35 0.790312 0.338516 0.5
674 29 0.81863 0.354711 0.5
21 31 0.795984 0.378958 0.5
44 32 0.847604 0.335505 0.5
745 32 0.880962 0.329503 0.5
980 29 0.857354 0.365699 0.5
12 32 0.888924 0.361204 0.5
615 29 0.938001 0.322476 0.5
806 29 0.913378 0.340628 0.5
363 28 0.940342 0.355027 0.5
418 32 1.00057 0.342607 0.5
606 32 0.966569 0.335557 0.5
6 24 0.980599 0.364954 0.5
544 29 0.0386078 0.39045 0.5
375 30 0.0148716 0.412816 0.5
288 33 0.044663 0.42599 0.5
141 31 0.0678829 0.400841 0.5
698 27 0.0756472 0.436931 0.5
548 33 0.0983875 0.414566 0.5
962 37 0.1093 0.446669 0.5
259 26 0.122046 0.391913 0.5
542 31 0.157917 0.396395 0.5
233 29 0.134061 0.425307 0.5
781 30 0.165296 0.430446 0.5
686 30 0.1881 0.410315 0.5
336 33 0.19783 0.440803 0.5
405 30 0.225572 0.424394 0.5
851 31 0.251112 0.400853 0.5
8 28 0.257529 0.434437 0.5
586 35 0.28408 0.416275 0.5
234 32 0.317038 0.424402 0.5
631 30 0.341146 0.402428 0.5
882 33 0.348252 0.434179 0.5
532 30 0.37325 0.411157 0.5
885 28 0.426325 0.398414 0.5
785 32 0.403349 0.420497 0.5
563 33 0.434996 0.428646 0.5
333 30 0.457866 0.406298 0.5
36 33 0.491875 0.418458 0.5
458 33 0.517047 0.395166 0.5
734 31 0.522341 0.432144 0.5
201 32 0.552907 0.404402 0.5
658 33 0.557437 0.438797 0.5
4 31 0.606432 0.385645 0.5
977 33 0.586886 0.419311 0.5
626 32 0.644408 0.401967 0.5
893 30 0.621205 0.42503 0.5
549 30 0.656194 0.434419 0.5
125 30 0.67932 0.41324 0.5
866 30 0.713547 0.413387 0.5
206 31 0.73744 0.393276 0.5
531 29 0.770407 0.397073 0.5
404 31 0.74234 0.425658 0.5
431 31 0.772719 0.437922 0.5
360 25 0.825657 0.385775 0.5
892 27 0.795985 0.413844 0.5
426 27 0.82722 0.421827 0.5
416 32 0.861123 0.398048 0.5
443 29 0.857254 0.43313 0.5
166 30 0.893711 0.406904 0.5
859 34 0.917272 0.380086 0.5
156 28 0.924946 0.413103 0.5
901 33 0.952814 0.386954 0.5
438 29 0.990433 0.430657 0.5
85 27 0.980577 0.401563 0.5
879 32 0.956138 0.421338 0.5
973 27 0.0172684 0.450019 0.5
553 31 0.0549941 0.459799 0.5
983 31 0.0294154 0.482621 0.5
723 30 0.0596076 0.492766 0.5
911 30 0.0847465 0.472539 0.5
713 33 0.116809 0.480777 0.5
512 31 0.146171 0.455789 0.5
791 29 0.150028 0.488488 0.5
428 29 0.178039 0.466509 0.5
792 31 0.207197 0.48118 0.5
555 30 0.182612 0.500468 0.5
917 34 0.23504 0.456915 0.5
179 31 0.245697 0.489882 0.5
750 31 0.266469 0.465547 0.5
687 31 0.293273 0.447848 0.5
541 31 0.323226 0.458922 0.5
22 32 0.297768 0.479534 0.5
929 32 0.330545 0.490716 0.5
331 29 0.379534 0.445801 0.5
616 30 0.354281 0.466367 0.5
848 30 0.387032 0.476143 0.5
786 34 0.412829 0.454675 0.5
783 29 0.422996 0.489339 0.5
965 30 0.44266 0.46591 0.5
162 31 0.466148 0.441488 0.5
620 29 0.4534 0.497172 0.5
690 29 0.47656 0.475809 0.5
228 29 0.497064 0.452189 0.5
875 32 0.50769 0.48359 0.5
665 35 0.533794 0.463399 0.5
476 27 0.545535 0.493549 0.5
692 29 0.596056 0.449319 0.5
133 31 0.568648 0.470361 0.5
421 32 0.602574 0.481198 0.5
504 34 0.629764 0.456702 0.5
306 29 0.634456 0.48918 0.5
730 31 0.659265 0.470638 0.5
870 30 0.685089 0.444001 0.5
727 33 0.716717 0.44666 0.5
899 27 0.691697 0.473332 0.5
17 29 0.723752 0.484378 0.5
157 31 0.747631 0.459679 0.5
101 29 0.754285 0.49362 0.5
821 29 0.808725 0.444927 0.5
176 31 0.77938 0.46977 0.5
383 32 0.812145 0.479861 0.5
952 32 0.837153 0.457671 0.5
277 29 0.849515 0.486672 0.5
165 27 0.872794 0.462891 0.5
679 35 0.881953 0.496075 0.5
540 32 0.895779 0.438908 0.5
566 31 0.931052 0.443165 0.5
829 28 0.90416 0.46964 0.5
47 31 0.934304 0.483203 0.5
519 28 0.994851 0.468279 0.5
343 32 0.965298 0.456387 0.5
471 28 0.033436 0.513603 0.5
41 31 0.013023 0.536615 0.5
480 29 0.0417258 0.548764 0.5
533 32 0.000295532 0.498656 0.5
191 33 0.0900984 0.50521 0.5
313 32 0.0647903 0.525708 0.5
575 31 0.0983743 0.538336 0.5
716 30 0.121661 0.516879 0.5
600 33 0.158138 0.522374 0.5
807 27 0.126786 0.550722 0.5
764 33 0.214273 0.512533 0.5
959 29 0.18917 0.531302 0.5
971 26 0.216331 0.542933 0.5
985 28 0.272161 0.503929 0.5
812 29 0.24457 0.524175 0.5
628 31 0.252427 0.556407 0.5
872 34 0.278986 0.537391 0.5
111 30 0.303257 0.511656 0.5
26 34 0.312453 0.542845 0.5
534 32 0.36493 0.498918 0.5
7 32 0.339175 0.522986 0.5
550 28 0.371362 0.528888 0.5
154 30 0.350354 0.552899 0.5
51 31 0.396833 0.506569 0.5
556 30 0.429589 0.519756 0.5
693 30 0.402877 0.538928 0.5
636 27 0.434532 0.550838 0.5
709 30 0.484537 0.505712 0.5
105 31 0.459366 0.529487 0.5
412 30 0.493534 0.53709 0.5
740 32 0.518556 0.513782 0.5
423 32 0.525386 0.548903 0.5
126 31 0.549657 0.524993 0.5
175 36 0.578172 0.503975 0.5
394 30 0.610102 0.513932 0.5
446 30 0.583496 0.538607 0.5
23 29 0.667647 0.500737 0.5
349 35 0.617081 0.548042 0.5
65 31 0.643051 0.521909 0.5
1000 33 0.699506 0.5077 0.5
688 29 0.673634 0.53242 0.5
324 34 0.706111 0.539949 0.5
83 31 0.731326 0.517845 0.5
590 28 0.767044 0.525196 0.5
9 29 0.742548 0.552932 0.5
478 30 0.791185 0.504598 0.5
70 29 0.825074 0.509949 0.5
136 33 0.795492 0.541951 0.5
110 30 0.831707 0.540921 0.5
999 33 0.857182 0.518728 0.5
364 31 0.88701 0.532663 0.5
968 33 0.913173 0.512712 0.5
867 33 0.918624 0.547242 0.5
39 29 0.968064 0.487258 0.5
822 32 0.947765 0.513684 0.5
633 30 0.978253 0.524334 0.5
632 30 0.956318 0.548233 0.5
579 29 0.0187727 0.568683 0.5
294 30 0.0211402 0.614068 0.5
960 34 0.0443807 0.590491 0.5
188 31 0.069396 0.564476 0.5
725 34 0.0801707 0.598765 0.5
918 34 0.105505 0.574238 0.5
212 28 0.113033 0.606137 0.5
951 30 0.136695 0.584375 0.5
503 33 0.163078 0.557184 0.5
793 30 0.194007 0.569505 0.5
422 30 0.16941 0.590132 0.5
472 29 0.202263 0.599246 0.5
748 32 0.224746 0.576975 0.5
524 32 0.26438 0.592431 0.5
60 29 0.289913 0.567793 0.5
972 30 0.298402 0.597179 0.5
826 30 0.324195 0.573468 0.5
129 33 0.328811 0.613518 0.5
594 32 0.382923 0.564919 0.5
410 34 0.353233 0.588088 0.5
29 30 0.389364 0.597717 0.5
702 29 0.41363 0.571869 0.5
506 33 0.446304 0.584654 0.5
361 31 0.470128 0.560218 0.5
486 33 0.477035 0.59505 0.5
92 29 0.502096 0.571697 0.5
266 32 0.50825 0.608714 0.5
765 28 0.534395 0.583622 0.5
303 30 0.55837 0.556577 0.5
11 33 0.591956 0.570321 0.5
40 34 0.565157 0.591722 0.5
560 30 0.599344 0.603291 0.5
771 28 0.651572 0.553319 0.5
595 32 0.622758 0.581832 0.5
128 31 0.663188 0.594637 0.5
691 34 0.681623 0.564111 0.5
281 28 0.693616 0.595894 0.5
347 36 0.717054 0.573891 0.5
805 29 0.721147 0.608751 0.5
760 29 0.748097 0.584311 0.5
267 29 0.771677 0.563114 0.5
772 31 0.782801 0.591855 0.5
289 27 0.80807 0.574672 0.5
910 30 0.811688 0.604422 0.5
264 31 0.861697 0.553808 0.5
578 30 0.838372 0.574435 0.5
974 29 0.867722 0.584505 0.5
35 33 0.845778 0.609607 0.5
282 29 0.893507 0.567474 0.5
906 34 0.927884 0.578309 0.5
625 31 0.900051 0.598168 0.5
784 29 0.987206 0.556955 0.5
585 31 0.995868 0.590235 0.5
135 30 0.959494 0.585537 0.5
818 28 0.0275265 0.643582 0.5
861 32 0.00315442 0.662562 0.5
187 32 0.0545816 0.623055 0.5
916 28 0.0862416 0.629882 0.5
495 31 0.0658382 0.653583 0.5
868 34 0.0977582 0.65953 0.5
190 34 0.149434 0.614739 0.5
95 31 0.122723 0.635909 0.5
854 29 0.158531 0.646094 0.5
641 30 0.181932 0.622235 0.5
789 29 0.188112 0.651851 0.5
680 30 0.211181 0.631948 0.5
145 28 0.222356 0.66796 0.5
450 28 0.237299 0.611597 0.5
925 27 0.265413 0.623493 0.5
1 29 0.247314 0.648099 0.5
465 29 0.280379 0.654081 0.5
833 31 0.298718 0.629044 0.5
942 28 0.33965 0.643773 0.5
948 33 0.361028 0.620172 0.5
804 30 0.367668 0.655671 0.5
928 31 0.420792 0.60813 0.5
287 33 0.395842 0.62963 0.5
275 31 0.426331 0.643839 0.5
956 32 0.450215 0.622135 0.5
25 31 0.482862 0.630606 0.5
796 29 0.455391 0.655966 0.5
300 33 0.542087 0.615861 0.5
20 32 0.516409 0.641393 0.5
814 31 0.547553 0.649262 0.5
619 31 0.573662 0.627645 0.5
411 31 0.580555 0.662993 0.5
767 34 0.605499 0.636533 0.5
864 28 0.628938 0.614367 0.5
432 30 0.636855 0.647864 0.5
908 27 0.658244 0.625265 0.5
470 30 0.670969 0.652702 0.5
311 29 0.690884 0.62546 0.5
321 31 0.705132 0.665223 0.5
981 30 0.750888 0.615949 0.5
195 33 0.727698 0.639926 0.5
904 32 0.763904 0.651201 0.5
137 32 0.783905 0.624966 0.5
42 35 0.796362 0.656022 0.5
118 29 0.824548 0.632726 0.5
341 28 0.877302 0.623349 0.5
338 30 0.853594 0.645405 0.5
584 28 0.930873 0.611525 0.5
853 26 0.882903 0.658871 0.5
381 31 0.905939 0.63601 0.5
778 28 0.915014 0.665549 0.5
862 28 0.992908 0.630015 0.5
295 32 0.937346 0.643388 0.5
601 31 0.963224 0.617132 0.5
134 32 0.970995 0.65268 0.5
271 30 0.0332717 0.674056 0.5
675 29 0.014312 0.698052 0.5
946 30 0.0446515 0.707709 0.5
684 28 0.0667728 0.684344 0.5
231 31 0.0789715 0.714244 0.5
546 31 0.102825 0.692932 0.5
109 35 0.131626 0.669312 0.5
790 31 0.133303 0.703566 0.5
441 30 0.166961 0.677686 0.5
359 32 0.171758 0.708448 0.5
447 33 0.198533 0.688573 0.5
869 31 0.22938 0.69826 0.5
830 30 0.253821 0.678918 0.5
151 33 0.261944 0.711137 0.5
204 32 0.314675 0.662589 0.5
205 29 0.288585 0.68612 0.5
714 30 0.318287 0.695516 0.5
624 28 0.343261 0.674633 0.5
954 28 0.35132 0.706216 0.5
634 25 0.377281 0.686834 0.5
117 31 0.382821 0.717764 0.5
722 32 0.399941 0.662158 0.5
13 31 0.432989 0.678211 0.5
32 27 0.406783 0.698585 0.5
543 32 0.440954 0.710026 0.5
732 30 0.488471 0.664899 0.5
62 30 0.465783 0.690361 0.5
186 31 0.473166 0.720874 0.5
246 32 0.519168 0.673999 0.5
958 27 0.497025 0.69806 0.5
406 30 0.526494 0.707658 0.5
79 33 0.55093 0.682429 0.5
370 33 0.557307 0.716054 0.5
840 29 0.582476 0.695316 0.5
209 29 0.610737 0.671145 0.5
481 30 0.644948 0.679285 0.5
825 33 0.620016 0.701611 0.5
820 30 0.652283 0.710975 0.5
638 37 0.677378 0.685181 0.5
437 31 0.683233 0.721589 0.5
915 29 0.70608 0.700493 0.5
297 30 0.735894 0.671286 0.5
323 30 0.766181 0.686113 0.5
816 31 0.741788 0.706031 0.5
711 32 0.826017 0.670136 0.5
454 31 0.774714 0.716386 0.5
43 32 0.801524 0.695667 0.5
997 32 0.833288 0.701597 0.5
119 30 0.859221 0.677684 0.5
163 28 0.865803 0.707482 0.5
46 32 0.891312 0.689145 0.5
322 27 0.922673 0.696387 0.5
654 28 0.904007 0.720788 0.5
392 30 0.947792 0.675935 0.5
276 32 0.983017 0.688421 0.5
514 28 0.990818 0.720254 0.5
318 32 0.95707 0.709332 0.5
489 27 0.0216401 0.72925 0.5
269 31 0.0360733 0.761627 0.5
605 28 0.00219605 0.751249 0.5
630 31 0.0561397 0.73666 0.5
643 29 0.0673528 0.771987 0.5
757 34 0.0871923 0.746068 0.5
401 28 0.109957 0.724515 0.5
398 33 0.147188 0.734344 0.5
237 32 0.122748 0.756303 0.5
696 29 0.206068 0.720771 0.5
913 30 0.182997 0.741816 0.5
726 30 0.211226 0.756351 0.5
718 26 0.234935 0.727347 0.5
460 32 0.242506 0.764101 0.5
970 27 0.265727 0.74296 0.5
475 29 0.292852 0.723267 0.5
48 28 0.324384 0.728792 0.5
989 32 0.297712 0.754327 0.5
86 30 0.331327 0.7604 0.5
399 32 0.356035 0.739009 0.5
284 32 0.363688 0.772158 0.5
909 29 0.385915 0.750039 0.5
152 32 0.412784 0.729899 0.5
883 33 0.419383 0.762836 0.5
388 29 0.445788 0.740954 0.5
286 31 0.450427 0.771401 0.5
45 30 0.47805 0.751885 0.5
371 30 0.503735 0.730346 0.5
758 27 0.537984 0.74047 0.5
386 33 0.513113 0.763034 0.5
479 26 0.547492 0.771966 0.5
572 32 0.595052 0.72401 0.5
526 30 0.571308 0.747108 0.5
69 32 0.603702 0.755574 0.5
604 27 0.62913 0.733914 0.5
773 26 0.638283 0.765433 0.5
800 27 0.659503 0.742244 0.5
3 32 0.667733 0.773137 0.5
978 27 0.693868 0.749504 0.5
850 28 0.718779 0.728284 0.5
335 32 0.730178 0.761192 0.5
932 29 0.74899 0.735541 0.5
184 29 0.761299 0.774043 0.5
573 30 0.806138 0.728164 0.5
522 33 0.781097 0.749847 0.5
108 32 0.815428 0.758264 0.5
635 27 0.838528 0.733655 0.5
463 29 0.855423 0.761257 0.5
683 32 0.883128 0.743227 0.5
878 31 0.886075 0.776995 0.5
599 32 0.935679 0.734149 0.5
64 31 0.912757 0.755946 0.5
678 30 0.944903 0.766017 0.5
695 27 0.966043 0.739851 0.5
612 29 0.977712 0.772901 0.5
98 32 0.0417444 0.792774 0.5
88 35 0.0150037 0.817936 0.5
240 30 0.0455484 0.829791 0.5
200 32 0.0108341 0.783697 0.5
876 31 0.0975691 0.778017 0.5
149 29 0.0711987 0.805332 0.5
308 29 0.105369 0.808488 0.5
777 29 0.155102 0.768281 0.5
969 30 0.128664 0.78921 0.5
146 28 0.157651 0.801555 0.5
435 28 0.133116 0.827078 0.5
477 31 0.185701 0.779388 0.5
724 34 0.218162 0.788465 0.5
827 35 0.190629 0.812837 0.5
344 27 0.272169 0.771267 0.5
160 30 0.220233 0.826395 0.5
116 27 0.24528 0.803557 0.5
10 30 0.280799 0.811773 0.5
82 32 0.305492 0.786143 0.5
15 32 0.314262 0.820104 0.5
74 32 0.338252 0.797142 0.5
576 31 0.368357 0.807572 0.5
639 27 0.342612 0.832544 0.5
352 29 0.392748 0.783005 0.5
717 30 0.428365 0.794866 0.5
640 33 0.40123 0.813408 0.5
417 28 0.43718 0.824315 0.5
226 31 0.48338 0.783339 0.5
602 28 0.457198 0.801168 0.5
99 28 0.488744 0.81327 0.5
667 29 0.520552 0.794501 0.5
735 29 0.532753 0.829363 0.5
863 29 0.556049 0.800221 0.5
547 32 0.581647 0.778829 0.5
189 23 0.589509 0.813938 0.5
755 28 0.610336 0.79273 0.5
198 32 0.564463 0.832635 0.5
304 29 0.618303 0.821825 0.5
979 32 0.644654 0.795691 0.5
139 30 0.650245 0.829462 0.5
520 31 0.704272 0.781156 0.5
292 30 0.680769 0.809012 0.5
337 30 0.710977 0.813469 0.5
327 31 0.73859 0.79586 0.5
562 33 0.743734 0.828473 0.5
49 29 0.772249 0.806623 0.5
50 31 0.792262 0.782067 0.5
354 32 0.830959 0.787928 0.5
373 32 0.80485 0.81249 0.5
302 29 0.834341 0.823329 0.5
185 33 0.862194 0.799813 0.5
142 31 0.893727 0.810235 0.5
319 30 0.918689 0.787689 0.5
955 29 0.924218 0.819033 0.5
93 35 0.95122 0.799455 0.5
474 29 0.98492 0.803496 0.5
810 31 0.955806 0.831768 0.5
236 35 0.0215199 0.85203 0.5
510 32 0.031793 0.884654 0.5
889 29 0.0561894 0.862262 0.5
839 29 0.0765754 0.836048 0.5
223 26 0.0850103 0.87079 0.5
539 31 0.107729 0.844992 0.5
801 29 0.136882 0.862424 0.5
468 29 0.161688 0.840739 0.5
342 34 0.194729 0.846542 0.5
351 31 0.172759 0.871896 0.5
554 30 0.204019 0.878219 0.5
19 30 0.252783 0.833732 0.5
617 32 0.233257 0.858418 0.5
552 30 0.262724 0.868636 0.5
320 32 0.285033 0.844233 0.5
739 35 0.319003 0.853323 0.5
127 27 0.292973 0.875271 0.5
53 32 0.372915 0.841653 0.5
220 30 0.350828 0.864837 0.5
449 29 0.382005 0.871696 0.5
235 32 0.406557 0.847473 0.5
731 32 0.41444 0.880188 0.5
670 32 0.442695 0.857272 0.5
627 31 0.468466 0.836651 0.5
507 30 0.483208 0.866704 0.5
222 31 0.50325 0.840352 0.5
391 28 0.540819 0.858203 0.5
941 30 0.513749 0.871669 0.5
291 29 0.547533 0.889417 0.5
59 28 0.594516 0.842412 0.5
535 28 0.569498 0.865925 0.5
390 31 0.599266 0.873725 0.5
268 36 0.626395 0.854715 0.5
877 30 0.638176 0.885238 0.5
609 30 0.659835 0.862393 0.5
993 30 0.683965 0.840238 0.5
774 32 0.69249 0.872092 0.5
153 33 0.715084 0.84855 0.5
741 32 0.725755 0.885933 0.5
30 31 0.75007 0.86046 0.5
482 30 0.774781 0.840751 0.5
782 29 0.782995 0.870572 0.5
570 32 0.80723 0.848698 0.5
314 31 0.816862 0.883171 0.5
496 30 0.865612 0.832647 0.5
123 25 0.842022 0.855661 0.5
681 28 0.850977 0.888346 0.5
221 27 0.870789 0.862805 0.5
697 33 0.897084 0.843787 0.5
285 30 0.932377 0.853146 0.5
759 33 0.90885 0.876121 0.5
254 31 0.988849 0.843306 0.5
56 29 0.998226 0.877441 0.5
880 34 0.963363 0.863478 0.5
238 28 0.00649481 0.939562 0.5
396 31 0.0354804 0.924069 0.5
613 29 0.00720466 0.909385 0.5
515 30 0.0601616 0.899386 0.5
194 31 0.0913702 0.905157 0.5
873 31 0.0684617 0.929162 0.5
161 29 0.102266 0.944136 0.5
224 30 0.114849 0.884613 0.5
747 28 0.145599 0.893409 0.5
433 28 0.119843 0.917729 0.5
992 33 0.151671 0.924084 0.5
610 30 0.179287 0.904444 0.5
865 27 0.187012 0.937987 0.5
647 30 0.216914 0.909986 0.5
439 29 0.240621 0.890964 0.5
567 30 0.2703 0.898579 0.5
315 30 0.247257 0.921647 0.5
775 32 0.278663 0.930829 0.5
419 32 0.328093 0.886095 0.5
387 30 0.300998 0.906472 0.5
131 29 0.308713 0.945688 0.5
257 32 0.330264 0.9194 0.5
5 32 0.35955 0.899611 0.5
330 29 0.365476 0.932066 0.5
860 30 0.391378 0.905843 0.5
984 31 0.39599 0.936253 0.5
230 31 0.425198 0.913413 0.5
657 28 0.457149 0.886463 0.5
525 29 0.485853 0.902463 0.5
150 34 0.455284 0.923564 0.5
831 30 0.487 0.934379 0.5
937 31 0.519206 0.903658 0.5
523 27 0.550762 0.919646 0.5
890 32 0.519667 0.935935 0.5
362 31 0.578461 0.899095 0.5
537 29 0.578398 0.929862 0.5
817 33 0.612708 0.904746 0.5
444 32 0.618285 0.940421 0.5
192 33 0.645874 0.916741 0.5
366 30 0.668759 0.894504 0.5
629 28 0.675872 0.92587 0.5
708 29 0.700649 0.904768 0.5
147 30 0.710314 0.934688 0.5
669 34 0.759068 0.892336 0.5
453 28 0.736094 0.915463 0.5
746 28 0.765831 0.9262 0.5
415 28 0.788136 0.904674 0.5
843 32 0.796724 0.936152 0.5
527 30 0.823063 0.916256 0.5
924 28 0.832395 0.945535 0.5
558 31 0.88484 0.897959 0.5
945 32 0.855774 0.919941 0.5
299 28 0.941748 0.888856 0.5
975 29 0.893626 0.929816 0.5
334 32 0.915442 0.908221 0.5
183 29 0.920786 0.947469 0.5
219 29 0.944026 0.92075 0.5
501 32 0.972075 0.896338 0.5
689 30 0.978194 0.927286 0.5
905 30 0.0420204 0.955333 0.5
113 32 0.0171021 0.974973 0.5
34 31 0.0482204 0.986024 0.5
943 36 0.074693 0.961782 0.5
262 31 0.0783536 0.995246 0.5
518 30 0.10588 0.977448 0.5
248 28 0.131638 0.952932 0.5
207 31 0.162144 0.957507 0.5
894 29 0.139087 0.984761 0.5
642 31 0.173212 0.99652 0.5
261 33 0.217188 0.945969 0.5
828 30 0.192962 0.972234 0.5
213 31 0.254383 0.95345 0.5
710 33 0.227991 0.978989 0.5
61 31 0.262516 0.990497 0.5
459 33 0.285185 0.967408 0.5
462 30 0.317104 0.975698 0.5
316 34 0.342544 0.953933 0.5
659 32 0.375465 0.963149 0.5
907 29 0.34784 0.985586 0.5
743 31 0.378635 0.994755 0.5
623 33 0.428377 0.948414 0.5
884 33 0.407763 0.97383 0.5
122 30 0.441159 0.98208 0.5
536 29 0.473853 0.987439 0.5
148 32 0.460396 0.956426 0.5
650 30 0.50133 0.961827 0.5
921 33 0.505127 0.993684 0.5
494 27 0.530103 0.971046 0.5
798 32 0.554688 0.951055 0.5
78 26 0.589112 0.960842 0.5
256 32 0.561487 0.982502 0.5
982 31 0.591819 0.993892 0.5
102 27 0.648174 0.947881 0.5
355 31 0.61899 0.972218 0.5
551 30 0.652735 0.981785 0.5
159 32 0.685677 0.955159 0.5
214 32 0.687798 0.987255 0.5
395 29 0.715377 0.966801 0.5
253 30 0.741101 0.946826 0.5
340 27 0.743496 0.97815 0.5
858 31 0.772677 0.956901 0.5
76 29 0.776619 0.987609 0.5
583 28 0.804314 0.968787 0.5
836 30 0.816819 1.00963 0.5
243 31 0.833322 0.979438 0.5
55 29 0.861908 0.953705 0.5
588 29 0.865224 0.985609 0.5
842 29 0.892513 0.961256 0.5
52 33 0.901314 0.997297 0.5
919 28 0.930806 0.977457 0.5
931 30 0.951537 0.955341 0.5
436 31 0.984029 0.962107 0.5
922 33 0.992156 0.996156 0.5
780 30 0.962375 0.985149 0.5
