ITEM: TIMESTEP
2100000
ITEM: NUMBER OF ATOMS
1000
ITEM: BOX BOUNDS pp pp pp
-1.6508578000000000e+01 1.6508578000000000e+01
-1.6508578000000000e+01 1.6508578000000000e+01
-5.0000000000000000e-01 5.0000000000000000e-01
ITEM: ATOMS id type xs ys zs
33 30 0.0420861 0.0372374 0.5
89 30 0.0331414 0.00735579 0.5
502 28 0.0101385 0.0304586 0.5
164 32 0.0640254 0.0144932 0.5
987 32 0.0966685 0.0270805 0.5
846 32 0.0787099 0.0534985 0.5
685 30 0.114335 0.0639513 0.5
998 31 0.12817 0.0344994 0.5
328 27 0.155375 0.011254 0.5
38 30 0.118916 -0.00422944 0.5
461 31 0.170482 0.0408756 0.5
172 26 0.186128 0.0150277 0.5
505 31 0.213221 0.0302273 0.5
197 30 0.195369 0.0591911 0.5
466 35 0.247363 0.0409799 0.5
565 29 0.242504 0.00770407 0.5
947 32 0.275003 0.0210741 0.5
279 31 0.310661 0.0291497 0.5
721 29 0.287126 0.0506154 0.5
490 31 0.33254 0.0054437 0.5
80 30 0.34106 0.0373791 0.5
380 34 0.364381 0.0147944 0.5
255 30 0.376717 0.0454941 0.5
168 33 0.402769 0.0258365 0.5
374 32 0.434412 0.0363473 0.5
577 33 0.427926 0.00318696 0.5
852 32 0.466562 0.0417507 0.5
835 31 0.491225 0.0200909 0.5
218 27 0.459154 0.0120637 0.5
409 30 0.524292 0.0306857 0.5
808 29 0.550774 0.00105973 0.5
921 33 0.515928 -0.00239141 0.5
934 28 0.558931 0.0396241 0.5
451 31 0.579841 0.0145574 0.5
31 27 0.587885 0.046499 0.5
824 31 0.611384 0.0243296 0.5
898 29 0.647234 0.0315492 0.5
598 32 0.640712 -5.09151e-05 0.5
752 29 0.671816 0.0106449 0.5
445 32 0.677611 0.0433752 0.5
655 30 0.701913 0.0225791 0.5
75 27 0.712393 0.0513207 0.5
420 32 0.734282 0.0297841 0.5
173 30 0.762178 0.00668011 0.5
250 30 0.76805 0.0383595 0.5
926 32 0.79507 0.0197183 0.5
715 27 0.804537 0.0540659 0.5
836 30 0.819847 -0.00266774 0.5
484 32 0.825771 0.0300822 0.5
719 27 0.856069 0.040826 0.5
241 32 0.84999 0.00856092 0.5
52 33 0.881825 0.0212788 0.5
182 31 0.918959 0.0347384 0.5
483 29 0.896354 0.0558183 0.5
397 31 0.954123 0.0409735 0.5
622 30 0.973991 0.0170618 0.5
919 28 0.935152 0.00432071 0.5
895 30 0.983979 0.0511193 0.5
656 27 0.0156643 0.0592967 0.5
378 31 0.0512337 0.0718205 0.5
663 31 0.0266899 0.0920173 0.5
379 29 0.0533123 0.109897 0.5
242 33 0.0819396 0.0885686 0.5
976 27 0.111767 0.099114 0.5
920 30 0.145968 0.0616144 0.5
298 34 0.145008 0.0981265 0.5
67 30 0.171493 0.0786002 0.5
498 30 0.201514 0.0906897 0.5
448 31 0.177588 0.110991 0.5
891 32 0.225491 0.069044 0.5
516 34 0.260014 0.0766067 0.5
694 31 0.233089 0.100401 0.5
215 29 0.316627 0.0590647 0.5
37 30 0.298538 0.084298 0.5
455 31 0.329739 0.0950741 0.5
819 30 0.34952 0.0694746 0.5
247 28 0.361746 0.100602 0.5
811 29 0.384399 0.079041 0.5
180 31 0.408232 0.0573665 0.5
738 31 0.414703 0.0888725 0.5
592 28 0.439064 0.0676982 0.5
673 29 0.448553 0.102724 0.5
71 32 0.469927 0.0744777 0.5
559 31 0.484311 0.10323 0.5
58 29 0.496153 0.0527429 0.5
844 31 0.53535 0.0597961 0.5
473 31 0.508595 0.0822733 0.5
953 30 0.540633 0.0901376 0.5
682 33 0.567724 0.0705417 0.5
467 31 0.601229 0.080976 0.5
649 33 0.576289 0.10177 0.5
430 32 0.622102 0.0569194 0.5
699 27 0.653687 0.0638846 0.5
788 32 0.631995 0.0890699 0.5
178 27 0.66202 0.0976659 0.5
704 32 0.686406 0.0745623 0.5
930 29 0.696141 0.104592 0.5
301 33 0.718268 0.0821956 0.5
749 29 0.74494 0.0611764 0.5
305 30 0.750069 0.0936638 0.5
744 32 0.774129 0.0721714 0.5
158 32 0.811609 0.0840978 0.5
312 34 0.783822 0.104869 0.5
591 29 0.835514 0.0620128 0.5
485 32 0.842619 0.0930473 0.5
703 30 0.865509 0.0698603 0.5
528 32 0.872111 0.105713 0.5
660 29 0.929193 0.0641655 0.5
990 34 0.903127 0.0870349 0.5
857 34 0.935292 0.0979112 0.5
940 29 0.958584 0.0723356 0.5
332 29 0.987488 0.0822536 0.5
208 31 0.965562 0.10954 0.5
365 29 0.0280379 0.127625 0.5
589 28 0.0368513 0.163037 0.5
933 30 0.00323297 0.148775 0.5
676 31 0.0882675 0.121924 0.5
964 32 0.0602149 0.142731 0.5
766 30 0.0975409 0.155645 0.5
155 30 0.117871 0.130938 0.5
614 30 0.150869 0.136255 0.5
350 25 0.128425 0.159662 0.5
712 30 0.159516 0.171505 0.5
513 29 0.181362 0.148321 0.5
754 31 0.209749 0.121359 0.5
770 35 0.218025 0.15339 0.5
813 30 0.27291 0.107473 0.5
290 31 0.241334 0.130865 0.5
517 33 0.273835 0.140595 0.5
903 31 0.305654 0.116785 0.5
442 32 0.310128 0.149481 0.5
81 29 0.337461 0.125075 0.5
193 29 0.36959 0.136431 0.5
511 33 0.344096 0.155611 0.5
487 30 0.379807 0.172324 0.5
996 29 0.391503 0.112982 0.5
227 31 0.421669 0.122072 0.5
325 31 0.398545 0.145884 0.5
847 33 0.437114 0.152474 0.5
927 31 0.464991 0.129357 0.5
493 28 0.4945 0.138283 0.5
991 31 0.472272 0.164798 0.5
203 34 0.517001 0.116226 0.5
763 32 0.529133 0.147489 0.5
871 30 0.553822 0.128413 0.5
961 30 0.608601 0.112794 0.5
896 30 0.585473 0.139256 0.5
14 30 0.559265 0.160628 0.5
900 28 0.590712 0.171394 0.5
104 28 0.642 0.122734 0.5
607 33 0.618326 0.143683 0.5
795 33 0.65214 0.152922 0.5
107 30 0.673596 0.125938 0.5
16 31 0.704001 0.139661 0.5
799 29 0.679876 0.167849 0.5
307 31 0.725647 0.113536 0.5
737 32 0.759333 0.127435 0.5
425 31 0.734622 0.152565 0.5
317 33 0.766978 0.162759 0.5
499 26 0.817381 0.113892 0.5
779 33 0.790685 0.137874 0.5
994 30 0.822542 0.146807 0.5
986 30 0.850997 0.130477 0.5
653 28 0.85545 0.160314 0.5
408 29 0.880643 0.141545 0.5
63 30 0.910733 0.118436 0.5
561 31 0.917801 0.151093 0.5
356 28 0.941505 0.129859 0.5
229 31 0.997218 0.113319 0.5
569 31 0.971229 0.140769 0.5
838 27 0.950318 0.162386 0.5
939 33 0.041509 0.195401 0.5
249 32 0.0114847 0.180276 0.5
115 27 0.0158521 0.213171 0.5
170 32 0.0692414 0.174257 0.5
700 29 0.0761663 0.209809 0.5
272 33 0.0995026 0.188521 0.5
705 30 0.105327 0.221174 0.5
143 30 0.134989 0.192729 0.5
662 31 0.166758 0.201858 0.5
97 27 0.191553 0.182469 0.5
252 32 0.194747 0.21755 0.5
18 35 0.22265 0.189224 0.5
216 35 0.249417 0.168921 0.5
488 29 0.260681 0.201392 0.5
245 27 0.282938 0.178502 0.5
706 31 0.316913 0.180705 0.5
367 29 0.29673 0.204857 0.5
564 29 0.327336 0.213201 0.5
389 34 0.350937 0.189141 0.5
280 34 0.387785 0.204233 0.5
169 27 0.358438 0.219478 0.5
809 29 0.412829 0.175489 0.5
132 31 0.425666 0.210983 0.5
239 32 0.446966 0.185559 0.5
181 31 0.504485 0.169435 0.5
274 29 0.478704 0.196664 0.5
802 32 0.456986 0.218952 0.5
464 30 0.51206 0.200779 0.5
372 29 0.535419 0.179587 0.5
957 33 0.542466 0.21334 0.5
845 29 0.567054 0.193566 0.5
174 31 0.597133 0.202234 0.5
492 34 0.622211 0.177097 0.5
457 33 0.630162 0.212076 0.5
944 30 0.655837 0.188748 0.5
568 31 0.66559 0.22315 0.5
358 29 0.686332 0.198451 0.5
413 29 0.710269 0.17798 0.5
57 31 0.717947 0.209648 0.5
103 31 0.74102 0.183408 0.5
761 30 0.750101 0.218018 0.5
603 30 0.771817 0.1954 0.5
677 34 0.799737 0.170111 0.5
100 32 0.807561 0.20261 0.5
211 26 0.831019 0.176978 0.5
644 30 0.867393 0.189134 0.5
530 30 0.843711 0.209093 0.5
768 31 0.87404 0.220229 0.5
138 31 0.892737 0.170945 0.5
938 27 0.900654 0.205389 0.5
270 31 0.926562 0.182152 0.5
571 36 0.929925 0.21866 0.5
574 27 0.954209 0.194097 0.5
68 31 0.979858 0.171165 0.5
382 33 0.986043 0.202938 0.5
733 33 0.0502771 0.229534 0.5
661 30 0.0188494 0.251214 0.5
310 32 0.0516638 0.263315 0.5
849 32 0.0797166 0.245825 0.5
2 30 0.0829268 0.282373 0.5
648 28 0.111715 0.254102 0.5
936 28 0.137271 0.226964 0.5
210 29 0.141083 0.257844 0.5
199 33 0.168334 0.241576 0.5
787 29 0.198514 0.251696 0.5
24 30 0.175901 0.277686 0.5
66 31 0.22784 0.224613 0.5
596 29 0.250497 0.248442 0.5
385 31 0.275021 0.228455 0.5
54 30 0.283415 0.260587 0.5
130 30 0.227175 0.268238 0.5
403 28 0.30578 0.2383 0.5
597 28 0.316006 0.266402 0.5
469 33 0.338544 0.243603 0.5
966 28 0.376038 0.257277 0.5
995 28 0.399308 0.234233 0.5
608 30 0.432897 0.241003 0.5
28 29 0.40603 0.263233 0.5
414 32 0.487047 0.22879 0.5
856 29 0.461378 0.255087 0.5
671 28 0.490778 0.259704 0.5
73 31 0.518614 0.235827 0.5
753 31 0.525966 0.268036 0.5
440 34 0.550551 0.246709 0.5
769 30 0.574558 0.224926 0.5
646 29 0.58258 0.257798 0.5
402 33 0.605502 0.234734 0.5
914 28 0.641088 0.244113 0.5
114 28 0.613619 0.265182 0.5
497 31 0.644054 0.277195 0.5
950 31 0.695628 0.235773 0.5
834 31 0.67086 0.256599 0.5
424 27 0.705946 0.264941 0.5
582 30 0.728044 0.242102 0.5
121 31 0.758578 0.249682 0.5
91 28 0.736999 0.2711 0.5
508 29 0.782637 0.224485 0.5
94 28 0.789639 0.255238 0.5
217 31 0.813337 0.23387 0.5
580 29 0.81763 0.266498 0.5
742 31 0.845649 0.244659 0.5
393 34 0.874381 0.269043 0.5
912 34 0.901825 0.240095 0.5
329 32 0.934064 0.254563 0.5
377 29 0.994145 0.276796 0.5
855 31 0.961996 0.225881 0.5
106 26 0.992934 0.234206 0.5
529 30 0.965721 0.257347 0.5
803 31 0.0238321 0.288393 0.5
776 31 0.0308795 0.322785 0.5
353 30 6.23903e-05 0.314544 0.5
886 29 0.054862 0.301903 0.5
762 31 0.0873628 0.313421 0.5
345 31 0.0608183 0.334538 0.5
346 30 0.12025 0.284813 0.5
545 34 0.120627 0.318534 0.5
729 27 0.148942 0.293449 0.5
618 33 0.15183 0.329933 0.5
120 30 0.204927 0.291457 0.5
202 34 0.177754 0.309308 0.5
429 29 0.211109 0.323669 0.5
124 29 0.256594 0.278306 0.5
140 30 0.234372 0.303812 0.5
736 28 0.2658 0.312761 0.5
881 29 0.243892 0.335004 0.5
815 30 0.288032 0.291421 0.5
837 31 0.328453 0.300496 0.5
260 30 0.299267 0.320528 0.5
171 32 0.35159 0.27761 0.5
823 30 0.384026 0.286634 0.5
902 30 0.360715 0.308991 0.5
756 30 0.390679 0.318185 0.5
273 29 0.436943 0.272811 0.5
427 31 0.413891 0.296101 0.5
96 30 0.444473 0.303345 0.5
621 29 0.470406 0.284281 0.5
664 31 0.477237 0.317729 0.5
701 33 0.502157 0.291467 0.5
90 34 0.533382 0.302872 0.5
841 31 0.508877 0.324207 0.5
728 32 0.559462 0.278266 0.5
434 28 0.588361 0.288666 0.5
232 29 0.564202 0.311267 0.5
888 29 0.596853 0.317807 0.5
263 30 0.618118 0.29579 0.5
645 31 0.652372 0.307905 0.5
452 32 0.629945 0.332619 0.5
112 28 0.677399 0.289602 0.5
368 31 0.693082 0.319486 0.5
225 32 0.715777 0.296556 0.5
251 31 0.726797 0.327259 0.5
988 26 0.746505 0.301646 0.5
666 31 0.767606 0.280068 0.5
637 29 0.774039 0.311711 0.5
887 31 0.798361 0.291905 0.5
963 29 0.818697 0.316348 0.5
265 35 0.842409 0.288549 0.5
797 31 0.879097 0.302948 0.5
44 32 0.853083 0.322733 0.5
832 35 0.90706 0.277033 0.5
456 31 0.936511 0.292783 0.5
521 31 0.910446 0.310527 0.5
615 29 0.941332 0.324614 0.5
611 33 0.969952 0.300103 0.5
606 32 0.973361 0.334044 0.5
27 32 0.0395964 0.359605 0.5
923 32 0.00474953 0.382374 0.5
418 32 0.00631602 0.347457 0.5
544 29 0.0412566 0.392888 0.5
177 28 0.0748232 0.366855 0.5
244 30 0.0989581 0.342766 0.5
283 33 0.103825 0.375791 0.5
557 33 0.130671 0.357004 0.5
751 28 0.1576 0.374823 0.5
259 26 0.132022 0.389368 0.5
652 35 0.181165 0.350487 0.5
407 29 0.189841 0.382507 0.5
369 32 0.218602 0.354626 0.5
84 29 0.247889 0.366473 0.5
720 30 0.273719 0.347116 0.5
326 36 0.223086 0.387943 0.5
967 28 0.33141 0.332199 0.5
672 31 0.283323 0.376715 0.5
293 33 0.307297 0.352333 0.5
196 31 0.315897 0.38441 0.5
794 31 0.367757 0.341125 0.5
897 31 0.340364 0.364092 0.5
935 28 0.37141 0.374815 0.5
376 34 0.424183 0.328756 0.5
87 30 0.398545 0.350774 0.5
668 27 0.428364 0.359972 0.5
651 28 0.454446 0.341233 0.5
400 32 0.457923 0.372245 0.5
144 32 0.48506 0.348591 0.5
707 37 0.491896 0.382829 0.5
296 30 0.547352 0.336407 0.5
357 33 0.518566 0.360263 0.5
581 27 0.551496 0.375795 0.5
77 26 0.574133 0.349979 0.5
491 30 0.581961 0.383954 0.5
949 32 0.603791 0.357939 0.5
348 29 0.63571 0.365931 0.5
278 32 0.663319 0.338162 0.5
4 31 0.61525 0.39241 0.5
500 35 0.671283 0.376185 0.5
587 33 0.695026 0.351672 0.5
593 28 0.703076 0.384115 0.5
72 28 0.755863 0.336435 0.5
309 32 0.728571 0.360939 0.5
874 33 0.771914 0.364544 0.5
384 35 0.792579 0.337751 0.5
674 29 0.825286 0.349169 0.5
21 31 0.809375 0.375935 0.5
980 29 0.855396 0.35544 0.5
745 32 0.882971 0.337028 0.5
12 32 0.894161 0.370035 0.5
806 29 0.917068 0.345614 0.5
859 34 0.926585 0.384249 0.5
363 28 0.948273 0.354955 0.5
6 24 0.977618 0.365436 0.5
375 30 0.0157867 0.41532 0.5
288 33 0.046985 0.424661 0.5
141 31 0.0751789 0.39724 0.5
698 27 0.0830771 0.434927 0.5
548 33 0.105419 0.409351 0.5
233 29 0.141466 0.422591 0.5
962 37 0.116142 0.444601 0.5
542 31 0.167791 0.404322 0.5
781 30 0.171188 0.439586 0.5
686 30 0.194973 0.419724 0.5
851 31 0.254892 0.397266 0.5
405 30 0.233188 0.423029 0.5
8 28 0.264447 0.435933 0.5
586 35 0.287611 0.410716 0.5
234 32 0.320848 0.416826 0.5
687 31 0.298833 0.441921 0.5
631 30 0.34532 0.39478 0.5
882 33 0.356464 0.425172 0.5
532 30 0.382763 0.40728 0.5
331 29 0.387279 0.437605 0.5
167 29 0.40424 0.384614 0.5
885 28 0.435962 0.395248 0.5
785 32 0.41267 0.418781 0.5
563 33 0.445639 0.429767 0.5
333 30 0.465499 0.404177 0.5
162 31 0.477444 0.441936 0.5
458 33 0.525577 0.395793 0.5
36 33 0.499497 0.415847 0.5
734 31 0.532441 0.42799 0.5
201 32 0.556598 0.406219 0.5
977 33 0.591867 0.41474 0.5
658 33 0.563385 0.438363 0.5
692 29 0.5991 0.446941 0.5
626 32 0.646742 0.398499 0.5
893 30 0.622748 0.422974 0.5
549 30 0.658254 0.431588 0.5
125 30 0.682157 0.409615 0.5
870 30 0.696676 0.437432 0.5
866 30 0.717547 0.4128 0.5
206 31 0.744533 0.388512 0.5
404 31 0.753585 0.419005 0.5
360 25 0.838073 0.380211 0.5
531 29 0.775771 0.397637 0.5
431 31 0.784706 0.431237 0.5
892 27 0.804513 0.408487 0.5
426 27 0.842607 0.415226 0.5
416 32 0.866703 0.389807 0.5
443 29 0.874715 0.426389 0.5
166 30 0.896103 0.403536 0.5
156 28 0.931306 0.418116 0.5
540 32 0.905181 0.435413 0.5
901 33 0.96062 0.38929 0.5
438 29 0.99515 0.437705 0.5
85 27 0.986457 0.407198 0.5
879 32 0.961075 0.424652 0.5
973 27 0.0296593 0.452447 0.5
983 31 0.0364944 0.481985 0.5
553 31 0.0597489 0.459068 0.5
911 30 0.0909638 0.467802 0.5
723 30 0.0665104 0.492532 0.5
512 31 0.146341 0.460758 0.5
713 33 0.121373 0.482008 0.5
791 29 0.154846 0.495137 0.5
336 33 0.204291 0.450581 0.5
428 29 0.179253 0.472539 0.5
792 31 0.21661 0.48149 0.5
555 30 0.19137 0.506168 0.5
917 34 0.2388 0.456408 0.5
179 31 0.248945 0.490661 0.5
750 31 0.272462 0.466762 0.5
985 28 0.279625 0.497855 0.5
22 32 0.305554 0.473221 0.5
541 31 0.330912 0.448914 0.5
929 32 0.338356 0.485583 0.5
616 30 0.3646 0.461983 0.5
534 32 0.369825 0.496305 0.5
786 34 0.41877 0.451624 0.5
848 30 0.396349 0.475673 0.5
783 29 0.428794 0.48212 0.5
965 30 0.45125 0.461481 0.5
690 29 0.483756 0.474467 0.5
620 29 0.460626 0.494123 0.5
228 29 0.508513 0.455343 0.5
875 32 0.51345 0.486569 0.5
665 35 0.538814 0.464976 0.5
476 27 0.546358 0.496678 0.5
133 31 0.573278 0.469559 0.5
421 32 0.610142 0.475739 0.5
504 34 0.634418 0.45307 0.5
306 29 0.644497 0.486 0.5
730 31 0.672124 0.460963 0.5
899 27 0.708296 0.466333 0.5
23 29 0.679008 0.491545 0.5
727 33 0.729353 0.442967 0.5
17 29 0.737087 0.47359 0.5
157 31 0.760392 0.453819 0.5
101 29 0.768719 0.485779 0.5
821 29 0.818372 0.438022 0.5
176 31 0.793087 0.462952 0.5
383 32 0.823643 0.475251 0.5
952 32 0.849218 0.447412 0.5
277 29 0.854538 0.481216 0.5
165 27 0.884167 0.45871 0.5
679 35 0.884952 0.493475 0.5
566 31 0.942086 0.450346 0.5
829 28 0.915403 0.467618 0.5
47 31 0.944186 0.482112 0.5
519 28 1.0053 0.470304 0.5
343 32 0.971969 0.460543 0.5
39 29 0.979705 0.496181 0.5
533 32 0.0107109 0.500653 0.5
471 28 0.041446 0.512965 0.5
41 31 0.014282 0.540898 0.5
480 29 0.0453991 0.547839 0.5
191 33 0.0959565 0.507657 0.5
313 32 0.0716247 0.529565 0.5
575 31 0.106462 0.538006 0.5
716 30 0.134348 0.521677 0.5
807 27 0.14044 0.551636 0.5
600 33 0.166726 0.526744 0.5
959 29 0.199275 0.535879 0.5
764 33 0.22307 0.514146 0.5
971 26 0.227093 0.54522 0.5
812 29 0.253557 0.523683 0.5
111 30 0.308157 0.50787 0.5
872 34 0.284858 0.530489 0.5
26 34 0.317777 0.542083 0.5
7 32 0.342848 0.5208 0.5
550 28 0.376332 0.528237 0.5
154 30 0.351945 0.551592 0.5
51 31 0.401145 0.507445 0.5
693 30 0.413074 0.543792 0.5
556 30 0.432054 0.515705 0.5
636 27 0.44309 0.550081 0.5
709 30 0.489809 0.507707 0.5
105 31 0.46254 0.526475 0.5
412 30 0.495949 0.541272 0.5
740 32 0.521459 0.518264 0.5
423 32 0.527253 0.550067 0.5
126 31 0.556617 0.525333 0.5
175 36 0.583945 0.50533 0.5
446 30 0.590374 0.538243 0.5
394 30 0.617678 0.509461 0.5
349 35 0.622233 0.543329 0.5
65 31 0.65466 0.516262 0.5
1000 33 0.709842 0.498185 0.5
688 29 0.685451 0.526039 0.5
324 34 0.721056 0.530113 0.5
83 31 0.743729 0.503742 0.5
9 29 0.752088 0.543595 0.5
590 28 0.773526 0.521295 0.5
478 30 0.798351 0.497542 0.5
136 33 0.803118 0.530249 0.5
70 29 0.827468 0.50955 0.5
110 30 0.833593 0.539136 0.5
999 33 0.860878 0.516806 0.5
264 31 0.869481 0.547502 0.5
364 31 0.892693 0.52526 0.5
968 33 0.918582 0.5022 0.5
867 33 0.923741 0.538133 0.5
822 32 0.952916 0.513699 0.5
633 30 0.984265 0.531589 0.5
632 30 0.959444 0.549301 0.5
579 29 0.0207799 0.573954 0.5
294 30 0.0315688 0.604856 0.5
960 34 0.0558948 0.580058 0.5
188 31 0.0831149 0.561649 0.5
725 34 0.0904577 0.593728 0.5
918 34 0.114618 0.570241 0.5
951 30 0.147455 0.58168 0.5
212 28 0.120699 0.605676 0.5
190 34 0.152959 0.615337 0.5
503 33 0.171312 0.560196 0.5
793 30 0.20532 0.570246 0.5
422 30 0.178258 0.595672 0.5
472 29 0.209557 0.606156 0.5
628 31 0.261964 0.554775 0.5
748 32 0.235532 0.583872 0.5
524 32 0.268453 0.586733 0.5
60 29 0.29228 0.561582 0.5
972 30 0.299072 0.59382 0.5
826 30 0.32788 0.573286 0.5
410 34 0.357892 0.586816 0.5
594 32 0.386248 0.561448 0.5
29 30 0.390847 0.594209 0.5
702 29 0.414655 0.574626 0.5
928 31 0.423835 0.607301 0.5
506 33 0.444541 0.581763 0.5
361 31 0.471821 0.560509 0.5
486 33 0.476362 0.593087 0.5
92 29 0.501536 0.571557 0.5
765 28 0.541497 0.577602 0.5
266 32 0.511779 0.601938 0.5
303 30 0.565192 0.556226 0.5
11 33 0.599803 0.572834 0.5
40 34 0.572456 0.591622 0.5
560 30 0.615833 0.604034 0.5
771 28 0.660887 0.550285 0.5
595 32 0.634156 0.577044 0.5
128 31 0.670143 0.582857 0.5
691 34 0.692463 0.558404 0.5
281 28 0.70158 0.590227 0.5
347 36 0.726115 0.567922 0.5
760 29 0.759616 0.577686 0.5
805 29 0.732776 0.600089 0.5
981 30 0.762883 0.610131 0.5
267 29 0.782447 0.554145 0.5
772 31 0.791176 0.584258 0.5
289 27 0.813384 0.562566 0.5
910 30 0.816413 0.603979 0.5
578 30 0.841831 0.577173 0.5
974 29 0.881579 0.588642 0.5
35 33 0.850261 0.610282 0.5
282 29 0.900949 0.562631 0.5
906 34 0.934236 0.569794 0.5
625 31 0.915726 0.597861 0.5
584 28 0.945009 0.612761 0.5
585 31 0.998154 0.597869 0.5
784 29 0.98692 0.5632 0.5
135 30 0.964032 0.583909 0.5
818 28 0.0408248 0.638717 0.5
862 28 0.00906469 0.626818 0.5
861 32 0.0160655 0.660417 0.5
187 32 0.0621329 0.614274 0.5
916 28 0.091147 0.626599 0.5
495 31 0.0697832 0.650754 0.5
868 34 0.102634 0.656237 0.5
95 31 0.128373 0.636105 0.5
854 29 0.161196 0.646088 0.5
641 30 0.187312 0.628363 0.5
789 29 0.195678 0.657775 0.5
680 30 0.219669 0.63795 0.5
450 28 0.240958 0.615236 0.5
1 29 0.250523 0.645728 0.5
925 27 0.274077 0.621673 0.5
465 29 0.283034 0.657149 0.5
833 31 0.303436 0.627401 0.5
129 33 0.329636 0.608587 0.5
942 28 0.341801 0.64407 0.5
948 33 0.361859 0.619469 0.5
804 30 0.371659 0.653159 0.5
287 33 0.397987 0.628119 0.5
275 31 0.427797 0.640628 0.5
956 32 0.45608 0.618586 0.5
25 31 0.490338 0.626043 0.5
796 29 0.466333 0.648843 0.5
732 30 0.495435 0.657859 0.5
300 33 0.544356 0.611254 0.5
20 32 0.521179 0.635604 0.5
814 31 0.556048 0.642608 0.5
619 31 0.58376 0.622816 0.5
411 31 0.58603 0.654692 0.5
864 28 0.646399 0.608037 0.5
767 34 0.61328 0.636418 0.5
432 30 0.647018 0.649201 0.5
209 29 0.621488 0.668613 0.5
908 27 0.678405 0.614696 0.5
470 30 0.677981 0.645898 0.5
311 29 0.708983 0.619262 0.5
321 31 0.709391 0.654558 0.5
195 33 0.736477 0.634911 0.5
904 32 0.767622 0.647923 0.5
137 32 0.791458 0.62382 0.5
42 35 0.801319 0.655462 0.5
118 29 0.827906 0.632873 0.5
338 30 0.856091 0.643731 0.5
341 28 0.882312 0.620436 0.5
711 32 0.833811 0.667793 0.5
853 26 0.888551 0.652515 0.5
381 31 0.915519 0.632452 0.5
778 28 0.923221 0.666348 0.5
601 31 0.976782 0.621563 0.5
295 32 0.947504 0.643859 0.5
134 32 0.977946 0.653565 0.5
271 30 0.0475169 0.67749 0.5
675 29 0.0221265 0.694786 0.5
946 30 0.0497274 0.708651 0.5
684 28 0.0809435 0.680672 0.5
231 31 0.0857638 0.714479 0.5
109 35 0.13706 0.668476 0.5
546 31 0.111357 0.689433 0.5
790 31 0.142391 0.701133 0.5
401 28 0.120094 0.723895 0.5
441 30 0.169237 0.67882 0.5
447 33 0.199658 0.691193 0.5
359 32 0.172302 0.712302 0.5
145 28 0.228055 0.6673 0.5
869 31 0.231098 0.698022 0.5
830 30 0.260712 0.678538 0.5
151 33 0.270526 0.709067 0.5
204 32 0.314837 0.65976 0.5
205 29 0.291915 0.685637 0.5
714 30 0.322986 0.690989 0.5
475 29 0.30185 0.714886 0.5
624 28 0.349731 0.675247 0.5
954 28 0.352539 0.706422 0.5
634 25 0.378661 0.684962 0.5
722 32 0.401753 0.664992 0.5
32 27 0.409142 0.694694 0.5
117 31 0.385198 0.714032 0.5
13 31 0.437685 0.670928 0.5
543 32 0.441355 0.702524 0.5
62 30 0.468509 0.680998 0.5
186 31 0.481374 0.709794 0.5
246 32 0.529852 0.667059 0.5
958 27 0.503884 0.687784 0.5
406 30 0.537075 0.697509 0.5
79 33 0.562943 0.678304 0.5
840 29 0.595642 0.688075 0.5
370 33 0.56694 0.71223 0.5
572 32 0.599681 0.720512 0.5
481 30 0.648948 0.681738 0.5
825 33 0.629146 0.706467 0.5
820 30 0.66183 0.710453 0.5
638 37 0.683717 0.678514 0.5
437 31 0.697128 0.712904 0.5
915 29 0.716902 0.687681 0.5
297 30 0.742168 0.668678 0.5
816 31 0.745151 0.701521 0.5
323 30 0.773383 0.679775 0.5
454 31 0.782114 0.713735 0.5
43 32 0.808867 0.68942 0.5
119 30 0.864613 0.674132 0.5
997 32 0.841232 0.699713 0.5
163 28 0.873027 0.706324 0.5
46 32 0.898441 0.68476 0.5
322 27 0.932723 0.696065 0.5
654 28 0.905799 0.717273 0.5
392 30 0.954559 0.674617 0.5
276 32 0.989823 0.684266 0.5
318 32 0.964805 0.706721 0.5
514 28 0.994349 0.717709 0.5
489 27 0.0239259 0.726715 0.5
269 31 0.0363709 0.759778 0.5
605 28 0.00244691 0.749399 0.5
630 31 0.0627372 0.738593 0.5
757 34 0.0943461 0.745572 0.5
643 29 0.0692881 0.769638 0.5
398 33 0.149189 0.735517 0.5
777 29 0.159468 0.769206 0.5
696 29 0.20888 0.721805 0.5
913 30 0.18252 0.741924 0.5
726 30 0.218272 0.753183 0.5
477 31 0.192503 0.775374 0.5
718 26 0.247566 0.731902 0.5
460 32 0.248001 0.767273 0.5
970 27 0.273628 0.748221 0.5
989 32 0.303986 0.751582 0.5
344 27 0.282201 0.779795 0.5
48 28 0.330096 0.729317 0.5
86 30 0.33415 0.762601 0.5
399 32 0.359041 0.743123 0.5
284 32 0.369637 0.774431 0.5
152 32 0.420659 0.728277 0.5
909 29 0.392386 0.748487 0.5
883 33 0.423525 0.760435 0.5
388 29 0.452728 0.733086 0.5
45 30 0.481654 0.748732 0.5
286 31 0.455429 0.766698 0.5
371 30 0.512299 0.71862 0.5
758 27 0.54212 0.732504 0.5
386 33 0.515418 0.750892 0.5
479 26 0.545248 0.762322 0.5
526 30 0.574683 0.742837 0.5
69 32 0.614999 0.753907 0.5
604 27 0.639736 0.735716 0.5
773 26 0.645923 0.764459 0.5
800 27 0.673451 0.73809 0.5
978 27 0.70276 0.747088 0.5
3 32 0.675036 0.771534 0.5
850 28 0.725984 0.725066 0.5
335 32 0.732891 0.757748 0.5
932 29 0.757361 0.732148 0.5
184 29 0.764235 0.765335 0.5
573 30 0.816026 0.722074 0.5
522 33 0.789555 0.745506 0.5
108 32 0.823152 0.753431 0.5
635 27 0.847018 0.733858 0.5
463 29 0.855509 0.762995 0.5
683 32 0.877913 0.739341 0.5
64 31 0.917812 0.748964 0.5
599 32 0.942005 0.728864 0.5
878 31 0.893136 0.768855 0.5
678 30 0.949893 0.759633 0.5
695 27 0.973868 0.739864 0.5
612 29 0.978472 0.771767 0.5
200 32 0.00932005 0.779593 0.5
98 32 0.0436257 0.790752 0.5
88 35 0.0175018 0.811561 0.5
240 30 0.0531361 0.820816 0.5
876 31 0.102295 0.778188 0.5
149 29 0.0798333 0.803232 0.5
308 29 0.11498 0.811668 0.5
237 32 0.133463 0.785792 0.5
435 28 0.142858 0.82553 0.5
969 30 0.16523 0.799903 0.5
146 28 0.197353 0.806612 0.5
827 35 0.17672 0.835162 0.5
724 34 0.22338 0.788752 0.5
160 30 0.237486 0.820956 0.5
116 27 0.260967 0.800595 0.5
19 30 0.267805 0.835455 0.5
10 30 0.289984 0.81145 0.5
82 32 0.312055 0.788031 0.5
15 32 0.323437 0.818093 0.5
74 32 0.343558 0.792957 0.5
576 31 0.374325 0.808109 0.5
639 27 0.356023 0.833437 0.5
352 29 0.399817 0.785582 0.5
640 33 0.413788 0.817689 0.5
717 30 0.432406 0.791088 0.5
417 28 0.447301 0.825705 0.5
602 28 0.46765 0.801408 0.5
226 31 0.490893 0.7788 0.5
99 28 0.501363 0.807477 0.5
667 29 0.522426 0.785216 0.5
735 29 0.538728 0.819065 0.5
547 32 0.588238 0.776602 0.5
863 29 0.558871 0.793014 0.5
189 23 0.592312 0.80596 0.5
198 32 0.569586 0.827881 0.5
755 28 0.623624 0.784304 0.5
304 29 0.620588 0.81428 0.5
979 32 0.652827 0.79505 0.5
139 30 0.652364 0.827881 0.5
520 31 0.706909 0.77959 0.5
292 30 0.68564 0.805318 0.5
337 30 0.719246 0.81477 0.5
327 31 0.742345 0.789173 0.5
562 33 0.751652 0.823477 0.5
50 31 0.801475 0.777472 0.5
49 29 0.773948 0.794982 0.5
373 32 0.804637 0.809775 0.5
354 32 0.832712 0.787851 0.5
185 33 0.863651 0.79879 0.5
302 29 0.837188 0.818575 0.5
319 30 0.92111 0.784628 0.5
142 31 0.895081 0.809074 0.5
955 29 0.928114 0.820035 0.5
93 35 0.952961 0.792904 0.5
474 29 0.983798 0.804562 0.5
810 31 0.959604 0.828502 0.5
236 35 0.0278754 0.843662 0.5
56 29 0.000878377 0.86625 0.5
515 30 0.0373653 0.876901 0.5
839 29 0.0877082 0.835216 0.5
889 29 0.0598627 0.851735 0.5
223 26 0.0923493 0.866506 0.5
539 31 0.116596 0.846628 0.5
801 29 0.127129 0.876826 0.5
468 29 0.151046 0.854541 0.5
351 31 0.181484 0.869609 0.5
342 34 0.210091 0.840903 0.5
747 28 0.156341 0.887073 0.5
554 30 0.213287 0.873518 0.5
617 32 0.241087 0.858561 0.5
552 30 0.27255 0.867102 0.5
439 29 0.245429 0.889561 0.5
320 32 0.29952 0.845223 0.5
127 27 0.305226 0.879875 0.5
739 35 0.331619 0.855676 0.5
220 30 0.364515 0.864707 0.5
419 32 0.341345 0.887998 0.5
53 32 0.387184 0.837655 0.5
449 29 0.396936 0.87413 0.5
235 32 0.420012 0.8502 0.5
731 32 0.427711 0.882855 0.5
627 31 0.477729 0.834416 0.5
670 32 0.452672 0.858592 0.5
507 30 0.483247 0.867154 0.5
222 31 0.511798 0.83998 0.5
391 28 0.541288 0.851326 0.5
941 30 0.514179 0.875155 0.5
291 29 0.545865 0.881905 0.5
59 28 0.601546 0.838309 0.5
535 28 0.572352 0.858487 0.5
390 31 0.601354 0.870449 0.5
268 36 0.630977 0.856414 0.5
877 30 0.648524 0.885257 0.5
993 30 0.693764 0.835096 0.5
609 30 0.666005 0.860129 0.5
774 32 0.702518 0.866187 0.5
153 33 0.727351 0.845531 0.5
30 31 0.757962 0.855287 0.5
741 32 0.735895 0.879286 0.5
482 30 0.782213 0.835156 0.5
570 32 0.815589 0.841913 0.5
782 29 0.793316 0.863844 0.5
314 31 0.824562 0.874861 0.5
496 30 0.866269 0.83328 0.5
123 25 0.847192 0.854755 0.5
681 28 0.855581 0.882959 0.5
221 27 0.879597 0.863529 0.5
697 33 0.904593 0.840515 0.5
759 33 0.909955 0.873594 0.5
285 30 0.936199 0.852581 0.5
254 31 0.992672 0.83441 0.5
880 34 0.969079 0.860816 0.5
299 28 0.945517 0.883003 0.5
510 32 0.00619089 0.898657 0.5
396 31 0.0362443 0.909179 0.5
238 28 0.012015 0.935605 0.5
194 31 0.0679713 0.883784 0.5
873 31 0.0680167 0.919602 0.5
224 30 0.0973538 0.896625 0.5
905 30 0.0427415 0.943466 0.5
433 28 0.126302 0.918389 0.5
161 29 0.0982135 0.929522 0.5
992 33 0.157446 0.920711 0.5
610 30 0.189999 0.90003 0.5
865 27 0.199749 0.931573 0.5
647 30 0.222176 0.909327 0.5
315 30 0.254002 0.920891 0.5
261 33 0.230191 0.942017 0.5
567 30 0.27746 0.900417 0.5
775 32 0.285236 0.932053 0.5
387 30 0.308819 0.911101 0.5
131 29 0.3153 0.940973 0.5
5 32 0.372553 0.897096 0.5
257 32 0.339263 0.920645 0.5
330 29 0.374543 0.93076 0.5
860 30 0.403901 0.905913 0.5
984 31 0.408008 0.938748 0.5
230 31 0.433629 0.914537 0.5
657 28 0.461958 0.888529 0.5
150 34 0.466554 0.920975 0.5
525 29 0.489772 0.899408 0.5
831 30 0.500167 0.928831 0.5
937 31 0.526676 0.905779 0.5
890 32 0.534066 0.939661 0.5
523 27 0.554636 0.917551 0.5
362 31 0.576927 0.894791 0.5
537 29 0.586666 0.924258 0.5
817 33 0.610618 0.902858 0.5
192 33 0.6496 0.918515 0.5
444 32 0.620255 0.934536 0.5
366 30 0.681147 0.891425 0.5
629 28 0.680851 0.922792 0.5
708 29 0.711464 0.901264 0.5
147 30 0.715332 0.931942 0.5
669 34 0.767106 0.890064 0.5
453 28 0.74228 0.909604 0.5
253 30 0.750878 0.941342 0.5
746 28 0.777151 0.92467 0.5
415 28 0.801256 0.89952 0.5
843 32 0.810503 0.929097 0.5
527 30 0.832644 0.905437 0.5
945 32 0.862607 0.918618 0.5
924 28 0.840305 0.942517 0.5
558 31 0.887554 0.896523 0.5
975 29 0.894797 0.928288 0.5
334 32 0.919058 0.907214 0.5
183 29 0.927021 0.938014 0.5
613 29 0.983795 0.925327 0.5
501 32 0.953008 0.920306 0.5
689 30 0.973548 0.895546 0.5
922 33 0.00168739 0.999605 0.5
113 32 0.023266 0.972778 0.5
262 31 0.0873562 0.987559 0.5
34 31 0.0550765 0.982295 0.5
943 36 0.0746255 0.955837 0.5
248 28 0.133222 0.947524 0.5
518 30 0.106756 0.962999 0.5
894 29 0.145829 0.979095 0.5
538 32 0.208135 0.994563 0.5
642 31 0.177314 0.985271 0.5
207 31 0.166652 0.955453 0.5
828 30 0.202836 0.963333 0.5
213 31 0.259942 0.954363 0.5
710 33 0.236513 0.97664 0.5
61 31 0.267561 0.989043 0.5
339 33 0.300582 0.99745 0.5
459 33 0.293242 0.965589 0.5
462 30 0.323728 0.9751 0.5
316 34 0.350245 0.952809 0.5
907 29 0.360559 0.983318 0.5
659 32 0.383313 0.960013 0.5
743 31 0.392742 0.990498 0.5
884 33 0.419919 0.969866 0.5
623 33 0.442566 0.945509 0.5
148 32 0.472966 0.956758 0.5
122 30 0.450885 0.97951 0.5
536 29 0.481247 0.988624 0.5
650 30 0.506315 0.965344 0.5
494 27 0.540363 0.971231 0.5
798 32 0.563831 0.951662 0.5
982 31 0.608329 0.990226 0.5
78 26 0.598335 0.960866 0.5
256 32 0.575608 0.981551 0.5
102 27 0.655311 0.950288 0.5
355 31 0.630964 0.968069 0.5
551 30 0.665658 0.980709 0.5
159 32 0.686662 0.953431 0.5
214 32 0.696824 0.990609 0.5
509 29 0.731001 0.997685 0.5
395 29 0.716131 0.963337 0.5
340 27 0.754452 0.971639 0.5
858 31 0.783302 0.954922 0.5
76 29 0.784251 0.985984 0.5
583 28 0.817409 0.962334 0.5
55 29 0.869635 0.950523 0.5
243 31 0.844826 0.976607 0.5
588 29 0.875302 0.987212 0.5
258 34 0.905222 0.995733 0.5
842 29 0.897675 0.963874 0.5
931 30 0.929946 0.9716 0.5
436 31 0.960968 0.950882 0.5
219 29 0.988783 0.968673 0.5
780 30 0.960841 0.984505 0.5
