ITEM: TIMESTEP
1500000
ITEM: NUMBER OF ATOMS
1000
ITEM: BOX BOUNDS pp pp pp
-1.5211456999999999e+01 1.5211456999999999e+01
-1.5211456999999999e+01 1.5211456999999999e+01
-5.0000000000000000e-01 5.0000000000000000e-01
ITEM: ATOMS id type xs ys zs
229 32 0.0494005 0.0229362 0.5
895 29 0.0161632 0.0263623 0.5
382 37 0.0427709 0.0554252 0.5
317 36 0.00387439 0.0618134 0.5
202 38 0.0798218 0.0580077 0.5
272 36 0.0873654 0.0233718 0.5
737 34 0.11637 0.0506333 0.5
75 22 0.119561 0.0188011 0.5
855 31 0.135773 0.0775384 0.5
115 23 0.147211 0.0170407 0.5
615 28 0.151959 0.044272 0.5
923 33 0.184524 0.0467512 0.5
938 23 0.177645 0.0166011 0.5
920 29 0.20697 0.0210546 0.5
27 33 0.203243 0.0763304 0.5
806 27 0.168043 0.0751969 0.5
589 24 0.21877 0.0480548 0.5
350 17 0.235315 0.0204505 0.5
33 30 0.250552 0.0449171 0.5
648 25 0.263034 0.0164708 0.5
448 32 0.270284 0.0705385 0.5
155 30 0.236239 0.0748972 0.5
886 28 0.281004 0.0391508 0.5
976 23 0.314754 0.0378758 0.5
662 32 0.337022 0.0598462 0.5
851 31 0.306049 0.0685892 0.5
124 28 0.348268 0.0305759 0.5
215 28 0.292638 0.0112883 0.5
298 37 0.325162 0.0055517 0.5
513 27 0.369105 0.0579054 0.5
673 27 0.37927 0.0279856 0.5
170 33 0.400918 0.0520209 0.5
487 30 0.414109 0.0209855 0.5
819 30 0.420603 0.0791372 0.5
66 31 0.433419 0.0495208 0.5
461 32 0.448611 0.0184151 0.5
694 31 0.468965 0.0457506 0.5
71 34 0.488927 0.0747151 0.5
511 37 0.45345 0.0787937 0.5
473 31 0.481996 0.0124903 0.5
743 32 0.501836 0.0388221 0.5
706 32 0.535925 0.0377311 0.5
280 37 0.557218 0.0663277 0.5
330 28 0.523542 0.0675055 0.5
763 34 0.570317 0.0350672 0.5
957 35 0.592376 0.0619417 0.5
167 27 0.605387 0.0333602 0.5
961 30 0.626799 0.0585838 0.5
414 34 0.637497 0.0266939 0.5
493 25 0.657116 0.0530102 0.5
464 30 0.671293 0.0254757 0.5
536 28 0.691918 0.0482411 0.5
898 28 0.704972 0.0182677 0.5
582 29 0.71171 0.0741915 0.5
104 26 0.647682 0.0839016 0.5
430 33 0.677105 0.0766205 0.5
629 26 0.722436 0.044335 0.5
715 23 0.755057 0.0412687 0.5
31 24 0.736395 0.016525 0.5
492 39 0.746716 0.0731906 0.5
982 32 0.780445 0.0755773 0.5
912 38 0.787025 0.0412415 0.5
452 33 0.819057 0.0301411 0.5
655 29 0.843533 0.061493 0.5
57 32 0.812015 0.0643629 0.5
208 32 0.855672 0.0289587 0.5
211 19 0.870226 0.0572259 0.5
214 34 0.88915 0.0355077 0.5
301 36 0.900999 0.069657 0.5
583 25 0.92012 0.0400705 0.5
744 33 0.950033 0.0324172 0.5
742 31 0.983608 0.0294048 0.5
676 31 0.968953 0.0610874 0.5
569 33 0.937622 0.0684217 0.5
408 28 0.907469 0.00991673 0.5
360 18 0.961311 0.00601116 0.5
241 33 0.0647442 0.0879008 0.5
994 28 0.0521242 0.118968 0.5
859 39 0.0298803 0.0902209 0.5
356 25 0.0170721 0.11909 0.5
901 36 0.0412101 0.151483 0.5
653 25 0.0998115 0.0815789 0.5
393 38 0.0834424 0.115969 0.5
733 37 0.118944 0.110842 0.5
97 24 0.105343 0.140556 0.5
561 32 0.0750218 0.151433 0.5
700 26 0.139226 0.136069 0.5
797 31 0.153286 0.107977 0.5
80 29 0.187954 0.105141 0.5
210 28 0.207051 0.128896 0.5
132 31 0.172338 0.134384 0.5
705 29 0.220764 0.102669 0.5
736 26 0.240298 0.127992 0.5
933 29 0.257168 0.102399 0.5
130 28 0.275814 0.12452 0.5
776 31 0.291037 0.096925 0.5
260 28 0.309786 0.122404 0.5
936 25 0.325296 0.0913549 0.5
87 28 0.340674 0.115903 0.5
770 40 0.329845 0.149701 0.5
809 27 0.354149 0.0870313 0.5
273 28 0.386962 0.0822271 0.5
227 32 0.372982 0.113706 0.5
538 33 0.405452 0.107965 0.5
429 27 0.396749 0.140258 0.5
120 30 0.364564 0.144934 0.5
245 22 0.423806 0.135295 0.5
488 26 0.438645 0.107991 0.5
996 26 0.455952 0.131361 0.5
823 28 0.473117 0.106297 0.5
216 41 0.492312 0.135053 0.5
181 32 0.509133 0.101167 0.5
203 39 0.529968 0.131343 0.5
517 36 0.542529 0.0977553 0.5
953 29 0.563276 0.123856 0.5
409 30 0.578423 0.0945426 0.5
440 38 0.612025 0.0902948 0.5
114 26 0.596993 0.12036 0.5
834 31 0.62284 0.146011 0.5
646 28 0.63419 0.114116 0.5
239 35 0.585668 0.150007 0.5
403 26 0.666267 0.111247 0.5
900 25 0.695365 0.10257 0.5
457 37 0.690765 0.134769 0.5
944 29 0.653009 0.139819 0.5
90 39 0.730442 0.10758 0.5
699 24 0.758781 0.133871 0.5
358 28 0.772588 0.107609 0.5
761 29 0.721603 0.140263 0.5
788 33 0.792248 0.132349 0.5
413 26 0.80167 0.0986785 0.5
103 32 0.823945 0.126023 0.5
312 38 0.833532 0.0938349 0.5
568 31 0.858312 0.118224 0.5
963 27 0.867175 0.0864242 0.5
485 34 0.893013 0.108564 0.5
799 28 0.918322 0.135216 0.5
745 34 0.8827 0.14249 0.5
677 38 0.92902 0.102052 0.5
749 28 0.996191 0.0947023 0.5
425 32 0.963744 0.0936916 0.5
138 31 0.987173 0.126961 0.5
310 33 0.953806 0.128309 0.5
829 25 0.0610828 0.180159 0.5
521 32 0.0248096 0.182219 0.5
100 33 0.0455115 0.208032 0.5
270 31 0.00764293 0.152134 0.5
6 16 0.0145171 0.210642 0.5
661 30 0.081473 0.205261 0.5
353 29 0.0951657 0.176401 0.5
346 29 0.114536 0.20132 0.5
530 29 0.126761 0.168106 0.5
964 33 0.146629 0.195272 0.5
813 30 0.158635 0.163314 0.5
751 25 0.179307 0.19 0.5
712 29 0.190848 0.160125 0.5
618 35 0.211717 0.192202 0.5
326 42 0.22731 0.158532 0.5
967 25 0.247691 0.188592 0.5
171 33 0.260332 0.156143 0.5
162 32 0.27905 0.183344 0.5
614 29 0.233313 0.218228 0.5
762 32 0.266468 0.215212 0.5
244 29 0.293562 0.149178 0.5
939 37 0.312818 0.181785 0.5
756 28 0.346095 0.180978 0.5
856 28 0.332105 0.211002 0.5
542 32 0.299288 0.212312 0.5
28 27 0.362986 0.206164 0.5
199 36 0.378173 0.175204 0.5
847 37 0.411636 0.16897 0.5
252 35 0.398838 0.201476 0.5
555 30 0.436138 0.196757 0.5
18 41 0.448065 0.163764 0.5
96 30 0.467475 0.198072 0.5
608 29 0.482939 0.170109 0.5
169 22 0.551236 0.155986 0.5
385 32 0.502357 0.195501 0.5
168 36 0.516106 0.163776 0.5
690 27 0.538816 0.187386 0.5
802 35 0.555819 0.215125 0.5
442 35 0.571541 0.183581 0.5
621 28 0.610566 0.176778 0.5
841 31 0.631359 0.199921 0.5
325 32 0.59393 0.20741 0.5
274 28 0.642525 0.171481 0.5
434 25 0.662852 0.200519 0.5
400 34 0.676624 0.167783 0.5
112 25 0.693406 0.194895 0.5
671 26 0.710262 0.166801 0.5
914 26 0.680027 0.22384 0.5
424 23 0.731921 0.190068 0.5
174 31 0.743951 0.163036 0.5
845 27 0.775798 0.160653 0.5
73 31 0.763305 0.190563 0.5
950 32 0.714845 0.219334 0.5
4 32 0.747213 0.219966 0.5
508 28 0.779229 0.220041 0.5
666 32 0.810617 0.159855 0.5
265 41 0.845647 0.154595 0.5
637 28 0.794837 0.187635 0.5
838 23 0.825548 0.188172 0.5
566 31 0.810358 0.214607 0.5
278 33 0.85144 0.205576 0.5
779 37 0.874256 0.179307 0.5
307 32 0.892427 0.208478 0.5
416 34 0.90959 0.168911 0.5
529 28 0.921359 0.198358 0.5
443 28 0.992115 0.182569 0.5
332 27 0.942642 0.157038 0.5
571 42 0.956356 0.187578 0.5
363 26 0.972992 0.158444 0.5
603 29 0.983926 0.214854 0.5
375 30 0.0524343 0.267167 0.5
540 34 0.0352263 0.24118 0.5
980 28 0.0217056 0.268455 0.5
803 31 0.067561 0.233861 0.5
165 23 0.00328315 0.236663 0.5
283 36 0.133784 0.228545 0.5
141 32 0.0863887 0.262746 0.5
365 27 0.0996921 0.232943 0.5
12 34 0.119482 0.25941 0.5
381 32 0.106543 0.294338 0.5
377 27 0.201525 0.220258 0.5
264 31 0.168567 0.222805 0.5
177 25 0.139034 0.285661 0.5
313 33 0.153926 0.256962 0.5
418 34 0.186941 0.251509 0.5
345 32 0.173805 0.281905 0.5
574 23 0.208201 0.275866 0.5
686 30 0.220291 0.24782 0.5
233 27 0.243184 0.272439 0.5
24 30 0.2524 0.244115 0.5
672 31 0.273996 0.269369 0.5
428 28 0.28752 0.24104 0.5
259 21 0.304739 0.265267 0.5
196 31 0.318532 0.238803 0.5
720 28 0.336061 0.266953 0.5
723 29 0.325907 0.295659 0.5
787 27 0.353454 0.236366 0.5
882 35 0.373416 0.262454 0.5
848 29 0.382669 0.231932 0.5
290 31 0.419849 0.228608 0.5
54 29 0.404656 0.259366 0.5
837 33 0.358135 0.293412 0.5
564 27 0.395274 0.287976 0.5
405 29 0.45151 0.22618 0.5
785 33 0.487963 0.226003 0.5
597 25 0.428094 0.285612 0.5
966 25 0.441273 0.254012 0.5
232 28 0.472532 0.252059 0.5
728 33 0.459738 0.282251 0.5
376 39 0.503866 0.267507 0.5
389 38 0.523473 0.231147 0.5
935 26 0.538046 0.274951 0.5
651 25 0.55074 0.249124 0.5
263 29 0.56926 0.271982 0.5
991 32 0.580652 0.239991 0.5
72 26 0.600523 0.262757 0.5
144 33 0.615302 0.233495 0.5
664 31 0.631437 0.26036 0.5
372 27 0.648659 0.229462 0.5
734 32 0.666467 0.256673 0.5
607 37 0.697638 0.251647 0.5
674 28 0.686621 0.28565 0.5
707 44 0.652217 0.291079 0.5
977 35 0.71901 0.281262 0.5
368 33 0.733907 0.25087 0.5
21 31 0.754014 0.283132 0.5
497 32 0.765928 0.251213 0.5
121 32 0.786662 0.286161 0.5
658 35 0.801114 0.247972 0.5
383 35 0.824092 0.274768 0.5
402 37 0.835172 0.239067 0.5
217 32 0.856693 0.268941 0.5
225 34 0.869098 0.235199 0.5
91 25 0.890855 0.2596 0.5
874 37 0.913832 0.237538 0.5
94 25 0.913134 0.276789 0.5
887 32 0.884353 0.291752 0.5
329 34 0.945691 0.223217 0.5
519 24 0.993598 0.264312 0.5
491 30 0.938908 0.259651 0.5
879 33 0.971171 0.244854 0.5
892 23 0.967268 0.279423 0.5
438 27 0.0544942 0.322169 0.5
44 33 0.0350876 0.297819 0.5
41 31 0.0244256 0.331921 0.5
807 23 0.0575286 0.350707 0.5
557 37 -0.000643356 0.296026 0.5
578 29 -0.00101706 0.357543 0.5
606 34 0.071476 0.293095 0.5
652 40 0.0888559 0.326734 0.5
191 36 0.130776 0.316254 0.5
575 32 0.116804 0.348415 0.5
288 35 0.154342 0.342459 0.5
544 28 0.16311 0.309472 0.5
698 22 0.18284 0.329936 0.5
2 29 0.19531 0.302708 0.5
271 30 0.184086 0.360064 0.5
849 35 0.21166 0.339438 0.5
611 36 0.229211 0.301032 0.5
188 31 0.246396 0.332592 0.5
84 27 0.261465 0.301227 0.5
973 22 0.233984 0.359137 0.5
545 38 0.26646 0.363196 0.5
548 36 0.279072 0.3293 0.5
369 34 0.294305 0.298436 0.5
407 26 0.314955 0.323008 0.5
983 32 0.339001 0.356795 0.5
881 27 0.345665 0.325129 0.5
897 31 0.306012 0.353668 0.5
750 32 0.371066 0.3508 0.5
917 38 0.381515 0.318483 0.5
534 33 0.402137 0.347192 0.5
427 31 0.4152 0.314447 0.5
293 35 0.438168 0.340607 0.5
8 26 0.44753 0.309557 0.5
995 25 0.485956 0.300742 0.5
201 33 0.471495 0.331085 0.5
458 36 0.492145 0.357315 0.5
140 30 0.459198 0.366782 0.5
228 27 0.554551 0.2998 0.5
885 25 0.515985 0.297953 0.5
965 30 0.505474 0.327684 0.5
303 29 0.537447 0.323719 0.5
77 21 0.553313 0.347379 0.5
815 30 0.52374 0.354793 0.5
331 27 0.571394 0.326889 0.5
888 28 0.584966 0.297404 0.5
814 31 0.603225 0.326317 0.5
645 33 0.615914 0.2955 0.5
105 31 0.613896 0.356507 0.5
20 34 0.581155 0.360312 0.5
384 41 0.641057 0.333936 0.5
875 34 0.674917 0.320494 0.5
333 30 0.697804 0.345008 0.5
949 34 0.705936 0.313683 0.5
251 32 0.667506 0.35651 0.5
988 20 0.725936 0.33571 0.5
581 24 0.736794 0.308838 0.5
476 22 0.766424 0.309851 0.5
619 32 0.758189 0.338472 0.5
348 27 0.7301 0.362918 0.5
531 27 0.789362 0.324674 0.5
157 32 0.797157 0.354835 0.5
593 25 0.812464 0.303169 0.5
832 40 0.825194 0.334205 0.5
500 40 0.848404 0.305245 0.5
431 31 0.856081 0.350449 0.5
688 27 0.827205 0.37082 0.5
952 33 0.877822 0.328332 0.5
805 28 0.911941 0.311951 0.5
364 32 0.909938 0.344174 0.5
277 27 0.883747 0.362841 0.5
176 32 0.940111 0.295306 0.5
426 23 0.99393 0.326501 0.5
156 25 0.94055 0.325748 0.5
17 27 0.970113 0.308942 0.5
101 27 0.966994 0.339617 0.5
39 27 0.940163 0.355862 0.5
633 30 0.0281727 0.365192 0.5
632 30 0.0594363 0.380464 0.5
999 36 0.0629709 0.412174 0.5
585 32 0.0298645 0.398239 0.5
818 26 0.00435989 0.418951 0.5
784 28 0.0024595 0.386156 0.5
533 35 0.0869726 0.363862 0.5
601 31 0.091581 0.396473 0.5
729 24 0.118444 0.412306 0.5
869 32 0.121206 0.379275 0.5
911 29 0.0935815 0.428419 0.5
822 34 0.151715 0.413171 0.5
929 33 0.154551 0.376776 0.5
716 30 0.182137 0.392008 0.5
748 35 0.188184 0.424492 0.5
862 25 0.210124 0.37303 0.5
480 26 0.213425 0.403339 0.5
628 31 0.24183 0.387945 0.5
579 28 0.278553 0.425596 0.5
503 37 0.244777 0.421882 0.5
713 36 0.284716 0.393492 0.5
234 34 0.311192 0.423154 0.5
586 41 0.320268 0.385815 0.5
447 36 0.343899 0.412452 0.5
781 29 0.360855 0.382284 0.5
631 30 0.3818 0.408658 0.5
783 26 0.392195 0.377923 0.5
792 31 0.415314 0.401838 0.5
786 37 0.403162 0.435492 0.5
812 27 0.424851 0.369416 0.5
357 36 0.437453 0.428162 0.5
154 28 0.447331 0.396091 0.5
709 30 0.469154 0.423422 0.5
616 30 0.480902 0.392122 0.5
902 30 0.506481 0.413741 0.5
532 28 0.516278 0.383108 0.5
541 33 0.540095 0.40727 0.5
556 29 0.547196 0.374859 0.5
65 31 0.565355 0.431249 0.5
794 31 0.573328 0.399667 0.5
928 33 0.604462 0.386115 0.5
595 35 0.636357 0.406948 0.5
504 38 0.601069 0.423329 0.5
479 21 0.636786 0.439028 0.5
692 28 0.640593 0.372064 0.5
36 36 0.667261 0.392507 0.5
587 35 0.699765 0.378994 0.5
175 42 0.702412 0.414704 0.5
730 31 0.6669 0.431022 0.5
626 35 0.733824 0.392915 0.5
665 40 0.766805 0.37329 0.5
296 30 0.770013 0.407697 0.5
740 34 0.742508 0.426584 0.5
478 29 0.798251 0.388511 0.5
910 30 0.801053 0.420954 0.5
206 32 0.82697 0.402804 0.5
421 34 0.857383 0.385598 0.5
47 31 0.858997 0.419064 0.5
309 33 0.887472 0.3975 0.5
471 25 0.909651 0.37536 0.5
166 30 0.916394 0.413426 0.5
9 28 0.890279 0.430929 0.5
679 42 0.942746 0.389963 0.5
343 33 0.973646 0.40597 0.5
821 26 0.969363 0.369263 0.5
267 27 0.947324 0.425907 0.5
590 25 0.0386174 0.43483 0.5
974 26 0.0440525 0.468186 0.5
625 32 0.0102126 0.451764 0.5
46 33 0.0160375 0.484605 0.5
553 32 0.067777 0.447195 0.5
772 32 0.0718106 0.480404 0.5
341 26 0.101625 0.460798 0.5
35 37 0.129501 0.443416 0.5
119 29 0.133376 0.475457 0.5
187 33 0.102808 0.493099 0.5
85 23 0.16121 0.442996 0.5
135 29 0.165915 0.473539 0.5
336 35 0.193053 0.458787 0.5
212 25 0.187071 0.496981 0.5
971 21 0.215882 0.436245 0.5
962 45 0.21983 0.485817 0.5
791 27 0.23675 0.455783 0.5
294 30 0.256419 0.488852 0.5
512 31 0.266376 0.455302 0.5
854 28 0.286768 0.482609 0.5
22 34 0.302489 0.454915 0.5
925 23 0.323352 0.476576 0.5
959 27 0.335706 0.44802 0.5
600 35 0.344519 0.503359 0.5
179 31 0.355978 0.471051 0.5
687 33 0.36712 0.439761 0.5
51 31 0.38728 0.465989 0.5
563 35 0.406754 0.49088 0.5
116 23 0.376328 0.500952 0.5
275 32 0.42478 0.459911 0.5
693 29 0.44616 0.485505 0.5
636 23 0.459107 0.453535 0.5
300 36 0.4949 0.447471 0.5
620 28 0.477976 0.478483 0.5
550 25 0.500531 0.499873 0.5
92 28 0.533824 0.441462 0.5
475 26 0.515488 0.472085 0.5
129 36 0.555818 0.466473 0.5
948 36 0.537063 0.497606 0.5
543 33 0.572111 0.495381 0.5
594 33 0.590934 0.459789 0.5
446 28 0.622277 0.46331 0.5
349 40 0.607 0.492322 0.5
767 39 0.644647 0.495336 0.5
128 31 0.656413 0.46168 0.5
324 38 0.679894 0.488258 0.5
893 30 0.689466 0.453376 0.5
771 26 0.713643 0.476208 0.5
840 26 0.712203 0.505581 0.5
958 23 0.717983 0.445883 0.5
549 30 0.743496 0.46192 0.5
125 30 0.772384 0.443407 0.5
42 40 0.773846 0.477098 0.5
108 33 0.74071 0.493857 0.5
864 25 0.786131 0.505994 0.5
866 29 0.828937 0.435317 0.5
133 32 0.80541 0.454574 0.5
297 30 0.810384 0.489023 0.5
118 26 0.833731 0.467678 0.5
711 34 0.839636 0.503272 0.5
83 31 0.860248 0.452122 0.5
727 35 0.870579 0.487105 0.5
282 28 0.892526 0.462548 0.5
70 28 0.920595 0.44572 0.5
318 35 0.918923 0.481062 0.5
311 28 0.897033 0.50434 0.5
137 33 0.94917 0.458966 0.5
136 37 0.977776 0.438954 0.5
904 34 0.979048 0.474366 0.5
599 33 0.951856 0.494105 0.5
968 37 0.0451664 0.507614 0.5
435 24 0.0545448 0.53896 0.5
110 30 0.0232791 0.553446 0.5
289 23 0.0166989 0.521628 0.5
269 32 0.0511411 0.569875 0.5
778 25 0.0774405 0.5136 0.5
861 35 0.081697 0.554082 0.5
725 38 0.106218 0.528496 0.5
853 20 0.129432 0.507599 0.5
109 41 0.120856 0.564404 0.5
916 26 0.140238 0.534389 0.5
696 27 0.155001 0.503035 0.5
643 28 0.162508 0.559023 0.5
906 38 0.174183 0.529393 0.5
724 39 0.197328 0.558475 0.5
946 30 0.207568 0.521399 0.5
790 32 0.231181 0.552743 0.5
868 37 0.242088 0.518935 0.5
793 29 0.275042 0.514539 0.5
359 33 0.2656 0.54645 0.5
186 31 0.253428 0.57746 0.5
26 39 0.309115 0.507397 0.5
830 29 0.287027 0.570966 0.5
465 27 0.300095 0.542867 0.5
641 29 0.329253 0.53685 0.5
422 30 0.323278 0.565683 0.5
111 29 0.356479 0.560949 0.5
764 36 0.365672 0.529976 0.5
714 29 0.386877 0.558243 0.5
361 33 0.400394 0.524842 0.5
680 29 0.422223 0.550829 0.5
29 29 0.469557 0.509784 0.5
524 33 0.432805 0.515996 0.5
410 39 0.457487 0.541624 0.5
441 30 0.47514 0.569828 0.5
826 30 0.493401 0.534726 0.5
913 29 0.443324 0.575169 0.5
7 34 0.526439 0.530964 0.5
702 28 0.545476 0.560285 0.5
942 26 0.558799 0.527285 0.5
640 36 0.510825 0.564354 0.5
796 27 0.574878 0.554818 0.5
412 29 0.589704 0.528306 0.5
117 31 0.607866 0.556561 0.5
506 36 0.624683 0.523774 0.5
956 33 0.642071 0.55657 0.5
732 28 0.658454 0.527275 0.5
371 29 0.675217 0.560667 0.5
816 32 0.690581 0.530071 0.5
79 37 0.710005 0.559705 0.5
432 29 0.726908 0.530658 0.5
126 32 0.758157 0.522218 0.5
347 43 0.749758 0.559247 0.5
406 30 0.783398 0.540333 0.5
870 30 0.784121 0.571464 0.5
1000 35 0.812496 0.522843 0.5
404 31 0.81551 0.558797 0.5
810 31 0.842697 0.537203 0.5
454 32 0.847202 0.571617 0.5
850 24 0.868774 0.520459 0.5
184 27 0.8714 0.550678 0.5
23 28 0.899349 0.535799 0.5
573 30 0.926306 0.51575 0.5
323 30 0.900076 0.570365 0.5
522 35 0.929028 0.550967 0.5
997 34 0.959456 0.526354 0.5
64 31 0.989144 0.505688 0.5
683 34 0.989488 0.538222 0.5
981 30 0.962467 0.559374 0.5
392 30 0.991352 0.571467 0.5
960 39 0.0599128 0.603844 0.5
880 39 0.0193205 0.588517 0.5
474 28 0.0244637 0.622916 0.5
612 27 0.052761 0.637697 0.5
867 36 0.0922454 0.589153 0.5
43 35 0.0975184 0.625263 0.5
514 26 0.122754 0.599511 0.5
918 39 0.138305 0.629415 0.5
489 22 0.0776558 0.652874 0.5
777 27 0.152943 0.591157 0.5
285 30 0.172023 0.616479 0.5
865 22 0.182576 0.586114 0.5
93 41 0.208368 0.612661 0.5
477 31 0.193349 0.644682 0.5
450 24 0.221057 0.583778 0.5
190 39 0.23158 0.639028 0.5
515 29 0.242372 0.606642 0.5
160 29 0.264745 0.628361 0.5
624 24 0.274842 0.598577 0.5
95 32 0.297723 0.628205 0.5
495 33 0.307732 0.596298 0.5
789 28 0.332047 0.622 0.5
951 30 0.342497 0.58911 0.5
240 29 0.350266 0.647377 0.5
60 27 0.408061 0.579451 0.5
833 32 0.363908 0.616062 0.5
668 23 0.376732 0.585161 0.5
726 29 0.398264 0.610059 0.5
74 35 0.418154 0.638223 0.5
399 34 0.385402 0.642362 0.5
872 38 0.431386 0.605127 0.5
205 28 0.455113 0.635737 0.5
972 29 0.464645 0.603806 0.5
151 37 0.488716 0.628194 0.5
909 28 0.495596 0.595453 0.5
449 26 0.51777 0.615043 0.5
954 24 0.531473 0.589929 0.5
19 28 0.559912 0.588399 0.5
576 33 0.548655 0.619726 0.5
985 25 0.547298 0.652291 0.5
286 31 0.591418 0.585417 0.5
423 34 0.625259 0.58604 0.5
634 19 0.579092 0.613532 0.5
883 35 0.608033 0.617969 0.5
40 38 0.581383 0.644171 0.5
13 31 0.618811 0.647801 0.5
45 28 0.642462 0.613125 0.5
281 26 0.65843 0.585208 0.5
306 27 0.674609 0.610408 0.5
765 24 0.692254 0.587297 0.5
266 35 0.652497 0.642766 0.5
470 30 0.687258 0.637965 0.5
758 23 0.707029 0.612968 0.5
362 32 0.724472 0.636989 0.5
394 30 0.731597 0.591914 0.5
486 37 0.754898 0.621143 0.5
604 23 0.762094 0.590068 0.5
572 33 0.787416 0.641348 0.5
337 29 0.787069 0.607633 0.5
411 31 0.8157 0.591619 0.5
602 26 0.814307 0.623513 0.5
195 36 0.845526 0.606531 0.5
820 29 0.845443 0.640753 0.5
800 24 0.817004 0.653067 0.5
899 23 0.875589 0.589142 0.5
691 38 0.877047 0.62274 0.5
496 30 0.90428 0.601724 0.5
678 30 0.910543 0.634065 0.5
354 34 0.887851 0.659728 0.5
654 25 0.935185 0.582509 0.5
50 32 0.93497 0.612931 0.5
584 26 0.966174 0.592248 0.5
338 29 0.964027 0.625757 0.5
142 31 0.992231 0.608208 0.5
163 26 0.939433 0.645532 0.5
319 29 0.995935 0.639259 0.5
295 33 0.0517672 0.670633 0.5
878 32 0.0236213 0.654092 0.5
88 40 0.0270866 0.695087 0.5
248 26 0.061176 0.70422 0.5
546 32 0.0832863 0.681026 0.5
231 32 0.10949 0.65531 0.5
539 31 0.117517 0.688618 0.5
675 27 0.139217 0.665791 0.5
436 31 0.0917302 0.711924 0.5
697 36 0.150531 0.697275 0.5
146 25 0.163897 0.651126 0.5
237 34 0.181136 0.678837 0.5
518 30 0.181742 0.713609 0.5
970 23 0.208659 0.69925 0.5
801 26 0.215096 0.670379 0.5
351 31 0.242809 0.688946 0.5
401 25 0.255894 0.660653 0.5
207 31 0.274475 0.686551 0.5
433 25 0.26091 0.714239 0.5
223 20 0.233296 0.719269 0.5
352 27 0.286075 0.656361 0.5
344 22 0.307364 0.683543 0.5
947 33 0.318301 0.653622 0.5
907 27 0.326099 0.708205 0.5
684 25 0.340944 0.679424 0.5
552 30 0.292414 0.713362 0.5
48 26 0.359432 0.702807 0.5
127 24 0.371676 0.674735 0.5
398 37 0.397264 0.697947 0.5
145 25 0.410191 0.669262 0.5
204 34 0.432086 0.696855 0.5
460 34 0.44345 0.664822 0.5
1 26 0.463974 0.691346 0.5
235 35 0.478771 0.662023 0.5
472 27 0.499546 0.685036 0.5
627 33 0.515787 0.647455 0.5
903 31 0.5308 0.680326 0.5
667 27 0.550246 0.711064 0.5
639 22 0.520602 0.716393 0.5
287 35 0.567545 0.680024 0.5
32 22 0.586688 0.705777 0.5
62 28 0.600584 0.672725 0.5
82 33 0.6156 0.702734 0.5
739 42 0.638751 0.675565 0.5
417 26 0.662292 0.699953 0.5
388 26 0.674477 0.671941 0.5
226 31 0.705068 0.666289 0.5
547 33 0.695087 0.697398 0.5
246 33 0.711758 0.725712 0.5
370 36 0.731109 0.690117 0.5
11 37 0.757125 0.660061 0.5
915 27 0.764652 0.692866 0.5
560 29 0.779315 0.720446 0.5
321 31 0.74765 0.720239 0.5
25 33 0.793202 0.674855 0.5
292 28 0.82479 0.682031 0.5
49 28 0.853523 0.669648 0.5
335 33 0.846496 0.706897 0.5
782 28 0.807423 0.708636 0.5
268 43 0.880794 0.695525 0.5
123 19 0.919757 0.666277 0.5
327 31 0.916708 0.698534 0.5
159 34 0.900194 0.727046 0.5
774 33 0.998712 0.675231 0.5
221 23 0.944752 0.678268 0.5
635 23 0.948844 0.707082 0.5
759 35 0.969639 0.658683 0.5
908 22 0.971563 0.689189 0.5
760 26 0.994683 0.709238 0.5
605 25 0.0371064 0.726189 0.5
149 28 0.0443403 0.756408 0.5
322 23 0.0170905 0.764972 0.5
975 27 0.0102486 0.735088 0.5
876 31 0.0675103 0.735129 0.5
254 33 0.0377876 0.789191 0.5
757 38 0.0721135 0.77472 0.5
236 40 0.126254 0.723847 0.5
134 34 0.0959187 0.748382 0.5
98 35 0.129906 0.759019 0.5
501 34 0.107618 0.786796 0.5
161 27 0.141696 0.791385 0.5
647 30 0.158577 0.737539 0.5
931 30 0.163359 0.768525 0.5
308 26 0.187964 0.747134 0.5
630 32 0.197395 0.778463 0.5
718 21 0.209852 0.726529 0.5
747 24 0.21543 0.753874 0.5
459 35 0.246017 0.7485 0.5
261 37 0.269402 0.777944 0.5
200 34 0.230526 0.779417 0.5
10 29 0.279604 0.746204 0.5
342 38 0.312671 0.739723 0.5
468 27 0.301994 0.771214 0.5
462 29 0.348016 0.732232 0.5
439 28 0.334813 0.766311 0.5
617 33 0.355259 0.79046 0.5
610 30 0.417292 0.726466 0.5
721 27 0.364264 0.759289 0.5
827 40 0.383173 0.730668 0.5
37 29 0.405769 0.757184 0.5
419 33 0.388301 0.784751 0.5
315 28 0.422273 0.783266 0.5
339 35 0.487475 0.715143 0.5
731 34 0.453531 0.722338 0.5
53 35 0.436279 0.752427 0.5
220 30 0.471326 0.752308 0.5
567 29 0.45389 0.781004 0.5
316 37 0.489781 0.781376 0.5
863 27 0.507468 0.744793 0.5
15 33 0.524515 0.771087 0.5
99 25 0.538575 0.741703 0.5
554 29 0.558843 0.767375 0.5
717 30 0.569246 0.735858 0.5
284 35 0.64244 0.727701 0.5
722 33 0.591539 0.765079 0.5
152 34 0.603477 0.732873 0.5
526 30 0.628041 0.759869 0.5
507 29 0.612924 0.790758 0.5
386 36 0.647549 0.789363 0.5
937 32 0.662072 0.757283 0.5
804 29 0.677329 0.726757 0.5
78 21 0.69805 0.754703 0.5
825 36 0.682803 0.788245 0.5
69 35 0.717795 0.784541 0.5
230 31 0.73302 0.755127 0.5
978 23 0.752825 0.780065 0.5
3 33 0.766124 0.750575 0.5
735 28 0.785247 0.776811 0.5
932 27 0.796824 0.745945 0.5
755 25 0.814369 0.768731 0.5
185 36 0.828041 0.736981 0.5
481 30 0.850549 0.764996 0.5
30 32 0.864659 0.733197 0.5
562 36 0.892165 0.75866 0.5
56 27 0.92502 0.766568 0.5
638 46 0.870634 0.792698 0.5
570 34 0.933316 0.733834 0.5
334 33 0.954988 0.76276 0.5
669 39 0.970476 0.730762 0.5
147 30 0.987222 0.763167 0.5
843 34 0.00344607 0.791938 0.5
299 25 0.0526791 0.816566 0.5
858 33 0.0230479 0.820472 0.5
183 28 0.0386168 0.850737 0.5
945 34 0.00819336 0.850793 0.5
276 34 0.0699525 0.844546 0.5
922 36 0.0834292 0.811659 0.5
613 28 0.104194 0.843614 0.5
663 33 0.123288 0.81807 0.5
656 22 0.140041 0.843089 0.5
502 26 0.153257 0.818989 0.5
367 28 0.171268 0.797139 0.5
889 28 0.173286 0.841771 0.5
695 22 0.191218 0.820962 0.5
328 23 0.203732 0.84469 0.5
839 28 0.219524 0.812752 0.5
992 36 0.236581 0.839632 0.5
510 35 0.253589 0.807388 0.5
131 28 0.271733 0.838927 0.5
213 32 0.322028 0.79733 0.5
642 31 0.288396 0.804262 0.5
193 28 0.30301 0.835744 0.5
989 34 0.340725 0.825144 0.5
320 33 0.325068 0.8577 0.5
873 32 0.291875 0.868249 0.5
466 42 0.362067 0.853762 0.5
257 33 0.374171 0.819893 0.5
565 27 0.39648 0.848566 0.5
180 33 0.408383 0.815506 0.5
374 34 0.427963 0.842851 0.5
387 29 0.441194 0.809863 0.5
984 32 0.459568 0.838012 0.5
811 27 0.472655 0.809462 0.5
738 32 0.495484 0.827996 0.5
490 32 0.483051 0.861767 0.5
304 28 0.54736 0.797102 0.5
189 14 0.513482 0.800259 0.5
198 35 0.528084 0.824726 0.5
5 33 0.563083 0.828151 0.5
86 30 0.549809 0.85797 0.5
61 32 0.515735 0.856853 0.5
523 22 0.578111 0.794662 0.5
222 33 0.597665 0.820294 0.5
650 29 0.617386 0.852384 0.5
623 36 0.584147 0.857236 0.5
682 35 0.631563 0.821229 0.5
256 33 0.651032 0.848921 0.5
808 27 0.666677 0.819176 0.5
773 21 0.686894 0.841624 0.5
494 23 0.698368 0.814648 0.5
890 33 0.721232 0.83831 0.5
366 29 0.740439 0.809994 0.5
209 26 0.756195 0.837378 0.5
302 26 0.769149 0.805663 0.5
525 26 0.773246 0.869906 0.5
979 34 0.741122 0.865193 0.5
437 32 0.788052 0.834914 0.5
741 33 0.832059 0.794261 0.5
453 26 0.801272 0.807833 0.5
817 35 0.822891 0.8304 0.5
373 35 0.856221 0.827793 0.5
395 28 0.839365 0.860116 0.5
355 31 0.809254 0.86258 0.5
527 28 0.906851 0.792355 0.5
598 34 0.890061 0.826884 0.5
484 34 0.924329 0.822569 0.5
107 29 0.869903 0.859656 0.5
877 29 0.906957 0.857151 0.5
340 23 0.941879 0.793554 0.5
842 28 0.971672 0.793303 0.5
836 29 0.955758 0.822488 0.5
463 27 0.987284 0.821695 0.5
314 31 0.973253 0.851922 0.5
52 37 0.940207 0.851521 0.5
689 30 0.0578548 0.877127 0.5
258 38 0.0420942 0.906968 0.5
76 26 0.0253912 0.879174 0.5
719 24 0.0103985 0.912398 0.5
969 29 0.0747134 0.904666 0.5
746 25 0.0907316 0.869671 0.5
857 39 0.107003 0.900243 0.5
219 28 0.12341 0.869333 0.5
396 31 0.12576 0.931531 0.5
780 29 0.141098 0.903073 0.5
89 30 0.154573 0.870639 0.5
710 36 0.174499 0.90217 0.5
38 29 0.189931 0.871544 0.5
249 34 0.193724 0.930941 0.5
143 30 0.159563 0.933947 0.5
262 32 0.254425 0.869902 0.5
828 29 0.209462 0.900838 0.5
34 31 0.22122 0.870384 0.5
224 30 0.24042 0.902227 0.5
846 33 0.261809 0.92803 0.5
905 30 0.227081 0.932085 0.5
238 25 0.270811 0.894195 0.5
113 35 0.295864 0.914731 0.5
172 21 0.314282 0.888009 0.5
891 33 0.332285 0.912809 0.5
498 29 0.346524 0.884289 0.5
197 29 0.416314 0.874488 0.5
194 31 0.366988 0.907635 0.5
505 33 0.384829 0.879454 0.5
81 28 0.402664 0.907379 0.5
596 28 0.387435 0.935665 0.5
775 33 0.422809 0.935861 0.5
941 29 0.449272 0.867649 0.5
451 33 0.435581 0.900054 0.5
559 33 0.468177 0.894411 0.5
577 36 0.456746 0.926301 0.5
391 25 0.491705 0.923322 0.5
670 34 0.502694 0.889886 0.5
659 35 0.524747 0.917671 0.5
657 25 0.53619 0.886329 0.5
852 34 0.557473 0.915407 0.5
58 27 0.5692 0.885955 0.5
835 33 0.590971 0.909707 0.5
535 25 0.605145 0.881644 0.5
291 27 0.624318 0.907911 0.5
59 24 0.636294 0.876773 0.5
896 30 0.605499 0.940596 0.5
390 32 0.707096 0.868812 0.5
537 27 0.658402 0.90553 0.5
150 38 0.672785 0.875648 0.5
444 33 0.695616 0.903459 0.5
921 36 0.641033 0.933936 0.5
993 30 0.674635 0.933868 0.5
752 26 0.7096 0.934267 0.5
592 25 0.727424 0.896673 0.5
551 30 0.758023 0.897168 0.5
926 33 0.73829 0.926226 0.5
102 23 0.775192 0.923731 0.5
253 29 0.794271 0.893355 0.5
930 26 0.811174 0.917927 0.5
681 24 0.827455 0.890249 0.5
708 26 0.840445 0.916685 0.5
482 29 0.856001 0.890535 0.5
415 25 0.875205 0.915823 0.5
520 31 0.889562 0.88668 0.5
173 30 0.90841 0.914954 0.5
420 34 0.924074 0.886752 0.5
591 26 0.893968 0.94384 0.5
153 37 0.994298 0.883411 0.5
483 28 0.942992 0.913419 0.5
243 33 0.958457 0.883716 0.5
955 28 0.974062 0.914012 0.5
940 27 0.0601576 0.93528 0.5
528 33 0.0300762 0.996051 0.5
622 28 0.045202 0.968313 0.5
768 31 0.0268148 0.939993 0.5
182 32 0.0103295 0.970721 0.5
924 26 0.0650314 0.995159 0.5
63 29 0.0927148 0.932554 0.5
378 31 0.0778457 0.962206 0.5
164 33 0.0969646 0.99046 0.5
106 21 0.107819 0.961323 0.5
68 31 0.128532 0.988344 0.5
379 27 0.140144 0.95876 0.5
456 31 0.160114 0.988788 0.5
644 30 0.179772 0.959877 0.5
998 31 0.193753 0.991552 0.5
397 32 0.211476 0.961669 0.5
242 35 0.230494 0.990308 0.5
55 28 0.243544 0.960827 0.5
943 43 0.267946 0.984591 0.5
279 32 0.354392 0.937869 0.5
685 30 0.284349 0.951751 0.5
67 30 0.304323 0.981299 0.5
987 34 0.317188 0.94428 0.5
516 39 0.338576 0.972609 0.5
894 27 0.360081 1.00064 0.5
754 31 0.393593 0.997265 0.5
380 37 0.374184 0.96744 0.5
455 31 0.406405 0.965858 0.5
469 36 0.430915 0.99 0.5
218 23 0.446225 0.959611 0.5
766 29 0.464027 0.984156 0.5
148 34 0.47865 0.951878 0.5
14 29 0.516295 1.00909 0.5
927 32 0.548741 1.00662 0.5
884 36 0.498146 0.981011 0.5
255 29 0.511679 0.94892 0.5
247 24 0.531511 0.977734 0.5
122 30 0.544649 0.948077 0.5
831 29 0.561005 0.97373 0.5
860 30 0.575408 0.940896 0.5
753 32 0.581202 1.00065 0.5
701 37 0.616681 0.998531 0.5
844 33 0.592793 0.969243 0.5
509 27 0.626578 0.96527 0.5
769 29 0.652387 0.993943 0.5
467 31 0.661544 0.962554 0.5
649 35 0.683928 0.993211 0.5
824 31 0.694514 0.962532 0.5
795 35 0.769311 1.01043 0.5
934 25 0.718346 0.990648 0.5
871 28 0.726556 0.958404 0.5
445 35 0.74862 0.983744 0.5
704 34 0.762419 0.952545 0.5
499 19 0.829788 0.94547 0.5
16 32 0.783205 0.978843 0.5
178 24 0.802115 1.00473 0.5
305 30 0.839033 1.00164 0.5
192 36 0.796822 0.945026 0.5
986 29 0.817802 0.976459 0.5
580 27 0.847545 0.970637 0.5
798 34 0.877069 1.00129 0.5
250 30 0.861059 0.943111 0.5
609 30 0.879036 0.969517 0.5
990 39 0.912927 0.977736 0.5
158 35 0.92798 0.943291 0.5
558 31 0.993476 0.99951 0.5
919 24 0.93542 1.00149 0.5
703 30 0.994498 0.941212 0.5
139 29 0.949137 0.976157 0.5
588 27 0.96202 0.944006 0.5
660 28 0.978622 0.968759 0.5
