ITEM: TIMESTEP
1750000
ITEM: NUMBER OF ATOMS
1000
ITEM: BOX BOUNDS pp pp pp
-1.5211456999999999e+01 1.5211456999999999e+01
-1.5211456999999999e+01 1.5211456999999999e+01
-5.0000000000000000e-01 5.0000000000000000e-01
ITEM: ATOMS id type xs ys zs
969 29 0.0414253 0.0182839 0.5
258 38 0.00852967 0.0220007 0.5
940 27 0.0306239 0.0538849 0.5
63 29 0.063724 0.0473156 0.5
857 39 0.0774831 0.0168385 0.5
780 29 0.11274 0.0192358 0.5
143 30 0.132858 0.0442231 0.5
396 31 0.097095 0.0514394 0.5
710 36 0.148458 0.0142965 0.5
249 34 0.165606 0.0450373 0.5
828 29 0.18262 0.0157786 0.5
905 30 0.201879 0.0452557 0.5
224 30 0.214883 0.0152175 0.5
55 28 0.220227 0.0696775 0.5
846 33 0.233926 0.0423315 0.5
238 25 0.245239 0.00915382 0.5
113 35 0.269843 0.0332134 0.5
685 30 0.257402 0.0669339 0.5
987 34 0.287855 0.0626703 0.5
891 33 0.302431 0.0317777 0.5
194 31 0.336198 0.0271458 0.5
279 32 0.324272 0.0565698 0.5
172 21 0.282401 0.00477007 0.5
498 29 0.316357 0.000223646 0.5
596 28 0.358273 0.0504928 0.5
775 33 0.394366 0.0519337 0.5
81 28 0.37425 0.0246829 0.5
451 33 0.405954 0.0170593 0.5
577 36 0.427293 0.0452107 0.5
391 25 0.461169 0.0415575 0.5
559 33 0.440785 0.0136005 0.5
148 34 0.451691 0.0742313 0.5
255 29 0.486691 0.0719768 0.5
670 34 0.475637 0.012553 0.5
659 35 0.495009 0.0398357 0.5
852 34 0.527578 0.0313472 0.5
835 33 0.563566 0.0303311 0.5
860 30 0.551066 0.0620504 0.5
122 30 0.518508 0.0653563 0.5
657 25 0.507807 0.00684113 0.5
58 27 0.542296 0.00278086 0.5
291 27 0.596933 0.0281353 0.5
537 27 0.631758 0.0257259 0.5
921 36 0.617288 0.0537803 0.5
896 30 0.583896 0.0580576 0.5
535 25 0.576002 0.00172665 0.5
993 30 0.65307 0.052676 0.5
752 26 0.685098 0.0455584 0.5
444 33 0.666336 0.019298 0.5
592 25 0.698487 0.0173278 0.5
926 33 0.715383 0.0449844 0.5
102 23 0.752572 0.0424946 0.5
551 30 0.73182 0.0165149 0.5
253 29 0.761641 0.0141725 0.5
930 26 0.785345 0.0354826 0.5
704 34 0.736101 0.0711839 0.5
192 36 0.773162 0.0679142 0.5
708 26 0.815512 0.0323921 0.5
415 25 0.850953 0.0313439 0.5
250 30 0.832528 0.0562874 0.5
499 19 0.803718 0.062241 0.5
681 24 0.802058 0.00662501 0.5
482 29 0.833003 0.0075282 0.5
591 26 0.86228 0.0581173 0.5
173 30 0.883143 0.0323703 0.5
483 28 0.914331 0.0358495 0.5
158 35 0.897902 0.0647626 0.5
520 31 0.865263 0.003049 0.5
420 34 0.898661 0.00304974 0.5
588 27 0.930806 0.0653393 0.5
719 24 0.977876 0.0340978 0.5
955 28 0.944905 0.0352697 0.5
768 31 0.999466 0.0585269 0.5
703 30 0.962755 0.0611624 0.5
243 33 0.932622 0.00259515 0.5
153 37 0.968504 0.00358472 0.5
622 28 0.0184734 0.0851345 0.5
924 26 0.0369777 0.109687 0.5
378 31 0.0497571 0.0760392 0.5
272 36 0.0564519 0.137927 0.5
528 33 0.00383838 0.115858 0.5
106 21 0.0822663 0.0775323 0.5
379 27 0.119182 0.0733749 0.5
164 33 0.0691034 0.104764 0.5
68 31 0.10067 0.100268 0.5
456 31 0.134275 0.103112 0.5
75 22 0.0873487 0.129107 0.5
115 23 0.11662 0.127797 0.5
644 30 0.151342 0.075804 0.5
397 32 0.184804 0.0741869 0.5
938 23 0.146948 0.130713 0.5
998 31 0.167862 0.105571 0.5
242 35 0.202381 0.101529 0.5
920 29 0.185125 0.131596 0.5
350 17 0.212264 0.127427 0.5
943 43 0.239702 0.101575 0.5
67 30 0.276224 0.0953067 0.5
215 28 0.26263 0.125607 0.5
648 25 0.234131 0.140297 0.5
516 39 0.311057 0.0907054 0.5
894 27 0.334512 0.114003 0.5
380 37 0.348117 0.0820465 0.5
298 37 0.297404 0.122764 0.5
455 31 0.384008 0.0817243 0.5
218 23 0.417142 0.0777166 0.5
754 31 0.367608 0.113948 0.5
469 36 0.403228 0.109183 0.5
487 30 0.38629 0.14184 0.5
461 32 0.421285 0.137814 0.5
766 29 0.439245 0.104773 0.5
884 36 0.472831 0.103133 0.5
14 29 0.490837 0.130941 0.5
473 31 0.453345 0.132401 0.5
247 24 0.503782 0.0946759 0.5
831 29 0.53503 0.0932019 0.5
753 32 0.555814 0.119868 0.5
927 32 0.523538 0.12314 0.5
844 33 0.569304 0.0886631 0.5
509 27 0.601975 0.08797 0.5
701 37 0.590158 0.116323 0.5
769 29 0.623885 0.116791 0.5
824 31 0.669128 0.081489 0.5
871 28 0.700393 0.0744201 0.5
467 31 0.636608 0.0855809 0.5
649 35 0.656974 0.114755 0.5
934 25 0.689884 0.111332 0.5
31 24 0.707597 0.13455 0.5
898 28 0.675297 0.142936 0.5
445 35 0.721542 0.102364 0.5
16 32 0.757849 0.100869 0.5
795 35 0.740519 0.130665 0.5
178 24 0.781625 0.124895 0.5
580 27 0.787709 0.098721 0.5
305 30 0.818331 0.0888963 0.5
986 29 0.812872 0.119584 0.5
798 34 0.854742 0.121806 0.5
609 30 0.849621 0.089016 0.5
990 39 0.88545 0.0988269 0.5
139 29 0.919543 0.0928826 0.5
919 24 0.913802 0.120217 0.5
408 28 0.88717 0.133645 0.5
182 32 0.98303 0.0869724 0.5
660 28 0.950723 0.0939961 0.5
558 31 0.972305 0.119202 0.5
360 18 0.943138 0.120278 0.5
229 32 0.0230822 0.142488 0.5
382 37 0.0120924 0.173558 0.5
202 38 0.0501303 0.175456 0.5
241 33 0.0321211 0.205325 0.5
859 39 -0.00578078 0.207343 0.5
653 25 0.0754421 0.198248 0.5
737 34 0.0827072 0.162614 0.5
615 28 0.119223 0.157271 0.5
855 31 0.106336 0.191097 0.5
806 27 0.137701 0.189219 0.5
923 33 0.151481 0.159382 0.5
589 24 0.181561 0.160844 0.5
155 30 0.20594 0.186791 0.5
27 33 0.169439 0.190619 0.5
33 30 0.211142 0.156299 0.5
886 28 0.260962 0.155711 0.5
448 32 0.237551 0.178887 0.5
851 31 0.275856 0.183246 0.5
776 31 0.254922 0.208459 0.5
933 29 0.221497 0.21311 0.5
124 28 0.322929 0.14484 0.5
976 23 0.289794 0.152817 0.5
662 32 0.308384 0.180229 0.5
513 27 0.339604 0.171049 0.5
809 27 0.330912 0.203007 0.5
936 25 0.292014 0.208177 0.5
673 27 0.35336 0.141962 0.5
273 28 0.36239 0.202327 0.5
170 33 0.370229 0.170101 0.5
66 31 0.405356 0.170514 0.5
819 30 0.392351 0.198266 0.5
511 37 0.428051 0.197223 0.5
694 31 0.439176 0.165175 0.5
71 34 0.461642 0.191864 0.5
743 32 0.473875 0.159552 0.5
763 34 0.543436 0.153061 0.5
330 28 0.497795 0.185084 0.5
706 32 0.509794 0.156399 0.5
280 37 0.531933 0.184629 0.5
517 36 0.515305 0.214449 0.5
409 30 0.552566 0.213605 0.5
167 27 0.573668 0.14609 0.5
414 34 0.610676 0.145739 0.5
957 35 0.568086 0.18257 0.5
961 30 0.6003 0.179157 0.5
493 25 0.631244 0.175728 0.5
104 26 0.619861 0.206784 0.5
440 38 0.58728 0.211711 0.5
464 30 0.641001 0.146539 0.5
430 33 0.649869 0.201066 0.5
536 28 0.661366 0.172234 0.5
582 29 0.683776 0.195439 0.5
629 26 0.69611 0.165921 0.5
492 39 0.71841 0.191904 0.5
912 38 0.762863 0.155926 0.5
715 23 0.725801 0.158599 0.5
982 32 0.7523 0.190246 0.5
208 32 0.830927 0.146765 0.5
452 33 0.79819 0.151257 0.5
57 32 0.784971 0.184483 0.5
655 29 0.816785 0.178632 0.5
963 27 0.839734 0.205518 0.5
312 38 0.80641 0.21086 0.5
211 19 0.84532 0.176402 0.5
214 34 0.863047 0.154167 0.5
583 25 0.894971 0.162996 0.5
301 36 0.87201 0.193458 0.5
569 33 0.908419 0.190769 0.5
895 29 0.99057 0.146194 0.5
744 33 0.923566 0.151304 0.5
317 36 0.974035 0.17801 0.5
742 31 0.955917 0.148397 0.5
676 31 0.939742 0.185015 0.5
749 28 0.960933 0.209759 0.5
994 28 0.0188842 0.235928 0.5
393 38 0.0580028 0.23016 0.5
561 32 0.0408594 0.261362 0.5
901 36 0.00472024 0.266565 0.5
797 31 0.125381 0.220726 0.5
97 24 0.075703 0.259001 0.5
733 37 0.0930798 0.224002 0.5
700 26 0.104787 0.253893 0.5
813 30 0.126699 0.27677 0.5
530 29 0.0969156 0.284365 0.5
80 29 0.157897 0.221127 0.5
705 29 0.189416 0.21666 0.5
132 31 0.143309 0.249342 0.5
210 28 0.176238 0.247057 0.5
326 42 0.195857 0.275144 0.5
712 29 0.16089 0.27897 0.5
736 26 0.210182 0.244773 0.5
130 28 0.241157 0.236283 0.5
260 28 0.27805 0.237297 0.5
171 33 0.231542 0.267939 0.5
244 29 0.264735 0.265648 0.5
87 28 0.312662 0.229532 0.5
770 40 0.300453 0.263337 0.5
120 30 0.334183 0.263227 0.5
227 32 0.347543 0.231623 0.5
538 33 0.380749 0.231728 0.5
429 27 0.370576 0.26129 0.5
488 26 0.410963 0.228638 0.5
245 22 0.39973 0.256763 0.5
847 37 0.389194 0.291003 0.5
181 32 0.480835 0.220664 0.5
996 26 0.43047 0.251911 0.5
18 41 0.424722 0.283044 0.5
823 28 0.446009 0.222816 0.5
216 41 0.465078 0.255369 0.5
168 36 0.494124 0.287533 0.5
203 39 0.503163 0.250189 0.5
953 29 0.537377 0.242507 0.5
239 35 0.556478 0.27168 0.5
169 22 0.524451 0.276143 0.5
114 26 0.570269 0.241031 0.5
646 28 0.606491 0.239525 0.5
834 31 0.589224 0.267724 0.5
944 29 0.62128 0.267483 0.5
403 26 0.635471 0.232437 0.5
90 39 0.703015 0.225715 0.5
900 25 0.667239 0.228173 0.5
457 37 0.656087 0.259511 0.5
761 29 0.690268 0.258025 0.5
358 28 0.737651 0.22164 0.5
413 26 0.770885 0.21478 0.5
174 31 0.711333 0.280949 0.5
699 24 0.723999 0.251795 0.5
788 33 0.756419 0.247492 0.5
845 27 0.741259 0.276956 0.5
666 32 0.775566 0.276188 0.5
103 32 0.790758 0.239456 0.5
568 31 0.826489 0.237915 0.5
265 41 0.810739 0.270227 0.5
677 38 0.894265 0.224351 0.5
745 34 0.847934 0.263004 0.5
485 34 0.859754 0.228162 0.5
799 28 0.883196 0.255452 0.5
310 33 0.920374 0.251229 0.5
332 27 0.903152 0.28106 0.5
425 32 0.930041 0.219544 0.5
356 25 0.985177 0.241674 0.5
138 31 0.953888 0.243806 0.5
270 31 0.972177 0.272715 0.5
363 26 0.939438 0.275792 0.5
829 25 0.0302525 0.290753 0.5
100 33 0.0159301 0.32318 0.5
661 30 0.0484392 0.317332 0.5
803 31 0.0385786 0.348653 0.5
521 32 -0.00711012 0.298996 0.5
540 34 0.00280114 0.353334 0.5
353 29 0.0623936 0.284372 0.5
365 27 0.0699253 0.347896 0.5
346 29 0.0823103 0.315952 0.5
964 33 0.119992 0.308799 0.5
283 36 0.10338 0.342203 0.5
264 31 0.138393 0.33623 0.5
751 25 0.151687 0.308331 0.5
618 35 0.182824 0.307225 0.5
377 27 0.171672 0.336582 0.5
614 29 0.20564 0.330977 0.5
967 25 0.215943 0.302262 0.5
162 32 0.251686 0.29607 0.5
762 32 0.24108 0.328079 0.5
542 32 0.275989 0.327886 0.5
939 37 0.285315 0.296719 0.5
196 31 0.295467 0.353977 0.5
756 28 0.322326 0.296052 0.5
856 28 0.308831 0.32424 0.5
28 27 0.338492 0.322467 0.5
787 27 0.326729 0.350544 0.5
199 36 0.354644 0.29001 0.5
848 29 0.357448 0.351249 0.5
252 35 0.371035 0.321018 0.5
555 30 0.408979 0.31849 0.5
290 31 0.39269 0.346889 0.5
608 29 0.461023 0.290804 0.5
405 29 0.42552 0.34339 0.5
96 30 0.442439 0.315344 0.5
385 32 0.480867 0.321156 0.5
785 33 0.459489 0.343898 0.5
389 38 0.497229 0.35193 0.5
442 35 0.546809 0.305596 0.5
690 27 0.514535 0.313094 0.5
802 35 0.533098 0.338126 0.5
325 32 0.567546 0.331109 0.5
274 28 0.609773 0.297458 0.5
621 28 0.579009 0.298313 0.5
841 31 0.601709 0.329721 0.5
434 25 0.631947 0.322628 0.5
144 33 0.589194 0.360676 0.5
372 27 0.621398 0.353969 0.5
400 34 0.643555 0.293312 0.5
671 26 0.679851 0.289068 0.5
112 25 0.662896 0.318223 0.5
424 23 0.699276 0.310081 0.5
950 32 0.683207 0.33969 0.5
914 26 0.648598 0.349088 0.5
4 32 0.717019 0.335898 0.5
73 31 0.732967 0.309213 0.5
637 28 0.765239 0.307299 0.5
508 28 0.756225 0.335257 0.5
779 37 0.836022 0.296836 0.5
566 31 0.788612 0.332794 0.5
838 23 0.796654 0.301505 0.5
278 33 0.823349 0.330112 0.5
416 34 0.870668 0.289448 0.5
307 32 0.86425 0.327267 0.5
529 28 0.894968 0.31489 0.5
329 34 0.915017 0.344009 0.5
874 37 0.882872 0.358025 0.5
571 42 0.927964 0.307565 0.5
6 16 0.982861 0.327655 0.5
443 28 0.962462 0.302625 0.5
603 29 0.95671 0.333496 0.5
165 23 0.971899 0.356792 0.5
375 30 0.0267376 0.380957 0.5
141 32 0.0577793 0.378716 0.5
606 34 0.0450518 0.411051 0.5
44 33 0.0103716 0.418824 0.5
980 28 -0.00448734 0.38574 0.5
381 32 0.0787278 0.406534 0.5
12 34 0.0907944 0.37535 0.5
177 25 0.110524 0.399714 0.5
313 33 0.124025 0.367681 0.5
686 30 0.19316 0.359994 0.5
345 32 0.143474 0.394629 0.5
418 34 0.159834 0.364966 0.5
574 23 0.177881 0.392949 0.5
2 29 0.165017 0.418292 0.5
611 36 0.199344 0.416475 0.5
24 30 0.228675 0.359313 0.5
428 28 0.261762 0.357152 0.5
233 27 0.21047 0.385395 0.5
672 31 0.245197 0.386065 0.5
369 34 0.268667 0.412935 0.5
84 27 0.231166 0.414145 0.5
259 21 0.278336 0.384784 0.5
723 29 0.300117 0.41598 0.5
720 28 0.306872 0.382982 0.5
837 33 0.332454 0.409203 0.5
882 35 0.344619 0.378745 0.5
564 27 0.367683 0.406434 0.5
54 29 0.379049 0.377687 0.5
597 25 0.398857 0.399334 0.5
966 25 0.411618 0.37014 0.5
8 26 0.418629 0.424985 0.5
728 33 0.43689 0.400614 0.5
232 28 0.442269 0.369372 0.5
376 39 0.475099 0.382338 0.5
885 25 0.493189 0.419418 0.5
995 25 0.461396 0.42014 0.5
991 32 0.556492 0.363867 0.5
935 26 0.510354 0.394395 0.5
651 25 0.524135 0.369439 0.5
263 29 0.546424 0.392261 0.5
228 27 0.52955 0.418439 0.5
888 28 0.560828 0.419431 0.5
72 26 0.577609 0.393276 0.5
664 31 0.607282 0.389368 0.5
645 33 0.594784 0.421128 0.5
707 44 0.629385 0.41723 0.5
368 33 0.707342 0.36836 0.5
734 32 0.638347 0.381219 0.5
607 37 0.670749 0.371868 0.5
674 28 0.661004 0.404686 0.5
977 35 0.694791 0.401111 0.5
658 35 0.77594 0.365448 0.5
581 24 0.715218 0.423972 0.5
497 32 0.740353 0.364851 0.5
21 31 0.73171 0.397579 0.5
121 32 0.76461 0.400104 0.5
476 22 0.744466 0.424083 0.5
225 34 0.846108 0.356873 0.5
402 37 0.81198 0.363482 0.5
593 25 0.784299 0.423095 0.5
383 35 0.802103 0.396981 0.5
217 32 0.836425 0.390739 0.5
887 32 0.860048 0.417374 0.5
91 25 0.864892 0.384501 0.5
94 25 0.889152 0.400375 0.5
491 30 0.91446 0.383482 0.5
176 32 0.915393 0.415521 0.5
879 33 0.940741 0.363635 0.5
519 24 0.964276 0.38343 0.5
892 23 0.941996 0.399317 0.5
557 37 0.975961 0.414683 0.5
438 27 0.0344523 0.443447 0.5
807 23 0.0305794 0.471115 0.5
533 35 0.0603382 0.481581 0.5
41 31 -0.00169587 0.450825 0.5
633 30 0.00309546 0.485606 0.5
191 36 0.102433 0.432722 0.5
544 28 0.133616 0.424842 0.5
652 40 0.0689973 0.441353 0.5
575 32 0.0912657 0.467854 0.5
288 35 0.123156 0.459287 0.5
929 33 0.121719 0.495714 0.5
698 22 0.15288 0.446058 0.5
849 35 0.183711 0.450187 0.5
973 22 0.204315 0.475958 0.5
271 30 0.152904 0.475947 0.5
862 25 0.179445 0.489118 0.5
188 31 0.217521 0.446362 0.5
548 36 0.252167 0.443135 0.5
897 31 0.272201 0.472868 0.5
545 38 0.237123 0.475651 0.5
407 26 0.28434 0.44257 0.5
881 27 0.317331 0.440388 0.5
983 32 0.306833 0.469203 0.5
750 32 0.341997 0.470054 0.5
781 29 0.332192 0.499952 0.5
917 38 0.352154 0.437302 0.5
427 31 0.387456 0.430859 0.5
783 26 0.367293 0.49358 0.5
534 33 0.378061 0.461919 0.5
293 35 0.412424 0.457602 0.5
812 27 0.399091 0.488729 0.5
140 30 0.433118 0.485241 0.5
965 30 0.476849 0.447623 0.5
201 33 0.444659 0.448008 0.5
458 36 0.465237 0.477479 0.5
815 30 0.499756 0.472042 0.5
303 29 0.513077 0.442607 0.5
331 27 0.544573 0.446004 0.5
77 21 0.529643 0.46971 0.5
20 34 0.555738 0.484847 0.5
556 29 0.51987 0.496108 0.5
814 31 0.576015 0.450533 0.5
384 41 0.615908 0.455124 0.5
105 31 0.588823 0.480758 0.5
692 28 0.619689 0.492481 0.5
949 34 0.682517 0.431486 0.5
251 32 0.647652 0.478756 0.5
875 34 0.650715 0.447273 0.5
333 30 0.678453 0.465014 0.5
988 20 0.706283 0.451135 0.5
348 27 0.707353 0.480848 0.5
587 35 0.677466 0.498372 0.5
619 32 0.735319 0.458121 0.5
531 27 0.764285 0.445029 0.5
157 32 0.766778 0.476455 0.5
665 40 0.736738 0.497128 0.5
500 40 0.823865 0.428081 0.5
688 27 0.799417 0.489656 0.5
832 40 0.796103 0.456493 0.5
431 31 0.82807 0.468369 0.5
421 34 0.82593 0.504296 0.5
805 28 0.887587 0.432309 0.5
277 27 0.857478 0.483535 0.5
952 33 0.854966 0.449306 0.5
364 32 0.885734 0.464051 0.5
156 25 0.917101 0.447775 0.5
39 27 0.916353 0.480251 0.5
17 27 0.942511 0.430012 0.5
101 27 0.942828 0.460329 0.5
426 23 0.966814 0.442991 0.5
578 29 0.971801 0.472611 0.5
821 26 0.946435 0.492774 0.5
632 30 0.031886 0.501653 0.5
999 36 0.0328653 0.538141 0.5
601 31 0.0603162 0.517975 0.5
911 29 0.0652538 0.553393 0.5
590 25 0.00611994 0.557953 0.5
585 32 0.00238429 0.521851 0.5
869 32 0.0905952 0.50394 0.5
729 24 0.0903857 0.534402 0.5
822 34 0.123425 0.534195 0.5
35 37 0.0987726 0.563799 0.5
85 23 0.133822 0.563543 0.5
748 35 0.157994 0.538582 0.5
716 30 0.152685 0.507338 0.5
480 26 0.186196 0.518527 0.5
971 21 0.185494 0.554723 0.5
628 31 0.215433 0.506345 0.5
503 37 0.213733 0.540398 0.5
713 36 0.255081 0.506108 0.5
579 28 0.24916 0.540002 0.5
586 41 0.291828 0.502764 0.5
234 34 0.280659 0.535285 0.5
447 36 0.317389 0.531331 0.5
631 30 0.355586 0.524358 0.5
687 33 0.338539 0.556795 0.5
959 27 0.30395 0.565166 0.5
792 31 0.387521 0.519233 0.5
786 37 0.372485 0.551156 0.5
357 36 0.409636 0.543716 0.5
154 28 0.420372 0.513488 0.5
532 28 0.489173 0.503897 0.5
616 30 0.454128 0.509061 0.5
709 30 0.444023 0.540868 0.5
902 30 0.477915 0.534439 0.5
300 36 0.465126 0.567976 0.5
92 28 0.501602 0.561418 0.5
541 33 0.511359 0.529507 0.5
794 31 0.543829 0.520194 0.5
65 31 0.536664 0.553257 0.5
504 38 0.571863 0.546589 0.5
928 33 0.577484 0.513489 0.5
595 35 0.610196 0.524971 0.5
730 31 0.637445 0.550464 0.5
479 21 0.605352 0.556964 0.5
36 36 0.646863 0.51448 0.5
175 42 0.676067 0.537526 0.5
626 35 0.707012 0.515184 0.5
740 34 0.7117 0.548131 0.5
958 23 0.68554 0.567331 0.5
478 29 0.768533 0.509122 0.5
296 30 0.741257 0.531891 0.5
910 30 0.771806 0.541921 0.5
125 30 0.744402 0.564094 0.5
206 32 0.798219 0.523146 0.5
47 31 0.827296 0.538921 0.5
866 29 0.799063 0.557087 0.5
83 31 0.830617 0.573414 0.5
471 25 0.887896 0.495199 0.5
679 42 0.91768 0.514818 0.5
9 28 0.857443 0.551659 0.5
309 33 0.856455 0.516245 0.5
166 30 0.885354 0.533187 0.5
267 27 0.914908 0.550851 0.5
70 28 0.88741 0.565679 0.5
784 28 0.975328 0.503904 0.5
818 26 0.978796 0.544679 0.5
343 33 0.952031 0.527044 0.5
136 37 0.947303 0.560782 0.5
553 32 0.0392135 0.573195 0.5
772 32 0.0397712 0.60541 0.5
341 26 0.0695128 0.584809 0.5
187 33 0.0706335 0.618075 0.5
968 37 0.00923497 0.623215 0.5
778 25 0.0398909 0.638759 0.5
974 26 0.00966611 0.587783 0.5
119 29 0.100142 0.600305 0.5
135 29 0.132188 0.593232 0.5
853 20 0.0986533 0.629003 0.5
696 27 0.125237 0.621527 0.5
336 35 0.163021 0.578412 0.5
791 27 0.207066 0.575743 0.5
962 45 0.188175 0.607387 0.5
212 25 0.15394 0.619162 0.5
868 37 0.214194 0.634184 0.5
22 34 0.270857 0.5674 0.5
512 31 0.236619 0.571798 0.5
294 30 0.226857 0.603363 0.5
854 28 0.258921 0.597349 0.5
26 39 0.281717 0.626217 0.5
793 29 0.248038 0.627653 0.5
179 31 0.329624 0.587761 0.5
925 23 0.295533 0.593983 0.5
600 35 0.316651 0.618136 0.5
116 23 0.352135 0.615476 0.5
275 32 0.401489 0.575907 0.5
51 31 0.361994 0.58337 0.5
563 35 0.386151 0.60718 0.5
693 29 0.422075 0.600893 0.5
524 33 0.409822 0.630934 0.5
636 23 0.43404 0.573921 0.5
620 28 0.453494 0.597689 0.5
550 25 0.471711 0.623801 0.5
475 26 0.487753 0.591205 0.5
29 29 0.441999 0.626127 0.5
594 33 0.556946 0.580235 0.5
948 36 0.505184 0.618585 0.5
129 36 0.521715 0.586739 0.5
543 33 0.539162 0.617255 0.5
942 26 0.527454 0.648403 0.5
412 29 0.558041 0.643675 0.5
446 28 0.590353 0.5819 0.5
128 31 0.622803 0.579569 0.5
349 40 0.573627 0.612337 0.5
767 39 0.613689 0.612169 0.5
506 36 0.595283 0.64258 0.5
732 28 0.629028 0.64617 0.5
893 30 0.656576 0.575863 0.5
324 38 0.650551 0.612989 0.5
771 26 0.682088 0.597266 0.5
840 26 0.683413 0.625563 0.5
549 30 0.711686 0.581303 0.5
133 32 0.774692 0.580837 0.5
108 33 0.713306 0.616377 0.5
42 40 0.74448 0.597095 0.5
297 30 0.778303 0.613405 0.5
864 25 0.753157 0.631075 0.5
126 32 0.723747 0.645717 0.5
1000 35 0.780963 0.645599 0.5
118 26 0.804175 0.59055 0.5
711 34 0.808598 0.625217 0.5
727 35 0.837683 0.605586 0.5
850 24 0.838298 0.642775 0.5
282 28 0.860679 0.582487 0.5
137 33 0.915886 0.585208 0.5
311 28 0.863983 0.625746 0.5
318 35 0.887636 0.605233 0.5
599 33 0.918998 0.622177 0.5
573 30 0.89261 0.641411 0.5
625 32 0.977591 0.575602 0.5
46 33 0.979428 0.609501 0.5
904 34 0.947137 0.596632 0.5
64 31 0.95287 0.630583 0.5
435 24 0.0148942 0.657314 0.5
269 32 0.0162832 0.694404 0.5
861 35 0.0439363 0.671059 0.5
867 36 0.0536504 0.704608 0.5
725 38 0.0743335 0.652686 0.5
916 26 0.108253 0.658422 0.5
109 41 0.089578 0.686832 0.5
643 28 0.12702 0.683728 0.5
946 30 0.179904 0.644651 0.5
906 38 0.143469 0.65201 0.5
865 22 0.14585 0.705349 0.5
724 39 0.169057 0.678579 0.5
790 32 0.206809 0.668116 0.5
450 24 0.195947 0.696813 0.5
359 33 0.240284 0.660557 0.5
830 29 0.26019 0.687033 0.5
465 27 0.27182 0.660643 0.5
186 31 0.227955 0.69242 0.5
764 36 0.338364 0.64638 0.5
641 29 0.304611 0.650879 0.5
422 30 0.292767 0.682384 0.5
111 29 0.32428 0.67793 0.5
714 29 0.361016 0.67207 0.5
668 23 0.346698 0.70117 0.5
951 30 0.313422 0.707548 0.5
361 33 0.374026 0.638517 0.5
680 29 0.394173 0.665102 0.5
913 29 0.413014 0.689862 0.5
60 27 0.376591 0.696418 0.5
7 34 0.496258 0.651545 0.5
410 39 0.4276 0.660254 0.5
826 30 0.460146 0.65395 0.5
441 30 0.445372 0.688827 0.5
640 36 0.479231 0.683296 0.5
909 28 0.465847 0.717684 0.5
954 24 0.49951 0.711322 0.5
702 28 0.512137 0.680095 0.5
796 27 0.542373 0.6736 0.5
286 31 0.560616 0.702495 0.5
19 28 0.529489 0.707057 0.5
117 31 0.576494 0.67232 0.5
956 33 0.611749 0.673368 0.5
423 34 0.592072 0.702228 0.5
281 26 0.625495 0.704031 0.5
816 32 0.659615 0.647806 0.5
371 29 0.647896 0.678709 0.5
79 37 0.678558 0.687982 0.5
432 29 0.691318 0.655559 0.5
765 24 0.655447 0.708709 0.5
394 30 0.696063 0.717184 0.5
347 43 0.718642 0.680329 0.5
406 30 0.751787 0.663286 0.5
870 30 0.749839 0.694295 0.5
604 23 0.726945 0.713743 0.5
404 31 0.780476 0.680908 0.5
411 31 0.780057 0.71388 0.5
810 31 0.810335 0.660908 0.5
454 32 0.811649 0.692504 0.5
184 27 0.838205 0.673506 0.5
899 23 0.838512 0.710339 0.5
997 34 0.923744 0.654429 0.5
23 28 0.865716 0.657624 0.5
323 30 0.863334 0.693461 0.5
522 35 0.891176 0.6749 0.5
654 25 0.898748 0.704423 0.5
289 23 0.981891 0.644653 0.5
981 30 0.923833 0.688596 0.5
584 26 0.927381 0.720326 0.5
110 30 0.988954 0.677761 0.5
683 34 0.956549 0.667325 0.5
392 30 0.953552 0.699852 0.5
880 39 0.985896 0.71239 0.5
960 39 0.0242837 0.729132 0.5
612 27 0.0174307 0.761595 0.5
43 35 0.0599341 0.742125 0.5
489 22 0.0463735 0.772517 0.5
777 27 0.116542 0.712574 0.5
514 26 0.0830774 0.719816 0.5
231 32 0.0761391 0.773849 0.5
918 39 0.104195 0.747156 0.5
285 30 0.140014 0.734374 0.5
146 25 0.133077 0.769289 0.5
515 29 0.216259 0.72297 0.5
93 41 0.175035 0.725381 0.5
477 31 0.162725 0.759843 0.5
190 39 0.200022 0.753394 0.5
495 33 0.281096 0.714593 0.5
624 24 0.247382 0.717895 0.5
160 29 0.233797 0.747408 0.5
95 32 0.26996 0.745651 0.5
401 25 0.225354 0.776627 0.5
352 27 0.256006 0.773344 0.5
947 33 0.288672 0.772044 0.5
789 28 0.301614 0.740743 0.5
240 29 0.3218 0.76467 0.5
833 32 0.334032 0.73316 0.5
399 34 0.354375 0.761442 0.5
872 38 0.39918 0.720492 0.5
726 29 0.365882 0.728598 0.5
74 35 0.387527 0.754661 0.5
205 28 0.419988 0.747659 0.5
145 25 0.376425 0.785335 0.5
460 34 0.420229 0.780004 0.5
972 29 0.433902 0.718749 0.5
151 37 0.452796 0.749686 0.5
449 26 0.485492 0.74037 0.5
627 33 0.484855 0.77242 0.5
235 35 0.455408 0.786392 0.5
576 33 0.516427 0.741314 0.5
634 19 0.544697 0.729256 0.5
40 38 0.548869 0.761069 0.5
985 25 0.518906 0.775227 0.5
883 35 0.573092 0.732973 0.5
45 28 0.604942 0.733057 0.5
13 31 0.587576 0.763469 0.5
266 35 0.620866 0.759406 0.5
306 27 0.638738 0.732354 0.5
388 26 0.639377 0.785502 0.5
758 23 0.669057 0.732443 0.5
470 30 0.6563 0.758243 0.5
362 32 0.692679 0.754776 0.5
226 31 0.676788 0.782713 0.5
486 37 0.724167 0.745253 0.5
572 33 0.751008 0.766791 0.5
337 29 0.754509 0.729589 0.5
11 37 0.717149 0.780323 0.5
800 24 0.788231 0.777678 0.5
602 26 0.780267 0.747645 0.5
195 36 0.810283 0.72846 0.5
820 29 0.817079 0.763505 0.5
691 38 0.843139 0.743199 0.5
354 34 0.847092 0.779685 0.5
496 30 0.873065 0.724154 0.5
678 30 0.874864 0.758255 0.5
50 32 0.899802 0.737119 0.5
163 26 0.902758 0.769266 0.5
123 19 0.877003 0.791734 0.5
338 29 0.930573 0.753134 0.5
759 35 0.930904 0.786017 0.5
474 28 0.992316 0.745004 0.5
142 31 0.958356 0.734186 0.5
319 29 0.962628 0.765887 0.5
878 32 0.991735 0.780032 0.5
295 33 0.0221144 0.794631 0.5
248 26 0.0320804 0.82443 0.5
546 32 0.054194 0.800104 0.5
436 31 0.0614422 0.832559 0.5
605 25 0.00631205 0.848531 0.5
675 27 0.106772 0.780907 0.5
539 31 0.0860451 0.805548 0.5
697 36 0.124635 0.810505 0.5
236 40 0.0956762 0.838361 0.5
801 26 0.187036 0.784477 0.5
237 34 0.15621 0.794263 0.5
970 23 0.184787 0.81271 0.5
518 30 0.154964 0.82672 0.5
351 31 0.212083 0.801881 0.5
223 20 0.206735 0.830661 0.5
718 21 0.183231 0.841754 0.5
207 31 0.245929 0.803001 0.5
433 25 0.234895 0.832108 0.5
552 30 0.264609 0.82838 0.5
344 22 0.280221 0.804565 0.5
127 24 0.340413 0.7897 0.5
684 25 0.310902 0.796078 0.5
907 27 0.299776 0.825345 0.5
48 26 0.329946 0.822009 0.5
462 29 0.320104 0.853617 0.5
827 40 0.354439 0.849709 0.5
204 34 0.401808 0.810681 0.5
398 37 0.364465 0.815543 0.5
731 34 0.419399 0.8405 0.5
610 30 0.387462 0.84394 0.5
1 26 0.439236 0.815045 0.5
472 27 0.472044 0.816438 0.5
339 35 0.454012 0.844864 0.5
639 22 0.488386 0.841372 0.5
62 28 0.570925 0.792994 0.5
903 31 0.500533 0.802508 0.5
287 35 0.536141 0.803048 0.5
667 27 0.514815 0.831448 0.5
32 22 0.555112 0.824365 0.5
717 30 0.539211 0.854686 0.5
152 34 0.573171 0.850806 0.5
82 33 0.585318 0.819306 0.5
739 42 0.607501 0.793181 0.5
417 26 0.627894 0.818863 0.5
284 35 0.607073 0.843975 0.5
804 29 0.644731 0.845833 0.5
547 33 0.660516 0.815293 0.5
370 36 0.694979 0.81326 0.5
246 33 0.676053 0.84696 0.5
321 31 0.709647 0.845352 0.5
915 27 0.727254 0.815369 0.5
25 33 0.755795 0.800741 0.5
782 28 0.773654 0.838858 0.5
560 29 0.743245 0.842016 0.5
292 28 0.786407 0.808372 0.5
49 28 0.816836 0.796025 0.5
335 33 0.810993 0.829465 0.5
268 43 0.845359 0.816951 0.5
30 32 0.833481 0.854774 0.5
327 31 0.883478 0.820302 0.5
221 23 0.902933 0.797346 0.5
635 23 0.912934 0.822679 0.5
570 34 0.899389 0.850823 0.5
159 34 0.865337 0.847803 0.5
88 40 0.995084 0.81768 0.5
774 33 0.964058 0.799649 0.5
908 22 0.93763 0.816567 0.5
760 26 0.961696 0.830833 0.5
975 27 0.977639 0.85579 0.5
669 39 0.934639 0.847512 0.5
876 31 0.0377695 0.856738 0.5
149 28 0.0139818 0.876891 0.5
757 38 0.0430129 0.89539 0.5
134 34 0.0694581 0.86308 0.5
254 33 0.0100022 0.9075 0.5
647 30 0.128059 0.846428 0.5
501 34 0.0824168 0.898663 0.5
98 35 0.105034 0.872498 0.5
931 30 0.13663 0.883751 0.5
161 27 0.114868 0.907674 0.5
308 26 0.157817 0.861208 0.5
367 28 0.145181 0.913485 0.5
747 24 0.188141 0.868958 0.5
630 32 0.168445 0.893563 0.5
200 34 0.203242 0.897036 0.5
459 35 0.216826 0.857952 0.5
10 29 0.250691 0.858407 0.5
510 35 0.223817 0.92439 0.5
261 37 0.239571 0.890903 0.5
468 27 0.273566 0.887924 0.5
642 31 0.260481 0.920141 0.5
342 38 0.284654 0.856817 0.5
213 32 0.291236 0.913921 0.5
439 28 0.306891 0.881567 0.5
721 27 0.340106 0.880607 0.5
617 33 0.326299 0.908857 0.5
419 33 0.361605 0.90584 0.5
37 29 0.375231 0.875929 0.5
315 28 0.396227 0.90465 0.5
53 35 0.409838 0.873882 0.5
387 29 0.415086 0.928693 0.5
863 27 0.478368 0.867659 0.5
567 29 0.427135 0.901606 0.5
220 30 0.441487 0.873364 0.5
316 37 0.462556 0.897744 0.5
304 28 0.498413 0.895052 0.5
811 27 0.447682 0.926668 0.5
189 14 0.487608 0.921153 0.5
99 25 0.507804 0.861273 0.5
15 33 0.527609 0.884192 0.5
722 33 0.563208 0.88107 0.5
554 29 0.521393 0.916096 0.5
523 22 0.550716 0.910845 0.5
526 30 0.59879 0.878067 0.5
386 36 0.615565 0.905309 0.5
937 32 0.630493 0.873365 0.5
507 29 0.580479 0.909719 0.5
78 21 0.666327 0.874601 0.5
825 36 0.650705 0.905185 0.5
230 31 0.69795 0.876625 0.5
69 35 0.687067 0.907732 0.5
494 23 0.665845 0.93541 0.5
366 29 0.710146 0.93095 0.5
978 23 0.724096 0.9036 0.5
932 27 0.761743 0.867919 0.5
3 33 0.732304 0.872689 0.5
735 28 0.755881 0.897109 0.5
755 25 0.78539 0.894757 0.5
302 26 0.741389 0.927401 0.5
453 26 0.773541 0.921925 0.5
185 36 0.797809 0.861518 0.5
481 30 0.820786 0.884978 0.5
638 46 0.841898 0.914026 0.5
741 33 0.804616 0.918459 0.5
562 36 0.858582 0.88138 0.5
56 27 0.890228 0.881657 0.5
334 33 0.922321 0.881581 0.5
527 28 0.87757 0.91276 0.5
340 23 0.907942 0.913331 0.5
842 28 0.941071 0.91026 0.5
322 23 0.985286 0.883674 0.5
147 30 0.955489 0.879151 0.5
843 34 0.972714 0.910353 0.5
922 36 0.060451 0.930736 0.5
689 30 0.0288999 0.988317 0.5
746 25 0.0589541 0.990404 0.5
299 25 0.0289883 0.935448 0.5
183 28 0.0128345 0.961255 0.5
276 34 0.04529 0.960475 0.5
76 26 -0.000574281 0.990562 0.5
663 33 0.0943911 0.932815 0.5
613 28 0.0790541 0.965975 0.5
219 28 0.0952003 0.989437 0.5
89 30 0.126299 0.988628 0.5
656 22 0.111302 0.961875 0.5
502 26 0.125723 0.934859 0.5
839 28 0.182682 0.9238 0.5
889 28 0.143918 0.96157 0.5
38 29 0.163661 0.984843 0.5
34 31 0.19519 0.986563 0.5
695 22 0.156348 0.936881 0.5
328 23 0.176804 0.957265 0.5
992 36 0.209559 0.955287 0.5
262 32 0.228367 0.984877 0.5
873 32 0.262153 0.981193 0.5
131 28 0.24299 0.952882 0.5
193 28 0.274674 0.950422 0.5
320 33 0.296955 0.974523 0.5
989 34 0.308915 0.942779 0.5
466 42 0.333337 0.970025 0.5
257 33 0.345574 0.934984 0.5
180 33 0.381102 0.932251 0.5
505 33 0.351993 0.998791 0.5
197 29 0.385232 0.991406 0.5
941 29 0.420823 0.987098 0.5
565 27 0.367288 0.960788 0.5
374 34 0.401081 0.961347 0.5
984 32 0.434346 0.956328 0.5
490 32 0.454426 0.981574 0.5
738 32 0.468034 0.950311 0.5
61 32 0.490941 0.981232 0.5
198 35 0.502534 0.948824 0.5
5 33 0.535216 0.945317 0.5
86 30 0.523193 0.976644 0.5
623 36 0.557776 0.973213 0.5
222 33 0.566945 0.940799 0.5
682 35 0.601109 0.93789 0.5
808 27 0.63469 0.936194 0.5
59 24 0.60939 0.997851 0.5
650 29 0.590925 0.970101 0.5
256 33 0.62392 0.965062 0.5
150 38 0.642613 0.993806 0.5
390 32 0.679449 0.989668 0.5
773 21 0.655117 0.962907 0.5
890 33 0.68971 0.957643 0.5
979 34 0.714661 0.986992 0.5
209 26 0.726458 0.957291 0.5
525 26 0.747155 0.987114 0.5
355 31 0.778607 0.985676 0.5
437 32 0.757746 0.955372 0.5
817 35 0.791811 0.952973 0.5
395 28 0.813962 0.979418 0.5
107 29 0.843679 0.978849 0.5
373 35 0.826196 0.948926 0.5
598 34 0.860802 0.949661 0.5
877 29 0.880934 0.976793 0.5
484 34 0.893509 0.940677 0.5
52 37 0.914912 0.970253 0.5
836 29 0.927809 0.939377 0.5
858 33 0.991815 0.937763 0.5
945 34 0.977464 0.968333 0.5
463 27 0.959853 0.938559 0.5
314 31 0.947479 0.971245 0.5
