ITEM: TIMESTEP
250000
ITEM: NUMBER OF ATOMS
1000
ITEM: BOX BOUNDS pp pp pp
-2.0085210000000000e+01 2.0085210000000000e+01
-2.0085210000000000e+01 2.0085210000000000e+01
-5.0000000000000000e-01 5.0000000000000000e-01
ITEM: ATOMS id type xs ys zs
938 23 0.0205811 0.0311437 0.5
731 35 0.955991 0.0138491 0.5
361 33 0.0337663 0.998218 0.5
420 34 0.0193689 0.953165 0.5
558 31 0.068933 0.0119945 0.5
77 20 0.166323 0.0597898 0.5
621 27 0.152782 0.0864437 0.5
219 28 0.153009 0.0385993 0.5
846 33 0.179795 0.0273576 0.5
654 25 0.192031 0.0611007 0.5
737 34 0.190609 0.0880856 0.5
663 33 0.250218 0.00888134 0.5
601 31 0.288735 0.112367 0.5
351 31 0.269293 0.0296881 0.5
545 38 0.279002 0.998978 0.5
673 27 0.307148 0.00547628 0.5
957 36 0.287757 0.0525837 0.5
193 28 0.385267 0.00923348 0.5
767 39 0.313862 0.0341416 0.5
156 25 0.363622 0.992753 0.5
666 32 0.437063 0.0162935 0.5
555 30 0.387062 0.962619 0.5
14 29 0.474153 0.974077 0.5
493 25 0.407389 0.0266105 0.5
583 24 0.44681 0.0685028 0.5
263 29 0.498109 0.0416133 0.5
907 27 0.572518 0.981643 0.5
900 25 0.559117 0.0437525 0.5
11 37 0.620757 0.0136823 0.5
509 27 0.66122 0.0416736 0.5
547 33 0.689006 0.0457104 0.5
973 22 0.732433 0.982632 0.5
387 29 0.716675 0.0493061 0.5
222 33 0.789339 0.992943 0.5
72 26 0.719139 0.933865 0.5
286 31 0.713037 0.0214024 0.5
454 32 0.769355 0.0368471 0.5
915 27 0.820628 0.999262 0.5
657 25 0.871413 0.0165927 0.5
230 31 0.845603 0.00373028 0.5
615 28 0.933669 0.917879 0.5
742 31 0.831936 0.0606002 0.5
886 28 0.866113 0.0467708 0.5
532 28 0.925703 0.0345746 0.5
810 31 0.998859 0.975469 0.5
500 41 0.928748 0.993784 0.5
636 22 0.958332 0.0586418 0.5
982 32 0.00906053 0.0822366 0.5
417 25 0.0620108 0.0663342 0.5
251 32 0.123734 0.0546383 0.5
359 34 0.0910528 0.0574732 0.5
616 30 0.171978 0.109621 0.5
129 36 0.117305 0.090303 0.5
458 36 0.124349 0.148107 0.5
699 23 0.226217 0.0885224 0.5
64 31 0.198673 0.120597 0.5
394 29 0.219195 0.0594065 0.5
53 35 0.252043 0.128421 0.5
382 37 0.339993 0.0863171 0.5
238 25 0.311298 0.0829425 0.5
961 30 0.370216 0.0348995 0.5
197 29 0.400014 0.0506025 0.5
774 33 0.364511 0.0616089 0.5
845 27 0.456349 0.0402664 0.5
389 39 0.49044 0.0892211 0.5
13 31 0.413991 0.117158 0.5
518 30 0.430214 0.0469341 0.5
715 23 0.461551 0.00658487 0.5
860 30 0.521486 0.0248331 0.5
759 36 0.582363 0.0744351 0.5
989 34 0.543273 0.992253 0.5
470 29 0.584925 0.16114 0.5
362 32 0.584214 0.0367609 0.5
166 30 0.571721 0.107438 0.5
478 29 0.632584 0.039904 0.5
855 31 0.611027 0.0574121 0.5
206 32 0.678321 0.0759435 0.5
686 30 0.602235 0.133191 0.5
49 27 0.702106 0.13061 0.5
985 25 0.705131 0.0725761 0.5
78 20 0.735754 0.00581899 0.5
353 29 0.724538 0.0923965 0.5
557 37 0.80437 0.127433 0.5
916 25 0.775189 0.0668229 0.5
818 25 0.740029 0.0311281 0.5
812 27 0.823992 0.085594 0.5
391 25 0.801808 0.0168695 0.5
546 32 0.910611 0.141443 0.5
466 42 0.851926 0.106284 0.5
571 42 0.987013 0.0319284 0.5
635 23 0.883264 0.103035 0.5
489 22 0.98318 0.0601071 0.5
221 23 0.0431527 0.0452612 0.5
161 27 0.00400507 0.00597127 0.5
58 27 0.978774 0.102018 0.5
323 30 0.0322538 0.0987143 0.5
234 34 0.0925646 0.113061 0.5
620 28 0.0375977 0.072323 0.5
127 23 0.0312214 0.129007 0.5
967 24 0.0586588 0.0994622 0.5
416 34 0.136892 0.116681 0.5
893 30 0.159871 0.198616 0.5
617 33 0.161869 0.151378 0.5
747 24 0.0640995 0.177229 0.5
139 29 0.225586 0.118789 0.5
357 36 0.258153 0.0958891 0.5
326 43 0.24066 0.0399338 0.5
983 32 0.316615 0.125175 0.5
200 34 0.344531 0.148821 0.5
581 23 0.337672 0.0592778 0.5
110 30 0.347951 0.116057 0.5
991 33 0.378414 0.106433 0.5
22 34 0.39177 0.0773315 0.5
411 31 0.420514 0.0772616 0.5
145 25 0.43314 0.134465 0.5
32 22 0.446482 0.16278 0.5
257 33 0.474392 0.0609828 0.5
921 37 0.519829 0.110414 0.5
803 31 0.574981 0.133977 0.5
559 33 0.552714 0.0687469 0.5
939 37 0.520216 0.0675202 0.5
704 34 0.546851 0.146601 0.5
65 31 0.646453 0.164949 0.5
703 30 0.559714 0.171912 0.5
25 33 0.642902 0.0683663 0.5
67 30 0.606191 0.0925289 0.5
217 32 0.660363 0.100274 0.5
712 29 0.673992 0.12395 0.5
81 27 0.695135 0.0996302 0.5
883 35 0.754883 0.0890702 0.5
374 34 0.743484 0.0614851 0.5
418 34 0.803804 0.0492896 0.5
231 32 0.910705 0.0972094 0.5
180 33 0.789789 0.0899109 0.5
332 27 0.810945 0.161372 0.5
245 22 0.834816 0.133399 0.5
211 19 0.898391 0.119196 0.5
400 34 0.919968 0.0625646 0.5
298 38 0.0608726 0.132008 0.5
311 28 0.855163 0.0757522 0.5
19 28 0.952896 0.0857897 0.5
131 28 0.999065 0.11785 0.5
56 27 0.0102662 0.054709 0.5
924 26 0.958147 0.192681 0.5
963 27 0.00997313 0.142328 0.5
172 21 0.0719524 0.156096 0.5
646 28 0.00790301 0.181687 0.5
412 29 0.0959956 0.143519 0.5
656 21 0.103181 0.176952 0.5
605 24 0.992871 0.233575 0.5
852 34 0.260875 0.15831 0.5
16 32 0.223961 0.147306 0.5
4 33 0.0352676 0.189082 0.5
453 25 0.286023 0.0822732 0.5
433 25 0.22445 0.174372 0.5
460 34 0.290803 0.153829 0.5
122 30 0.222981 0.200552 0.5
888 28 0.268531 0.183596 0.5
403 25 0.339635 0.203717 0.5
437 32 0.3094 0.176198 0.5
851 31 0.369318 0.133407 0.5
996 26 0.338358 0.178796 0.5
321 31 0.366544 0.204098 0.5
614 29 0.455487 0.0950423 0.5
29 29 0.400723 0.140192 0.5
50 32 0.488378 0.123496 0.5
782 28 0.455483 0.193006 0.5
244 29 0.542431 0.0937359 0.5
26 39 0.473059 0.148753 0.5
835 33 0.48774 0.196564 0.5
316 38 0.508076 0.146532 0.5
554 29 0.513605 0.216201 0.5
380 38 0.527485 0.181594 0.5
719 23 0.701114 0.174634 0.5
258 38 0.57157 0.200369 0.5
931 30 0.640605 0.136342 0.5
745 35 0.616394 0.15839 0.5
529 28 0.628154 0.113591 0.5
536 28 0.716646 0.154529 0.5
473 31 0.729194 0.183889 0.5
102 22 0.745617 0.162869 0.5
867 37 0.733115 0.130954 0.5
92 28 0.756116 0.186764 0.5
533 35 0.823703 0.192764 0.5
199 36 0.79363 0.190899 0.5
758 22 0.847041 0.218679 0.5
398 37 0.84121 0.160217 0.5
517 36 0.871413 0.1371 0.5
151 37 0.904816 0.171491 0.5
365 27 0.940424 0.171551 0.5
933 29 0.881283 0.0714608 0.5
942 26 0.982133 0.141054 0.5
358 28 0.928576 0.120627 0.5
631 30 0.918004 0.211951 0.5
904 34 0.956397 0.123135 0.5
771 26 0.926995 0.240792 0.5
35 37 0.0413089 0.155957 0.5
383 35 0.982191 0.166919 0.5
6 15 0.0940713 0.196349 0.5
850 23 0.0592339 0.245289 0.5
721 27 0.109056 0.225871 0.5
83 31 0.0619462 0.207137 0.5
97 23 0.0196256 0.210839 0.5
481 30 0.0847386 0.241174 0.5
895 29 0.19033 0.148378 0.5
677 38 0.132962 0.178395 0.5
445 35 0.131976 0.209944 0.5
379 27 0.197194 0.173648 0.5
909 28 0.173975 0.221256 0.5
749 28 0.220588 0.270991 0.5
908 21 0.198077 0.200351 0.5
375 30 0.326201 0.260485 0.5
625 32 0.320068 0.221903 0.5
515 29 0.352499 0.276162 0.5
349 40 0.291492 0.202984 0.5
43 35 0.37586 0.229585 0.5
281 25 0.361067 0.302297 0.5
930 26 0.349017 0.22787 0.5
579 28 0.405383 0.24851 0.5
510 35 0.369712 0.16585 0.5
769 29 0.448335 0.276095 0.5
422 30 0.416782 0.184426 0.5
885 25 0.422115 0.158788 0.5
526 30 0.461751 0.251756 0.5
101 27 0.468837 0.221398 0.5
120 30 0.604639 0.222544 0.5
652 41 0.494476 0.239139 0.5
279 32 0.551002 0.254898 0.5
340 22 0.519412 0.260199 0.5
377 27 0.578503 0.23171 0.5
208 32 0.602128 0.18631 0.5
68 31 0.546387 0.218708 0.5
93 42 0.666262 0.19637 0.5
138 31 0.69347 0.244646 0.5
541 33 0.683506 0.150924 0.5
928 33 0.699207 0.203227 0.5
146 25 0.744356 0.209158 0.5
442 35 0.765776 0.12921 0.5
117 31 0.769838 0.21943 0.5
141 32 0.782831 0.15434 0.5
728 34 0.816702 0.267356 0.5
305 30 0.823861 0.226203 0.5
512 31 0.872011 0.165291 0.5
811 26 0.868109 0.207508 0.5
633 30 0.893996 0.198245 0.5
801 26 0.846419 0.253523 0.5
62 28 0.870252 0.23707 0.5
653 24 0.9597 0.150721 0.5
128 31 0.897052 0.230074 0.5
76 26 0.952948 0.255816 0.5
276 35 0.977039 0.211327 0.5
299 25 0.949926 0.221561 0.5
355 31 0.0619734 0.277899 0.5
580 27 0.0394963 0.225066 0.5
675 27 0.086862 0.284231 0.5
681 24 0.143775 0.279204 0.5
868 38 0.234813 0.236406 0.5
602 25 0.205699 0.230219 0.5
223 19 0.245824 0.273912 0.5
815 30 0.214214 0.297375 0.5
814 31 0.287664 0.236235 0.5
718 20 0.194538 0.250866 0.5
287 35 0.262598 0.218556 0.5
598 34 0.338493 0.316958 0.5
21 31 0.357902 0.341211 0.5
505 33 0.383295 0.321318 0.5
296 30 0.393707 0.202357 0.5
929 33 0.432817 0.242075 0.5
504 39 0.380513 0.265745 0.5
825 36 0.431888 0.299221 0.5
502 25 0.447184 0.348636 0.5
28 27 0.432925 0.2084 0.5
393 38 0.460733 0.319019 0.5
292 28 0.475459 0.286461 0.5
965 29 0.57512 0.315267 0.5
198 35 0.567771 0.281652 0.5
755 25 0.624095 0.237344 0.5
665 41 0.656072 0.254871 0.5
153 37 0.722631 0.255908 0.5
628 31 0.664194 0.285171 0.5
977 35 0.685455 0.305598 0.5
232 27 0.719251 0.224137 0.5
315 28 0.798631 0.21973 0.5
20 35 0.84104 0.283705 0.5
568 31 0.872081 0.270047 0.5
644 30 0.776688 0.247697 0.5
540 35 0.883182 0.305942 0.5
331 26 0.850347 0.185782 0.5
599 33 0.935555 0.297958 0.5
235 35 0.960873 0.284689 0.5
630 32 0.899526 0.259324 0.5
876 31 0.929414 0.269778 0.5
836 29 0.979619 0.257374 0.5
10 29 0.00959984 0.280294 0.5
174 31 0.98375 0.306985 0.5
18 41 0.0283254 0.252701 0.5
694 31 0.114396 0.287103 0.5
604 22 0.0626131 0.304639 0.5
511 37 0.0368584 0.293275 0.5
834 31 0.107563 0.25973 0.5
48 25 0.134622 0.31063 0.5
501 34 0.16865 0.343081 0.5
629 25 0.117755 0.334587 0.5
946 30 0.188843 0.281172 0.5
124 28 0.152119 0.25318 0.5
491 30 0.184365 0.312063 0.5
8 25 0.261175 0.256379 0.5
266 35 0.322212 0.360916 0.5
178 23 0.288318 0.261878 0.5
46 34 0.288677 0.314443 0.5
212 25 0.417878 0.273784 0.5
739 42 0.409337 0.356837 0.5
215 28 0.400896 0.296154 0.5
264 31 0.473334 0.347715 0.5
695 21 0.431284 0.326392 0.5
271 30 0.538927 0.284535 0.5
253 29 0.523505 0.307185 0.5
805 27 0.48858 0.313195 0.5
676 31 0.503755 0.281835 0.5
371 29 0.588548 0.397254 0.5
185 36 0.600635 0.340563 0.5
981 30 0.549852 0.323953 0.5
641 29 0.59489 0.255742 0.5
313 33 0.629827 0.294599 0.5
499 19 0.639682 0.366463 0.5
463 26 0.659635 0.328168 0.5
822 35 0.620901 0.265622 0.5
196 31 0.726269 0.291389 0.5
979 35 0.759191 0.273819 0.5
685 30 0.79154 0.28326 0.5
899 23 0.749663 0.302281 0.5
741 34 0.799391 0.337444 0.5
592 25 0.855367 0.351441 0.5
821 26 0.812741 0.299637 0.5
333 30 0.835862 0.311541 0.5
539 31 0.912623 0.340315 0.5
169 21 0.910322 0.303055 0.5
444 33 0.96077 0.334057 0.5
806 27 0.959489 0.365314 0.5
328 23 0.936618 0.325776 0.5
397 32 0.0652325 0.334371 0.5
467 31 0.0586243 0.419927 0.5
761 29 0.0799655 0.375405 0.5
415 24 0.0132475 0.319166 0.5
901 37 0.0912224 0.349013 0.5
837 33 0.0995749 0.396033 0.5
227 32 0.096691 0.316017 0.5
958 23 0.163828 0.291271 0.5
337 29 0.191097 0.374549 0.5
562 37 0.20204 0.339056 0.5
762 32 0.115734 0.36497 0.5
612 27 0.151316 0.366363 0.5
430 33 0.270699 0.281753 0.5
163 26 0.264955 0.372623 0.5
735 28 0.342747 0.415303 0.5
324 38 0.313698 0.298051 0.5
5 33 0.238581 0.327067 0.5
894 27 0.311047 0.336517 0.5
589 24 0.356238 0.368112 0.5
573 30 0.359378 0.47177 0.5
256 33 0.416346 0.392043 0.5
910 30 0.382798 0.373966 0.5
61 32 0.452446 0.408006 0.5
538 34 0.448808 0.377684 0.5
243 33 0.45177 0.438213 0.5
90 39 0.487353 0.37436 0.5
159 34 0.506045 0.333654 0.5
650 29 0.517756 0.362962 0.5
606 34 0.584083 0.36803 0.5
150 38 0.575385 0.430579 0.5
831 29 0.559792 0.351111 0.5
691 38 0.596326 0.291093 0.5
160 29 0.616259 0.366924 0.5
984 32 0.66394 0.37243 0.5
449 26 0.682266 0.35189 0.5
432 29 0.631629 0.326103 0.5
707 45 0.712552 0.3623 0.5
593 25 0.742807 0.366435 0.5
524 33 0.745471 0.328736 0.5
443 28 0.718357 0.32414 0.5
106 20 0.704962 0.276974 0.5
162 32 0.778018 0.312446 0.5
508 28 0.829576 0.352772 0.5
465 27 0.865122 0.327703 0.5
987 35 0.81796 0.393306 0.5
182 33 0.849618 0.379733 0.5
356 25 0.880409 0.347222 0.5
213 32 0.92216 0.367957 0.5
179 31 0.949118 0.390056 0.5
990 40 0.997527 0.348559 0.5
647 30 0.0359626 0.352423 0.5
269 32 0.0551882 0.388941 0.5
553 32 0.989222 0.376824 0.5
962 46 0.0288579 0.426677 0.5
726 29 0.0490085 0.453761 0.5
79 37 0.0854229 0.440216 0.5
723 29 0.112331 0.426208 0.5
995 25 0.188395 0.468281 0.5
841 31 0.299591 0.375652 0.5
476 22 0.217742 0.366059 0.5
438 27 0.237471 0.389171 0.5
954 24 0.259482 0.347389 0.5
679 42 0.313369 0.408485 0.5
768 31 0.336338 0.38792 0.5
690 27 0.354886 0.437839 0.5
273 28 0.377816 0.400386 0.5
658 35 0.391584 0.467622 0.5
513 27 0.381357 0.439859 0.5
594 33 0.479574 0.404023 0.5
66 31 0.515546 0.43696 0.5
143 30 0.531259 0.385429 0.5
918 39 0.561161 0.389751 0.5
968 37 0.548337 0.453405 0.5
520 31 0.624268 0.422493 0.5
457 37 0.605001 0.449053 0.5
706 32 0.576789 0.472077 0.5
249 34 0.618256 0.394747 0.5
44 33 0.68959 0.3918 0.5
920 29 0.759015 0.39314 0.5
334 33 0.768221 0.346759 0.5
638 47 0.792693 0.371461 0.5
804 29 0.701048 0.416812 0.5
716 30 0.757804 0.424124 0.5
147 30 0.785638 0.431717 0.5
525 26 0.892542 0.412813 0.5
270 31 0.862212 0.405376 0.5
709 30 0.820299 0.42865 0.5
796 26 0.949537 0.433524 0.5
744 33 0.893926 0.371303 0.5
802 35 0.996597 0.442457 0.5
142 31 0.970374 0.415392 0.5
33 30 0.0198378 0.384573 0.5
170 33 0.997753 0.409051 0.5
184 27 0.0734139 0.488224 0.5
595 35 0.0224002 0.461986 0.5
469 36 0.0477668 0.507662 0.5
643 28 0.155966 0.423412 0.5
827 40 0.138366 0.396124 0.5
186 31 0.163235 0.454031 0.5
760 26 0.169697 0.402799 0.5
404 31 0.166559 0.486006 0.5
209 26 0.212057 0.390402 0.5
480 26 0.155958 0.520434 0.5
30 32 0.193201 0.414844 0.5
692 28 0.254089 0.412012 0.5
582 28 0.241083 0.439795 0.5
648 25 0.281057 0.413564 0.5
204 34 0.324605 0.441954 0.5
700 26 0.332551 0.469323 0.5
52 37 0.291004 0.454118 0.5
764 37 0.422554 0.455097 0.5
99 25 0.397319 0.421091 0.5
765 24 0.510116 0.399727 0.5
336 35 0.468861 0.49391 0.5
655 29 0.422583 0.420831 0.5
39 27 0.450014 0.469683 0.5
869 32 0.481621 0.455983 0.5
720 28 0.508681 0.512192 0.5
408 28 0.545524 0.486283 0.5
427 31 0.541008 0.416429 0.5
406 30 0.494152 0.480156 0.5
471 25 0.579904 0.506442 0.5
577 36 0.661433 0.433298 0.5
413 26 0.600601 0.487634 0.5
15 33 0.6943 0.446335 0.5
816 32 0.657347 0.40149 0.5
395 28 0.688273 0.490276 0.5
288 35 0.668255 0.466201 0.5
550 25 0.722882 0.434775 0.5
267 27 0.738179 0.482551 0.5
724 40 0.729925 0.396201 0.5
51 31 0.745408 0.44958 0.5
38 29 0.79317 0.496312 0.5
329 34 0.815876 0.476338 0.5
862 25 0.806056 0.451165 0.5
790 32 0.892802 0.487808 0.5
464 30 0.866123 0.474659 0.5
976 23 0.781896 0.405791 0.5
376 40 0.885421 0.447113 0.5
75 21 0.91362 0.434155 0.5
1 26 0.919668 0.493825 0.5
168 36 0.973499 0.472782 0.5
787 27 0.923922 0.409543 0.5
788 33 0.995739 0.495498 0.5
626 35 0.995954 0.546809 0.5
495 33 0.0974282 0.469655 0.5
488 26 0.0247694 0.490019 0.5
776 31 0.0579777 0.536844 0.5
80 29 0.131479 0.494827 0.5
698 21 0.128361 0.467187 0.5
640 37 0.211213 0.529363 0.5
318 35 0.124621 0.522966 0.5
702 28 0.134128 0.441634 0.5
317 37 0.230784 0.471435 0.5
135 29 0.202165 0.445185 0.5
785 33 0.20698 0.489871 0.5
609 30 0.26447 0.465635 0.5
109 42 0.297004 0.487915 0.5
455 31 0.380059 0.546322 0.5
390 32 0.346753 0.565342 0.5
829 25 0.347663 0.495288 0.5
639 22 0.372762 0.498212 0.5
320 33 0.413184 0.487563 0.5
565 27 0.481202 0.518082 0.5
439 28 0.527926 0.531832 0.5
386 36 0.444942 0.514807 0.5
303 29 0.519617 0.488703 0.5
777 27 0.603203 0.537945 0.5
792 31 0.548878 0.513905 0.5
632 30 0.61077 0.512431 0.5
870 30 0.637775 0.447718 0.5
896 29 0.623049 0.47347 0.5
435 23 0.640093 0.49984 0.5
678 30 0.627484 0.535483 0.5
424 23 0.663627 0.499966 0.5
578 29 0.713868 0.499473 0.5
722 33 0.735067 0.542528 0.5
661 30 0.712625 0.472034 0.5
527 28 0.763326 0.525022 0.5
203 39 0.779811 0.466949 0.5
116 23 0.767111 0.497938 0.5
226 31 0.872723 0.506864 0.5
866 29 0.841769 0.459365 0.5
105 31 0.819601 0.513561 0.5
448 32 0.85401 0.43369 0.5
753 32 0.840672 0.491701 0.5
757 38 0.966117 0.554298 0.5
914 25 0.969323 0.447706 0.5
74 35 0.935383 0.45875 0.5
188 31 0.93516 0.520989 0.5
645 33 0.932746 0.548766 0.5
843 34 0.0138061 0.522114 0.5
799 27 0.967086 0.523804 0.5
84 27 0.0489259 0.479443 0.5
522 35 0.0317818 0.555436 0.5
236 41 0.0933376 0.538315 0.5
687 33 0.0969605 0.50328 0.5
2 28 0.131666 0.591508 0.5
689 30 0.195635 0.580054 0.5
175 43 0.222169 0.564197 0.5
370 37 0.23411 0.505038 0.5
669 40 0.281835 0.554268 0.5
486 37 0.266947 0.499693 0.5
936 25 0.353448 0.539078 0.5
884 36 0.288166 0.522863 0.5
282 27 0.320988 0.555532 0.5
514 25 0.360833 0.639079 0.5
751 24 0.384449 0.611787 0.5
877 29 0.369493 0.580468 0.5
941 29 0.391771 0.518814 0.5
112 25 0.400433 0.562687 0.5
746 24 0.416757 0.515706 0.5
7 35 0.455914 0.544737 0.5
82 33 0.419398 0.544409 0.5
55 28 0.512304 0.57385 0.5
304 28 0.500022 0.601138 0.5
447 36 0.489074 0.545806 0.5
36 37 0.558127 0.541073 0.5
378 31 0.538545 0.567346 0.5
254 33 0.616404 0.562408 0.5
302 26 0.582555 0.560977 0.5
192 36 0.685603 0.592273 0.5
450 24 0.675854 0.526962 0.5
294 29 0.711035 0.52966 0.5
405 29 0.717769 0.585512 0.5
27 33 0.70404 0.560811 0.5
890 33 0.777782 0.554891 0.5
441 30 0.738681 0.513897 0.5
925 23 0.802265 0.57293 0.5
428 28 0.847383 0.560792 0.5
800 23 0.871214 0.58865 0.5
708 26 0.899402 0.515402 0.5
858 33 0.849508 0.526907 0.5
922 36 0.909658 0.576167 0.5
283 36 0.940851 0.577011 0.5
494 23 0.924413 0.599107 0.5
440 39 0.977529 0.587775 0.5
462 29 0.0343737 0.61282 0.5
125 30 0.0454936 0.588794 0.5
830 29 0.168069 0.658327 0.5
839 27 0.0489242 0.641752 0.5
668 23 0.109399 0.562541 0.5
784 28 0.0750818 0.564986 0.5
114 26 0.0962322 0.583036 0.5
552 30 0.185589 0.512075 0.5
898 28 0.174028 0.610348 0.5
242 35 0.175815 0.552238 0.5
623 36 0.227494 0.652503 0.5
278 33 0.23858 0.622907 0.5
285 30 0.251589 0.554251 0.5
596 27 0.305971 0.664118 0.5
402 37 0.320224 0.513769 0.5
484 34 0.326806 0.584551 0.5
295 33 0.411384 0.589568 0.5
649 35 0.265999 0.591887 0.5
729 23 0.392609 0.644054 0.5
284 35 0.442171 0.574384 0.5
872 39 0.424721 0.637822 0.5
789 28 0.459859 0.627393 0.5
697 36 0.518494 0.637971 0.5
570 34 0.608065 0.591159 0.5
225 34 0.477092 0.572707 0.5
683 34 0.562277 0.587467 0.5
611 36 0.643982 0.600688 0.5
740 34 0.583588 0.608172 0.5
951 29 0.676826 0.563509 0.5
343 33 0.646961 0.569167 0.5
218 23 0.759107 0.65784 0.5
121 32 0.708686 0.622874 0.5
584 25 0.779179 0.628819 0.5
47 31 0.771613 0.587013 0.5
897 31 0.833309 0.586046 0.5
572 34 0.792712 0.52794 0.5
775 33 0.82577 0.542449 0.5
766 29 0.807651 0.619492 0.5
667 27 0.88421 0.567164 0.5
154 28 0.91665 0.666518 0.5
813 30 0.888846 0.659897 0.5
363 25 0.924968 0.627778 0.5
542 32 0.951919 0.606875 0.5
956 33 0.00620504 0.606259 0.5
705 29 0.899632 0.603807 0.5
783 26 0.0210071 0.581856 0.5
923 33 0.022146 0.65544 0.5
306 27 0.0874663 0.63657 0.5
237 35 0.105344 0.609344 0.5
89 30 0.102268 0.658491 0.5
684 25 0.134813 0.649373 0.5
265 41 0.0709467 0.60726 0.5
233 27 0.157388 0.574662 0.5
934 25 0.198653 0.662859 0.5
966 25 0.232912 0.679169 0.5
9 28 0.138048 0.556222 0.5
959 27 0.210228 0.616108 0.5
940 27 0.230089 0.593405 0.5
574 22 0.296236 0.686989 0.5
680 29 0.280101 0.71117 0.5
297 30 0.301415 0.603931 0.5
366 29 0.331388 0.693633 0.5
853 20 0.283949 0.620863 0.5
252 35 0.33319 0.6625 0.5
307 32 0.342157 0.614914 0.5
137 33 0.422927 0.669251 0.5
70 28 0.485748 0.622463 0.5
98 35 0.452363 0.664345 0.5
205 27 0.433616 0.604396 0.5
576 33 0.526005 0.606811 0.5
419 33 0.509129 0.666556 0.5
228 27 0.565387 0.655338 0.5
1000 35 0.555396 0.618914 0.5
149 27 0.622887 0.62107 0.5
216 41 0.597161 0.639621 0.5
354 34 0.675916 0.628718 0.5
725 38 0.645126 0.643996 0.5
392 30 0.737493 0.639546 0.5
300 36 0.672956 0.659238 0.5
833 33 0.745248 0.570588 0.5
202 38 0.761945 0.684336 0.5
863 26 0.796963 0.645843 0.5
585 32 0.753422 0.615773 0.5
347 44 0.837891 0.666199 0.5
717 30 0.883006 0.626195 0.5
786 38 0.854751 0.614565 0.5
423 34 0.863968 0.646745 0.5
431 31 0.980279 0.658907 0.5
87 28 0.824211 0.695107 0.5
322 23 0.856165 0.692567 0.5
878 32 0.977633 0.622195 0.5
176 33 0.953537 0.675705 0.5
426 23 0.999062 0.642478 0.5
373 35 0.00211435 0.684653 0.5
474 28 0.975406 0.696208 0.5
291 27 0.169535 0.698163 0.5
119 29 0.0601501 0.665729 0.5
372 27 0.201043 0.699659 0.5
399 34 0.191478 0.63701 0.5
301 36 0.136749 0.622968 0.5
798 34 0.196902 0.728398 0.5
591 26 0.199473 0.775312 0.5
3 33 0.258362 0.646107 0.5
535 25 0.253957 0.728894 0.5
752 26 0.225474 0.728638 0.5
133 32 0.273488 0.676051 0.5
972 29 0.249898 0.703593 0.5
903 31 0.311192 0.637468 0.5
978 23 0.285027 0.65152 0.5
619 32 0.310722 0.744243 0.5
485 34 0.347513 0.741913 0.5
113 35 0.380116 0.669671 0.5
472 27 0.394388 0.731022 0.5
955 28 0.358883 0.697398 0.5
997 34 0.437526 0.693948 0.5
17 27 0.47121 0.690483 0.5
992 37 0.40763 0.698691 0.5
461 32 0.479436 0.649464 0.5
57 32 0.48249 0.715928 0.5
250 30 0.50053 0.693339 0.5
950 32 0.542226 0.67815 0.5
575 32 0.560169 0.704792 0.5
881 27 0.640439 0.673514 0.5
490 32 0.655557 0.779572 0.5
157 32 0.65756 0.749267 0.5
468 27 0.618345 0.658544 0.5
732 28 0.666622 0.715012 0.5
111 28 0.686457 0.733161 0.5
832 41 0.704817 0.661922 0.5
960 40 0.691591 0.702552 0.5
59 23 0.73757 0.669938 0.5
94 25 0.718506 0.728481 0.5
475 26 0.828952 0.636116 0.5
844 33 0.792395 0.68516 0.5
943 44 0.727171 0.697883 0.5
809 27 0.865576 0.722699 0.5
12 34 0.832397 0.747357 0.5
848 29 0.950286 0.646026 0.5
791 27 0.929615 0.727267 0.5
310 33 0.884197 0.703391 0.5
779 37 0.924959 0.699568 0.5
734 32 0.999393 0.71356 0.5
255 29 0.0206263 0.736202 0.5
345 32 0.993855 0.754595 0.5
104 25 0.0244277 0.699187 0.5
275 32 0.0585977 0.691408 0.5
409 30 0.142728 0.673064 0.5
314 31 0.0886022 0.685693 0.5
155 30 0.13304 0.702567 0.5
516 40 0.234534 0.756768 0.5
248 26 0.167535 0.726912 0.5
590 25 0.159475 0.752701 0.5
60 27 0.327251 0.719794 0.5
671 25 0.186944 0.752565 0.5
879 33 0.266456 0.777875 0.5
999 36 0.276962 0.748173 0.5
335 33 0.317004 0.800058 0.5
272 36 0.326784 0.771617 0.5
260 28 0.359498 0.773692 0.5
889 28 0.421857 0.749219 0.5
937 32 0.381207 0.754497 0.5
396 31 0.413825 0.779505 0.5
998 31 0.4259 0.722799 0.5
189 13 0.365939 0.725393 0.5
507 29 0.451692 0.749304 0.5
277 26 0.456204 0.722111 0.5
42 40 0.512139 0.741838 0.5
207 31 0.555463 0.748501 0.5
733 37 0.531963 0.711021 0.5
727 36 0.587048 0.742264 0.5
873 32 0.581677 0.674919 0.5
95 32 0.702135 0.784407 0.5
519 24 0.61514 0.691998 0.5
88 41 0.72221 0.811662 0.5
164 33 0.761939 0.715318 0.5
847 37 0.719939 0.760955 0.5
85 23 0.663087 0.685287 0.5
280 38 0.752743 0.772707 0.5
823 28 0.789703 0.714389 0.5
401 25 0.859914 0.812607 0.5
672 31 0.81637 0.722801 0.5
37 29 0.842407 0.775457 0.5
561 32 0.973946 0.72811 0.5
346 29 0.900804 0.728612 0.5
107 29 0.928983 0.753468 0.5
548 36 0.958211 0.756117 0.5
824 31 0.0455912 0.716441 0.5
567 29 0.0326222 0.770923 0.5
911 29 0.068757 0.737262 0.5
948 36 0.0953688 0.753025 0.5
688 27 0.0775636 0.710106 0.5
659 35 0.1038 0.723031 0.5
622 28 0.0973377 0.792686 0.5
624 24 0.151325 0.816779 0.5
664 32 0.12753 0.74231 0.5
352 27 0.137884 0.769012 0.5
195 37 0.225591 0.790143 0.5
842 28 0.177738 0.815236 0.5
838 23 0.175694 0.781432 0.5
327 31 0.238098 0.820192 0.5
988 20 0.254435 0.799761 0.5
523 22 0.296104 0.863767 0.5
268 43 0.300327 0.829622 0.5
41 31 0.347548 0.806754 0.5
864 25 0.417358 0.862899 0.5
603 29 0.381932 0.824522 0.5
531 26 0.379387 0.79156 0.5
187 33 0.433653 0.805068 0.5
436 31 0.452503 0.782088 0.5
913 29 0.478615 0.741772 0.5
241 33 0.490761 0.771068 0.5
103 33 0.524339 0.772217 0.5
627 33 0.597083 0.772315 0.5
506 37 0.592695 0.807595 0.5
528 33 0.591487 0.708616 0.5
875 34 0.626644 0.716472 0.5
682 36 0.616377 0.746291 0.5
45 28 0.629067 0.820618 0.5
24 29 0.657533 0.826726 0.5
974 26 0.622826 0.789354 0.5
190 39 0.755586 0.805544 0.5
108 33 0.745651 0.74085 0.5
693 29 0.773259 0.828882 0.5
477 31 0.752884 0.845813 0.5
144 34 0.813658 0.77589 0.5
240 29 0.779316 0.739262 0.5
711 34 0.830757 0.847186 0.5
220 30 0.805195 0.748858 0.5
660 28 0.836304 0.800634 0.5
309 34 0.913268 0.840177 0.5
964 33 0.892117 0.758219 0.5
560 29 0.941179 0.788828 0.5
290 31 0.0730558 0.806988 0.5
63 29 0.0146432 0.803778 0.5
887 32 0.042875 0.820296 0.5
849 35 0.072164 0.842534 0.5
856 28 0.122632 0.807234 0.5
158 35 0.0606783 0.770558 0.5
194 31 0.111005 0.853241 0.5
224 30 0.0986132 0.823857 0.5
670 34 0.163907 0.854679 0.5
421 34 0.138542 0.876789 0.5
152 34 0.202278 0.861717 0.5
969 29 0.206453 0.830379 0.5
167 27 0.263919 0.826641 0.5
608 29 0.336253 0.832013 0.5
826 30 0.321994 0.862285 0.5
828 29 0.287012 0.798674 0.5
534 33 0.426197 0.834337 0.5
115 23 0.360971 0.836375 0.5
819 30 0.402961 0.808448 0.5
730 31 0.393162 0.849538 0.5
261 38 0.470365 0.805538 0.5
381 32 0.44705 0.887278 0.5
293 35 0.461226 0.83584 0.5
425 32 0.4932 0.828577 0.5
586 42 0.485 0.866806 0.5
183 28 0.519577 0.843216 0.5
446 28 0.562219 0.822837 0.5
986 28 0.571552 0.784576 0.5
807 23 0.545845 0.79225 0.5
86 30 0.598936 0.841788 0.5
854 28 0.536009 0.8186 0.5
549 30 0.622073 0.859971 0.5
530 29 0.647875 0.850883 0.5
993 30 0.687528 0.889981 0.5
498 29 0.696802 0.861149 0.5
871 28 0.722746 0.844511 0.5
944 29 0.790937 0.913826 0.5
429 27 0.691533 0.813413 0.5
600 35 0.782371 0.775942 0.5
945 34 0.806824 0.806899 0.5
797 31 0.883922 0.838696 0.5
239 35 0.832818 0.880277 0.5
483 28 0.897116 0.864725 0.5
130 28 0.910316 0.777357 0.5
770 41 0.894288 0.803808 0.5
368 33 0.931742 0.817781 0.5
247 24 0.000181497 0.894546 0.5
927 32 0.961324 0.810029 0.5
521 32 0.995741 0.783345 0.5
100 33 0.976429 0.868193 0.5
905 30 0.0393479 0.851364 0.5
482 29 0.0326299 0.885236 0.5
971 20 0.153923 0.792385 0.5
696 27 0.108028 0.897011 0.5
756 28 0.0756267 0.872755 0.5
778 24 0.13689 0.837219 0.5
360 18 0.0976102 0.872864 0.5
364 32 0.083192 0.911887 0.5
563 35 0.228381 0.849977 0.5
840 26 0.144124 0.91411 0.5
414 34 0.179429 0.880524 0.5
132 31 0.21003 0.89993 0.5
859 39 0.241627 0.879105 0.5
743 32 0.265078 0.852982 0.5
40 39 0.356068 0.864829 0.5
588 26 0.307022 0.886137 0.5
651 24 0.337092 0.894214 0.5
763 34 0.421594 0.9046 0.5
165 22 0.378538 0.93358 0.5
350 16 0.466306 0.936992 0.5
73 31 0.477643 0.910261 0.5
618 35 0.361786 0.902218 0.5
902 30 0.534191 0.869518 0.5
754 31 0.595461 0.870773 0.5
714 29 0.506002 0.796048 0.5
543 33 0.589873 0.904213 0.5
912 38 0.643208 0.88457 0.5
210 28 0.670504 0.867265 0.5
325 32 0.659102 0.928113 0.5
492 39 0.732576 0.874334 0.5
23 28 0.677721 0.840851 0.5
388 26 0.714229 0.901725 0.5
274 27 0.74651 0.905415 0.5
459 36 0.801951 0.882281 0.5
613 27 0.805463 0.836813 0.5
748 35 0.853226 0.93542 0.5
262 32 0.820568 0.905984 0.5
970 22 0.825792 0.930376 0.5
947 33 0.83552 0.959034 0.5
569 33 0.860257 0.861401 0.5
338 29 0.882404 0.929743 0.5
339 36 0.914256 0.888319 0.5
451 33 0.871286 0.897859 0.5
780 29 0.982027 0.826131 0.5
289 22 0.0063074 0.837385 0.5
177 24 0.156186 0.981643 0.5
452 33 0.0114849 0.864188 0.5
34 31 0.0928016 0.948093 0.5
123 18 0.0871836 0.984967 0.5
701 37 0.159106 0.939639 0.5
214 34 0.114087 0.923015 0.5
497 32 0.186461 0.982576 0.5
587 36 0.198776 0.941315 0.5
69 35 0.183619 0.912799 0.5
713 37 0.263424 0.945849 0.5
794 31 0.24771 0.911082 0.5
861 35 0.279494 0.913544 0.5
312 38 0.277107 0.881203 0.5
96 30 0.310004 0.977807 0.5
566 31 0.342378 0.969526 0.5
772 32 0.343276 0.924896 0.5
880 40 0.31116 0.916902 0.5
479 21 0.389965 0.912602 0.5
736 26 0.41014 0.93642 0.5
308 26 0.360293 0.951261 0.5
750 32 0.383887 0.879337 0.5
865 22 0.447907 0.86014 0.5
994 28 0.448555 0.921039 0.5
597 24 0.516117 0.898492 0.5
330 27 0.492476 0.950071 0.5
456 31 0.520756 0.954761 0.5
341 25 0.557853 0.849463 0.5
410 40 0.563649 0.882522 0.5
857 39 0.586802 0.948034 0.5
344 21 0.664004 0.902922 0.5
980 28 0.631711 0.928463 0.5
118 26 0.617364 0.899904 0.5
369 35 0.69026 0.921544 0.5
874 37 0.783666 0.856482 0.5
820 29 0.647783 0.954822 0.5
201 34 0.708889 0.963205 0.5
610 30 0.767684 0.93191 0.5
91 25 0.769557 0.89301 0.5
738 32 0.858579 0.976351 0.5
551 30 0.906993 0.915452 0.5
487 30 0.909523 0.947478 0.5
319 29 0.952189 0.936535 0.5
342 39 0.945801 0.882557 0.5
917 39 0.0294602 0.923019 0.5
173 30 0.97178 0.915423 0.5
148 34 0.942423 0.848242 0.5
926 34 0.0580883 0.942122 0.5
384 41 0.995094 0.934698 0.5
607 37 0.051709 0.974133 0.5
935 25 0.110696 -1.75391e-05 0.5
367 28 0.140175 0.959995 0.5
975 27 0.117 0.972758 0.5
556 29 0.161377 0.00671822 0.5
229 32 0.0958232 0.0234382 0.5
882 36 0.13424 0.0195422 0.5
662 32 0.209559 0.999011 0.5
949 34 0.234354 0.935699 0.5
134 34 0.250958 0.981049 0.5
795 35 0.217013 0.965304 0.5
892 23 0.290501 0.944332 0.5
259 20 0.343069 0.036843 0.5
407 26 0.324469 0.947267 0.5
634 18 0.284929 0.973028 0.5
564 27 0.334867 0.997901 0.5
385 32 0.413997 0.963847 0.5
537 27 0.418193 0.997662 0.5
781 29 0.449288 0.954917 0.5
136 37 0.444214 0.983143 0.5
710 37 0.489645 0.00539431 0.5
953 29 0.546608 0.963768 0.5
891 33 0.535748 0.92955 0.5
181 32 0.513986 0.98567 0.5
952 34 0.508287 0.926505 0.5
71 34 0.565781 0.920455 0.5
906 38 0.587565 0.00586161 0.5
544 28 0.605889 0.980395 0.5
637 28 0.68353 0.99409 0.5
773 21 0.649788 0.0188574 0.5
642 31 0.61926 0.957806 0.5
674 28 0.655799 0.993113 0.5
817 35 0.676857 0.951645 0.5
793 29 0.606163 0.927835 0.5
348 27 0.711437 0.996162 0.5
503 37 0.73794 0.953785 0.5
171 34 0.79518 0.944821 0.5
932 27 0.756503 0.992867 0.5
191 36 0.7679 0.961117 0.5
54 29 0.805908 0.971285 0.5
126 32 0.901149 0.973159 0.5
434 24 0.930977 0.961493 0.5
246 33 0.899787 0.0141949 0.5
140 30 0.953877 0.975028 0.5
496 30 0.82745 0.0343829 0.5
31 23 0.972139 0.95701 0.5
808 26 0.0511705 0.90396 0.5
919 24 0.973166 0.992874 0.5
