LAMMPS 2D data file

1000 atoms
60 atom types

-15.004229 15.004229 xlo xhi
-15.004229 15.004229 ylo yhi

Masses

1 0.410000
2 0.430000
3 0.450000
4 0.470000
5 0.490000
6 0.510000
7 0.530000
8 0.550000
9 0.570000
10 0.590000
11 0.610000
12 0.630000
13 0.650000
14 0.670000
15 0.690000
16 0.710000
17 0.730000
18 0.750000
19 0.770000
20 0.790000
21 0.810000
22 0.830000
23 0.850000
24 0.870000
25 0.890000
26 0.910000
27 0.930000
28 0.950000
29 0.970000
30 0.990000
31 1.010000
32 1.030000
33 1.050000
34 1.070000
35 1.090000
36 1.110000
37 1.130000
38 1.150000
39 1.170000
40 1.190000
41 1.210000
42 1.230000
43 1.250000
44 1.270000
45 1.290000
46 1.310000
47 1.330000
48 1.350000
49 1.370000
50 1.390000
51 1.410000
52 1.430000
53 1.450000
54 1.470000
55 1.490000
56 1.510000
57 1.530000
58 1.550000
59 1.570000
60 1.590000

Atoms # atomic

1 31 0.641963 -6.089061 0.000000
2 18 9.442027 6.431417 0.000000
3 32 -14.545491 -2.889632 0.000000
4 32 8.571257 -5.580518 0.000000
5 29 10.873563 10.939905 0.000000
6 29 4.348955 10.630278 0.000000
7 35 -3.972208 -11.161928 0.000000
8 25 -3.999867 9.087888 0.000000
9 26 -11.316292 -2.360693 0.000000
10 33 12.001543 -13.134673 0.000000
11 34 6.238379 -14.310779 0.000000
12 30 -6.448306 8.968897 0.000000
13 27 -0.306133 13.963773 0.000000
14 32 7.689585 8.819493 0.000000
15 31 5.207244 -10.092580 0.000000
16 29 -14.784728 -14.098364 0.000000
17 32 8.121419 -4.655227 0.000000
18 33 9.991896 4.013289 0.000000
19 26 -8.946822 -9.910103 0.000000
20 37 -0.303630 8.488347 0.000000
21 25 14.119809 -0.227333 0.000000
22 30 -4.453494 -5.970961 0.000000
23 27 -0.566587 -7.776910 0.000000
24 31 2.005404 -5.080599 0.000000
25 30 -5.312300 4.175176 0.000000
26 34 -8.852020 -1.051783 0.000000
27 29 6.573563 -10.203537 0.000000
28 33 -2.992461 -13.460694 0.000000
29 33 3.355532 7.934533 0.000000
30 27 0.394077 9.713531 0.000000
31 30 -6.703506 11.781136 0.000000
32 24 5.607682 2.035088 0.000000
33 27 -4.216310 -6.193334 0.000000
34 34 -2.964454 -13.816717 0.000000
35 40 -7.638306 5.907024 0.000000
36 33 6.293919 9.652059 0.000000
37 35 14.098094 -0.947711 0.000000
38 23 -14.557025 -5.530445 0.000000
39 26 -9.665922 14.116662 0.000000
40 32 10.120160 -7.393982 0.000000
41 30 -3.570534 10.408690 0.000000
42 33 -8.206889 -6.987626 0.000000
43 39 -1.491349 6.005550 0.000000
44 43 2.284146 13.370497 0.000000
45 38 -5.622549 10.954008 0.000000
46 33 12.020669 10.283005 0.000000
47 30 2.645342 12.201589 0.000000
48 37 13.585898 5.522493 0.000000
49 30 11.027136 13.018047 0.000000
50 25 -14.108930 9.932682 0.000000
51 31 10.452201 -4.027233 0.000000
52 30 9.535104 -9.684511 0.000000
53 34 -1.990606 -7.078483 0.000000
54 30 -4.313170 -4.677611 0.000000
55 29 10.704830 13.468532 0.000000
56 29 10.080893 7.215513 0.000000
57 31 -2.753366 -9.224876 0.000000
58 32 -5.327237 -3.897020 0.000000
59 29 -8.498705 8.112259 0.000000
60 31 -2.457133 -9.574517 0.000000
61 34 10.837313 -9.000087 0.000000
62 29 7.676579 9.800670 0.000000
63 27 0.690244 -6.576942 0.000000
64 33 -12.490909 4.242249 0.000000
65 22 -9.801625 13.221309 0.000000
66 37 14.751143 8.177279 0.000000
67 25 -11.527302 3.089820 0.000000
68 30 -0.399108 3.417763 0.000000
69 29 10.054971 3.932259 0.000000
70 25 -14.297724 11.672732 0.000000
71 31 2.714893 -8.843726 0.000000
72 33 11.749677 -4.794203 0.000000
73 32 -11.060504 11.140537 0.000000
74 36 -6.740423 2.746435 0.000000
75 38 7.893726 -12.653563 0.000000
76 28 -5.660662 10.166455 0.000000
77 28 -8.317972 -8.058303 0.000000
78 26 -9.795122 -5.813419 0.000000
79 31 1.476691 -2.757622 0.000000
80 28 7.145041 3.343663 0.000000
81 28 2.760615 13.873992 0.000000
82 34 14.487949 13.795237 0.000000
83 26 -14.726555 8.209524 0.000000
84 28 14.517167 -11.875185 0.000000
85 24 -13.869840 8.814804 0.000000
86 33 4.545673 -8.420549 0.000000
87 33 -8.197339 -9.986329 0.000000
88 30 -13.418376 -5.869475 0.000000
89 30 -14.759335 -8.333612 0.000000
90 33 -4.998280 1.753392 0.000000
91 41 -10.104942 -13.600168 0.000000
92 30 0.725772 12.343525 0.000000
93 25 -2.558515 -6.041705 0.000000
94 25 7.206212 -3.291960 0.000000
95 35 -13.696149 -3.619670 0.000000
96 23 3.436750 13.809712 0.000000
97 27 -4.412313 -3.613224 0.000000
98 31 0.945506 -12.398382 0.000000
99 35 -7.647443 -6.500892 0.000000
100 31 -14.375619 3.507738 0.000000
101 28 -3.839095 -13.707351 0.000000
102 34 -8.599764 -7.818504 0.000000
103 38 2.350687 -7.770911 0.000000
104 26 3.533497 1.212984 0.000000
105 25 -9.443124 -13.521927 0.000000
106 36 12.090251 -6.796503 0.000000
107 32 -11.795667 1.529033 0.000000
108 29 12.888683 -11.420537 0.000000
109 26 6.407090 12.229780 0.000000
110 29 11.286669 12.609593 0.000000
111 31 1.485949 9.333514 0.000000
112 24 12.277858 12.163265 0.000000
113 33 -4.120121 4.969862 0.000000
114 21 8.768885 14.873082 0.000000
115 30 4.794345 8.569127 0.000000
116 31 13.119059 -11.889368 0.000000
117 30 -0.334117 -2.025082 0.000000
118 35 -1.255892 3.333717 0.000000
119 27 -2.991787 3.040055 0.000000
120 32 10.325455 -7.034992 0.000000
121 37 14.252101 10.470517 0.000000
122 29 1.921588 13.256384 0.000000
123 27 -5.891326 0.467873 0.000000
124 31 -12.399903 3.314368 0.000000
125 26 13.499899 -6.704182 0.000000
126 32 -7.187813 -1.126889 0.000000
127 28 5.370937 10.016791 0.000000
128 32 -13.490460 -11.945096 0.000000
129 35 -2.342756 -5.083054 0.000000
130 25 7.902664 9.368690 0.000000
131 30 1.469193 1.943992 0.000000
132 29 -5.486730 1.185018 0.000000
133 27 -10.880398 -13.662553 0.000000
134 36 4.350688 11.021495 0.000000
135 23 9.378491 -8.755978 0.000000
136 29 9.062312 6.428460 0.000000
137 29 9.950419 14.804965 0.000000
138 30 2.576695 11.942735 0.000000
139 25 14.894042 -7.659986 0.000000
140 38 -11.758626 0.147787 0.000000
141 30 -14.634643 1.717473 0.000000
142 29 -8.406721 -13.113560 0.000000
143 35 -9.329545 -3.434536 0.000000
144 29 -7.134443 10.738308 0.000000
145 24 9.402081 12.123178 0.000000
146 29 14.541002 -5.404185 0.000000
147 31 7.394810 6.275340 0.000000
148 32 -4.340932 9.414293 0.000000
149 28 -14.849899 -14.301012 0.000000
150 30 -6.466473 -4.166927 0.000000
151 29 -4.639065 11.344948 0.000000
152 35 11.754545 -2.302100 0.000000
153 25 -4.836136 -13.328723 0.000000
154 33 -11.974972 -0.740635 0.000000
155 29 5.155848 -3.136691 0.000000
156 39 -6.336570 -3.876049 0.000000
157 31 9.882552 4.667953 0.000000
158 37 -5.613363 -2.380270 0.000000
159 33 -2.297771 -6.459015 0.000000
160 36 7.508880 9.915510 0.000000
161 27 7.163547 -10.101296 0.000000
162 35 -7.785736 -7.867407 0.000000
163 26 9.001536 -3.242479 0.000000
164 35 -10.828267 7.147589 0.000000
165 29 -14.968077 -5.260888 0.000000
166 34 -6.371958 3.018961 0.000000
167 32 12.944667 -3.090660 0.000000
168 20 14.451359 7.000637 0.000000
169 32 14.342356 -2.673862 0.000000
170 39 -0.235107 14.087668 0.000000
171 32 -0.268562 5.228707 0.000000
172 25 14.858765 8.912493 0.000000
173 34 -11.224977 -11.148657 0.000000
174 27 -1.242108 -2.907693 0.000000
175 32 5.843492 10.330364 0.000000
176 29 -0.149489 8.429507 0.000000
177 33 6.420797 10.624025 0.000000
178 22 -11.017555 7.199342 0.000000
179 32 4.987271 -1.768088 0.000000
180 28 -11.452885 13.785797 0.000000
181 20 -8.829055 10.126621 0.000000
182 18 12.896756 -3.489935 0.000000
183 21 7.420470 -12.193087 0.000000
184 28 -5.628281 -10.971841 0.000000
185 31 -1.584818 9.588948 0.000000
186 29 -13.149570 4.048144 0.000000
187 24 -14.552699 10.405233 0.000000
188 29 -2.789324 13.076464 0.000000
189 26 4.311523 1.599829 0.000000
190 23 -0.557644 -9.070291 0.000000
191 33 2.565396 -7.883787 0.000000
192 28 -10.054087 0.998745 0.000000
193 23 7.036388 3.244213 0.000000
194 33 -3.281584 7.256330 0.000000
195 32 -0.787790 -4.044369 0.000000
196 28 13.794812 7.768904 0.000000
197 29 3.863553 13.029932 0.000000
198 29 -10.343867 -1.168137 0.000000
199 37 -7.537382 -12.998557 0.000000
200 32 10.044794 -6.690431 0.000000
201 29 -3.608059 -10.368571 0.000000
202 26 -4.394150 0.266731 0.000000
203 36 6.261782 -10.848513 0.000000
204 30 3.475012 -5.312081 0.000000
205 27 -6.203729 1.327046 0.000000
206 29 -2.474185 -0.399981 0.000000
207 40 -6.848352 -13.832872 0.000000
208 25 -6.208439 -6.966538 0.000000
209 36 -5.357322 5.294788 0.000000
210 29 1.266924 -12.639513 0.000000
211 34 10.838787 13.374931 0.000000
212 28 8.736403 -14.362375 0.000000
213 30 11.679358 -12.614745 0.000000
214 32 8.908245 -7.154872 0.000000
215 30 -5.906399 5.851195 0.000000
216 27 3.870231 -12.266832 0.000000
217 22 2.285422 0.864561 0.000000
218 35 12.976826 -12.517417 0.000000
219 33 -13.019447 -6.799678 0.000000
220 31 -6.635890 -12.303701 0.000000
221 25 6.213221 4.301763 0.000000
222 32 11.104834 0.894744 0.000000
223 35 -6.131501 5.409211 0.000000
224 34 -12.286671 -2.312552 0.000000
225 36 5.584717 -6.513363 0.000000
226 34 -14.263885 -8.437195 0.000000
227 31 5.265336 13.614799 0.000000
228 24 -5.670233 -13.295210 0.000000
229 41 -6.720964 -7.642477 0.000000
230 19 6.194627 14.446962 0.000000
231 35 0.847849 14.805702 0.000000
232 31 -12.843277 -9.244167 0.000000
233 32 2.597083 -1.669362 0.000000
234 31 14.150852 6.169004 0.000000
235 26 13.503373 3.576669 0.000000
236 31 4.816497 -1.900134 0.000000
237 32 -8.979613 -12.513479 0.000000
238 24 14.307846 -3.758877 0.000000
239 28 0.351073 -9.041324 0.000000
240 25 12.796596 -1.502261 0.000000
241 25 11.233929 -12.812385 0.000000
242 29 9.138081 4.157685 0.000000
243 23 -9.010077 8.110614 0.000000
244 31 -0.902631 0.975026 0.000000
245 32 7.042001 -13.864489 0.000000
246 31 -8.257652 8.551973 0.000000
247 37 1.481479 10.197025 0.000000
248 27 5.044285 -2.281436 0.000000
249 27 -4.984720 7.732755 0.000000
250 27 -9.586319 -11.394819 0.000000
251 35 -7.172506 3.990165 0.000000
252 31 -14.203806 -6.672613 0.000000
253 36 -14.642533 0.445626 0.000000
254 26 13.592728 1.465006 0.000000
255 34 -2.473792 5.382076 0.000000
256 27 -9.988786 -7.613398 0.000000
257 31 0.565383 -9.242288 0.000000
258 30 -2.601989 5.842560 0.000000
259 29 -1.283670 -5.052162 0.000000
260 27 -0.273571 -1.987042 0.000000
261 29 5.756974 3.740188 0.000000
262 28 -6.661252 11.427733 0.000000
263 31 10.554276 11.332573 0.000000
264 25 0.823077 12.018017 0.000000
265 29 -10.799750 10.230274 0.000000
266 30 -2.395901 -8.579665 0.000000
267 24 7.377182 11.383537 0.000000
268 28 14.322814 0.665267 0.000000
269 33 7.089527 11.265023 0.000000
270 27 4.926372 7.818828 0.000000
271 26 8.907162 -10.347397 0.000000
272 32 10.072956 3.799261 0.000000
273 31 4.844788 -11.190984 0.000000
274 25 -12.381305 -7.985466 0.000000
275 33 -8.334171 5.588539 0.000000
276 21 9.349257 7.075770 0.000000
277 25 10.139725 -14.479725 0.000000
278 29 -4.102276 -13.916290 0.000000
279 36 -7.499370 -1.712494 0.000000
280 32 -11.604673 -14.110423 0.000000
281 21 2.974856 -7.966586 0.000000
282 30 12.955395 12.131985 0.000000
283 34 -10.304654 5.888556 0.000000
284 31 8.296264 9.485045 0.000000
285 30 -4.198111 4.267743 0.000000
286 37 7.271701 -13.758386 0.000000
287 27 13.150205 -4.018186 0.000000
288 31 1.637745 9.230254 0.000000
289 35 1.347950 -8.339718 0.000000
290 40 10.317794 -0.401631 0.000000
291 24 -13.709588 -6.469352 0.000000
292 24 -4.548457 10.386462 0.000000
293 32 -3.908559 10.902529 0.000000
294 36 2.423653 -0.971225 0.000000
295 33 -11.569084 -13.830288 0.000000
296 35 -10.925018 6.564153 0.000000
297 28 -9.876615 6.215974 0.000000
298 30 6.601377 8.612848 0.000000
299 34 -10.801602 -3.009887 0.000000
300 31 -5.798417 -4.552381 0.000000
301 33 6.179434 11.269732 0.000000
302 29 -13.826333 0.009162 0.000000
303 35 -5.342768 -3.900349 0.000000
304 31 3.103730 -8.832512 0.000000
305 30 -5.793876 13.346343 0.000000
306 28 -7.245642 -11.079454 0.000000
307 28 1.466304 7.719785 0.000000
308 28 -8.375139 6.966921 0.000000
309 26 13.459312 -2.331685 0.000000
310 32 -0.375253 13.932104 0.000000
311 33 -11.166834 -1.090376 0.000000
312 33 -9.471199 9.263148 0.000000
313 28 9.129000 13.099887 0.000000
314 38 -14.348126 -12.283012 0.000000
315 31 1.667290 3.060879 0.000000
316 28 -5.838183 -12.295573 0.000000
317 33 -2.991561 -14.056931 0.000000
318 33 -13.354023 10.080882 0.000000
319 27 13.267112 10.429585 0.000000
320 35 1.158940 -9.436966 0.000000
321 32 -3.211187 -11.701119 0.000000
322 30 -11.605668 -7.910352 0.000000
323 31 -4.936953 10.586789 0.000000
324 28 -5.370042 -14.117407 0.000000
325 26 -9.431187 7.534038 0.000000
326 32 10.933969 -7.769931 0.000000
327 33 2.016616 -13.220918 0.000000
328 28 -14.746527 7.761571 0.000000
329 38 -10.854035 8.368812 0.000000
330 37 -4.300910 5.795954 0.000000
331 31 -1.282378 6.961783 0.000000
332 25 -0.085128 12.635372 0.000000
333 25 9.498889 9.278735 0.000000
334 24 -5.818866 -12.281372 0.000000
335 33 12.835588 12.425170 0.000000
336 36 -11.296137 -1.085119 0.000000
337 28 -8.139420 0.826311 0.000000
338 24 -1.829960 -14.729580 0.000000
339 27 12.651950 12.981356 0.000000
340 29 9.097896 -9.054830 0.000000
341 42 -6.040440 -3.961675 0.000000
342 41 -12.214281 11.748692 0.000000
343 27 -14.906594 -4.531759 0.000000
344 35 -4.595299 1.783082 0.000000
345 31 1.589946 3.712590 0.000000
346 25 0.670852 3.857261 0.000000
347 29 5.315620 6.791965 0.000000
348 28 14.890806 4.662970 0.000000
349 34 -8.659211 5.331928 0.000000
350 29 11.501713 -8.392457 0.000000
351 34 -1.979672 -11.325902 0.000000
352 30 -6.482595 11.221941 0.000000
353 37 -0.366267 5.491987 0.000000
354 33 5.966015 14.952020 0.000000
355 33 0.055020 0.049035 0.000000
356 26 1.514564 9.293339 0.000000
357 29 9.673828 -9.585265 0.000000
358 32 -2.066250 -14.400525 0.000000
359 28 6.476048 -8.715819 0.000000
360 23 -5.725547 12.839808 0.000000
361 35 -6.183376 5.454194 0.000000
362 34 -12.513148 -11.179342 0.000000
363 36 -4.705473 7.679619 0.000000
364 30 -5.035606 -7.849732 0.000000
365 35 2.539985 9.236606 0.000000
366 39 -12.417446 -7.344463 0.000000
367 28 -3.415343 5.148081 0.000000
368 32 7.864952 -7.215660 0.000000
369 29 0.257120 -6.274965 0.000000
370 22 -6.054559 -6.720377 0.000000
371 33 2.797404 1.035064 0.000000
372 26 0.935434 -3.662448 0.000000
373 35 -13.546896 4.474816 0.000000
374 34 -5.408494 -2.177307 0.000000
375 30 8.869663 -3.797635 0.000000
376 34 5.026202 2.251076 0.000000
377 24 12.948661 14.614310 0.000000
378 32 1.298141 -11.866366 0.000000
379 36 -3.712682 -13.039065 0.000000
380 26 -0.414531 -7.176621 0.000000
381 34 -1.651659 4.031626 0.000000
382 29 0.904886 -4.600703 0.000000
383 27 12.587389 2.455128 0.000000
384 31 2.616671 -7.188118 0.000000
385 33 9.471511 -6.369966 0.000000
386 32 3.493699 -8.870559 0.000000
387 33 12.200012 -10.640964 0.000000
388 26 3.505793 -6.605472 0.000000
389 40 0.956510 9.543518 0.000000
390 24 -12.607798 -9.450923 0.000000
391 24 -1.655616 1.057127 0.000000
392 27 -12.013271 11.320326 0.000000
393 32 14.646312 5.845722 0.000000
394 27 -9.119555 -6.369965 0.000000
395 28 11.111791 -12.413071 0.000000
396 24 12.542820 8.254330 0.000000
397 28 5.615445 -7.536331 0.000000
398 27 -12.791033 -12.401397 0.000000
399 29 13.366813 13.836930 0.000000
400 35 -9.912266 -9.606053 0.000000
401 27 6.234885 -11.703377 0.000000
402 34 4.089744 7.073084 0.000000
403 35 8.966775 5.324584 0.000000
404 25 -10.063256 -2.157583 0.000000
405 28 -3.961658 13.847122 0.000000
406 29 -13.556892 -12.593674 0.000000
407 29 9.561619 -11.162739 0.000000
408 37 10.637571 -5.782438 0.000000
409 30 8.605414 -6.549677 0.000000
410 25 -0.922287 -0.881494 0.000000
411 28 2.025351 9.064178 0.000000
412 23 8.140720 -9.081191 0.000000
413 31 -12.663962 12.141426 0.000000
414 30 14.763772 14.488376 0.000000
415 33 6.033093 -6.841362 0.000000
416 31 0.075399 -6.383313 0.000000
417 33 4.244842 -2.032423 0.000000
418 30 13.188981 8.513557 0.000000
419 26 11.157837 -14.493163 0.000000
420 29 13.194530 2.429444 0.000000
421 32 -14.338035 9.308753 0.000000
422 31 8.861163 -2.562139 0.000000
423 24 13.536218 14.918420 0.000000
424 36 2.251933 14.443895 0.000000
425 33 5.461281 -12.633995 0.000000
426 35 -5.418281 -8.925420 0.000000
427 29 11.917267 0.330602 0.000000
428 37 3.117297 -8.831590 0.000000
429 31 -13.763995 -10.603957 0.000000
430 32 7.751545 6.869549 0.000000
431 32 -4.192743 -6.255678 0.000000
432 27 -5.082591 -7.442910 0.000000
433 30 9.120529 -14.715789 0.000000
434 39 -1.273557 -9.905838 0.000000
435 30 -13.361730 -10.533538 0.000000
436 36 -3.976861 12.489946 0.000000
437 25 -2.031213 4.491252 0.000000
438 33 -14.922608 -5.526866 0.000000
439 31 13.181430 13.088542 0.000000
440 26 6.735465 -2.551045 0.000000
441 35 -7.366517 -12.741842 0.000000
442 34 0.113156 -13.030840 0.000000
443 35 -6.291425 -9.563100 0.000000
444 27 -5.616807 10.553874 0.000000
445 32 -1.255090 -12.797321 0.000000
446 33 -8.133984 -11.121955 0.000000
447 27 1.236113 14.981390 0.000000
448 28 -11.442315 -2.992483 0.000000
449 31 -11.785349 3.197635 0.000000
450 23 -0.723899 6.011041 0.000000
451 31 9.133578 7.447927 0.000000
452 35 0.324331 5.731794 0.000000
453 32 -5.235548 8.973237 0.000000
454 34 1.898828 7.153776 0.000000
455 28 3.105366 8.903832 0.000000
456 31 1.080163 -1.002954 0.000000
457 30 -7.399208 -7.365577 0.000000
458 36 -7.886419 0.289865 0.000000
459 42 -9.152248 -1.216289 0.000000
460 28 2.110223 -3.336854 0.000000
461 28 -7.972102 10.032518 0.000000
462 23 -9.517906 4.867322 0.000000
463 25 3.609626 13.069329 0.000000
464 26 -4.919840 8.725236 0.000000
465 24 -14.773372 -10.176019 0.000000
466 33 14.943454 1.917000 0.000000
467 34 7.833613 -9.018478 0.000000
468 33 11.814210 13.652510 0.000000
469 37 1.806729 2.480114 0.000000
470 29 10.794462 -4.338378 0.000000
471 34 -11.071094 -4.513039 0.000000
472 31 -12.235928 14.504877 0.000000
473 34 11.524668 -14.683675 0.000000
474 30 12.114946 -14.567379 0.000000
475 33 -10.155416 -11.582398 0.000000
476 33 7.356946 7.271810 0.000000
477 31 -2.660254 -13.311585 0.000000
478 35 -7.151458 -13.185376 0.000000
479 32 1.700387 -9.993308 0.000000
480 35 -11.766941 -2.038656 0.000000
481 35 -4.372527 9.566663 0.000000
482 29 -6.131066 -11.057336 0.000000
483 25 8.334830 -3.862912 0.000000
484 30 -12.760939 -14.394056 0.000000
485 26 -12.953613 3.323583 0.000000
486 35 2.127320 2.222043 0.000000
487 30 1.173222 -13.494745 0.000000
488 32 -3.752447 11.727356 0.000000
489 32 13.908267 -14.807985 0.000000
490 29 -12.492170 -8.564849 0.000000
491 33 -4.045670 3.340143 0.000000
492 25 6.912575 -3.472097 0.000000
493 35 -14.863445 -4.399237 0.000000
494 40 -13.542806 -11.103500 0.000000
495 25 -1.078973 -12.265934 0.000000
496 34 8.251269 10.234507 0.000000
497 26 11.887007 -9.213844 0.000000
498 26 -9.114739 1.292205 0.000000
499 28 14.470038 5.835254 0.000000
500 37 -5.044062 3.658187 0.000000
501 17 -9.286543 1.163349 0.000000
502 26 -11.128375 -11.839559 0.000000
503 28 -7.445474 -10.433457 0.000000
504 33 13.786223 -2.823375 0.000000
505 32 0.354537 1.015486 0.000000
506 27 7.325095 8.701208 0.000000
507 29 -13.884709 -13.937783 0.000000
508 31 0.056266 -7.035257 0.000000
509 30 11.516336 7.695583 0.000000
510 22 -10.009912 3.025290 0.000000
511 29 -7.327262 -14.284054 0.000000
512 22 -11.026757 -1.249934 0.000000
513 32 12.443963 -13.418390 0.000000
514 28 11.294200 4.103421 0.000000
515 28 -11.202356 1.609302 0.000000
516 21 -9.067305 -13.309351 0.000000
517 28 0.736069 -6.330473 0.000000
518 30 -6.085127 13.320984 0.000000
519 28 -6.579867 -9.262373 0.000000
520 27 3.995403 -2.146388 0.000000
521 36 -7.195927 8.292764 0.000000
522 30 6.252872 -12.024444 0.000000
523 28 -14.503857 13.750114 0.000000
524 37 -5.226660 6.803650 0.000000
525 34 10.698760 -14.713753 0.000000
526 25 -13.289311 11.472647 0.000000
527 23 -4.138250 -9.899179 0.000000
528 33 1.518152 6.876477 0.000000
529 34 9.209773 10.072990 0.000000
530 33 -14.004792 -8.581730 0.000000
531 23 -0.133657 3.611077 0.000000
532 38 6.474342 -6.166571 0.000000
533 29 -3.458753 11.480000 0.000000
534 34 -1.953341 3.218515 0.000000
535 34 10.882383 -0.778620 0.000000
536 29 2.521810 14.390614 0.000000
537 28 -13.422230 -6.898927 0.000000
538 31 -10.719910 -10.688106 0.000000
539 28 7.182892 5.025030 0.000000
540 34 12.099204 -5.091686 0.000000
541 31 -12.369888 -1.763583 0.000000
542 41 9.149021 4.029193 0.000000
543 28 -11.475203 2.202764 0.000000
544 28 3.798596 -8.047740 0.000000
545 32 6.005253 -0.135727 0.000000
546 30 9.176059 -8.662024 0.000000
547 29 -2.150859 0.050520 0.000000
548 30 -3.919667 -14.432213 0.000000
549 38 -8.104576 -14.838531 0.000000
550 29 4.576679 7.496373 0.000000
551 25 -9.473626 2.672181 0.000000
552 32 -14.526639 -6.436332 0.000000
553 34 -13.861615 -11.151019 0.000000
554 32 -6.929836 -10.715621 0.000000
555 35 3.299002 5.122790 0.000000
556 34 -13.031908 5.938010 0.000000
557 24 -14.447500 2.257048 0.000000
558 35 -7.470734 4.939615 0.000000
559 26 -0.709400 -12.761555 0.000000
560 30 -8.399233 2.824800 0.000000
561 32 -0.327791 -12.717789 0.000000
562 28 9.595403 -7.966678 0.000000
563 28 -7.682574 9.924883 0.000000
564 25 -9.921407 -13.591771 0.000000
565 24 -11.893172 -12.420633 0.000000
566 25 -10.028267 -9.713545 0.000000
567 22 -14.257214 0.416275 0.000000
568 34 10.717941 5.215287 0.000000
569 27 1.307137 -2.736996 0.000000
570 24 8.814232 3.744883 0.000000
571 24 -1.994823 -6.656648 0.000000
572 31 14.849027 8.065306 0.000000
573 27 0.803269 4.175137 0.000000
574 26 8.144678 -7.523374 0.000000
575 26 -12.151163 9.015178 0.000000
576 27 6.809824 1.472416 0.000000
577 37 -9.010594 -9.138471 0.000000
578 38 -7.867076 1.396326 0.000000
579 26 -12.460387 -13.851588 0.000000
580 21 3.979718 8.996558 0.000000
581 27 -12.315987 -4.323501 0.000000
582 40 0.555860 12.715088 0.000000
583 30 -14.135609 -4.989200 0.000000
584 32 9.977566 -4.773749 0.000000
585 29 -12.906569 -1.204494 0.000000
586 27 8.254894 2.423215 0.000000
587 36 -4.661867 -14.231995 0.000000
588 37 -14.707691 1.692908 0.000000
589 23 5.882603 3.828505 0.000000
590 29 -2.568121 7.074135 0.000000
591 26 -11.687186 7.580848 0.000000
592 31 11.639739 -8.407283 0.000000
593 33 -5.711705 -1.901179 0.000000
594 30 -8.357283 9.648654 0.000000
595 26 -3.385099 -2.605440 0.000000
596 32 10.916754 3.527455 0.000000
597 30 7.813736 -0.219690 0.000000
598 32 10.964939 3.545970 0.000000
599 29 4.924981 13.303923 0.000000
600 34 -1.749949 9.932409 0.000000
601 32 -11.087204 9.911245 0.000000
602 30 -4.613585 -12.964323 0.000000
603 30 -11.465472 7.098163 0.000000
604 32 1.335417 10.595155 0.000000
605 33 -3.594219 -8.965566 0.000000
606 35 -14.392886 -11.878596 0.000000
607 27 7.115689 -1.953693 0.000000
608 27 12.117881 5.708161 0.000000
609 24 -7.942820 10.910097 0.000000
610 26 1.066420 -0.967336 0.000000
611 28 3.522106 6.927733 0.000000
612 33 5.332498 -3.069528 0.000000
613 28 -6.069784 6.358220 0.000000
614 21 2.199951 14.810677 0.000000
615 24 -1.398715 -7.981179 0.000000
616 26 -13.313534 -5.082400 0.000000
617 27 10.208543 0.281185 0.000000
618 26 -7.255068 0.852369 0.000000
619 30 -7.540956 -6.115955 0.000000
620 34 -8.971374 1.079167 0.000000
621 34 -5.857400 -7.593110 0.000000
622 31 -6.339399 -12.265351 0.000000
623 31 1.769267 -14.217412 0.000000
624 32 4.095383 14.404031 0.000000
625 29 -4.959168 -4.644288 0.000000
626 21 13.622441 -11.575665 0.000000
627 25 -5.736656 -7.497364 0.000000
628 41 -7.415815 -2.350807 0.000000
629 20 -5.718970 2.296701 0.000000
630 29 -10.676662 -4.305038 0.000000
631 34 8.745075 -5.989149 0.000000
632 28 14.442815 0.556914 0.000000
633 30 7.469380 8.468093 0.000000
634 34 4.664259 10.046007 0.000000
635 31 2.472682 13.333161 0.000000
636 21 -12.827247 -5.439570 0.000000
637 28 -4.228846 -10.285067 0.000000
638 25 9.220685 13.819642 0.000000
639 29 -2.999732 2.237469 0.000000
640 30 -1.656626 4.915512 0.000000
641 30 -13.416414 -8.847441 0.000000
642 41 2.017199 12.956852 0.000000
643 24 0.317653 9.450326 0.000000
644 29 -9.397822 -14.401691 0.000000
645 28 10.903908 -11.655925 0.000000
646 29 -1.943807 -2.453816 0.000000
647 31 -6.446307 2.284981 0.000000
648 33 10.445176 9.959087 0.000000
649 36 -8.798784 -13.365242 0.000000
650 29 9.852279 6.619557 0.000000
651 27 5.871587 7.360267 0.000000
652 16 2.861044 -8.522365 0.000000
653 30 -1.741290 11.556469 0.000000
654 30 8.456463 14.451245 0.000000
655 36 -2.007249 2.755245 0.000000
656 28 1.768983 -14.060191 0.000000
657 38 -8.662900 -14.889581 0.000000
658 34 7.061740 8.727232 0.000000
659 33 -7.537899 2.045493 0.000000
660 34 2.040274 14.401806 0.000000
661 26 -8.768009 -0.319785 0.000000
662 34 -4.522407 3.561619 0.000000
663 37 7.503883 -12.530247 0.000000
664 33 -2.232992 -0.271276 0.000000
665 31 -12.474669 12.973196 0.000000
666 30 7.936070 -7.235350 0.000000
667 28 3.173942 -5.286376 0.000000
668 30 -1.009812 2.298104 0.000000
669 29 6.746210 -2.383683 0.000000
670 33 2.196739 -6.526871 0.000000
671 25 9.923650 -7.546472 0.000000
672 30 -7.880148 3.176875 0.000000
673 35 2.158585 0.742432 0.000000
674 34 -4.625615 -5.623992 0.000000
675 28 -9.160054 11.756721 0.000000
676 29 3.374566 -0.374268 0.000000
677 30 -0.354767 -13.900887 0.000000
678 30 5.605112 1.037270 0.000000
679 30 -1.117991 -8.970195 0.000000
680 30 -5.298525 2.348113 0.000000
681 27 -0.913734 7.960994 0.000000
682 30 -1.622119 7.517390 0.000000
683 29 11.518221 -7.993300 0.000000
684 38 6.580999 -7.315762 0.000000
685 28 6.706529 14.178131 0.000000
686 26 -12.347567 -11.146458 0.000000
687 28 -14.572927 -7.464369 0.000000
688 35 -6.757005 2.594317 0.000000
689 28 -4.529011 6.457650 0.000000
690 24 1.902728 -3.053887 0.000000
691 35 -1.424250 0.162868 0.000000
692 28 1.997395 7.906290 0.000000
693 23 12.434320 -12.309670 0.000000
694 29 -13.819686 13.853387 0.000000
695 33 13.946452 14.915054 0.000000
696 33 10.977824 11.697378 0.000000
697 29 -4.484590 2.629011 0.000000
698 21 5.498669 10.735411 0.000000
699 29 8.289678 -6.533152 0.000000
700 36 -5.954196 5.545583 0.000000
701 28 -8.525415 -4.150707 0.000000
702 33 -3.349185 -10.088566 0.000000
703 35 1.973318 -11.015615 0.000000
704 25 11.226242 1.633593 0.000000
705 28 -0.265643 1.468571 0.000000
706 33 8.487491 -6.795741 0.000000
707 28 8.346410 -13.195608 0.000000
708 29 5.560305 -8.290694 0.000000
709 26 7.343536 -3.675628 0.000000
710 34 -5.017517 -1.847789 0.000000
711 35 11.639844 -6.812883 0.000000
712 34 2.157082 -11.786733 0.000000
713 23 -7.564021 -8.414731 0.000000
714 26 -12.612244 -14.060213 0.000000
715 35 6.310976 -3.119357 0.000000
716 37 -11.602920 -1.687415 0.000000
717 38 -2.257770 10.367645 0.000000
718 26 9.690860 6.696924 0.000000
719 30 9.694293 6.973052 0.000000
720 33 4.261071 14.384601 0.000000
721 43 -2.690024 8.512897 0.000000
722 37 -10.624368 -11.404905 0.000000
723 33 -6.439531 0.155786 0.000000
724 31 0.089354 3.649205 0.000000
725 29 -1.088813 10.619069 0.000000
726 27 -7.077421 14.621465 0.000000
727 33 5.733609 -7.504759 0.000000
728 28 -5.742271 3.952015 0.000000
729 31 -12.060501 -3.604381 0.000000
730 31 -12.765393 -13.311166 0.000000
731 35 -12.534451 0.565359 0.000000
732 28 -7.131175 9.078719 0.000000
733 29 -2.262069 8.146845 0.000000
734 32 2.585244 -14.347284 0.000000
735 31 3.880460 -6.569762 0.000000
736 29 14.992400 4.549848 0.000000
737 27 14.677321 13.441069 0.000000
738 40 6.777286 11.581840 0.000000
739 23 9.682820 -7.321825 0.000000
740 31 0.009133 2.893402 0.000000
741 35 -13.796909 11.187614 0.000000
742 35 -8.088142 -2.064024 0.000000
743 27 -10.409796 -2.072742 0.000000
744 31 -2.191814 4.678510 0.000000
745 30 3.775400 3.710291 0.000000
746 30 8.469933 -14.785143 0.000000
747 32 -14.704823 -0.861699 0.000000
748 35 -4.761985 -5.549917 0.000000
749 31 2.299453 0.453932 0.000000
750 28 -12.823419 -0.892374 0.000000
751 41 -4.823513 -3.407237 0.000000
752 29 -11.834608 3.060848 0.000000
753 33 3.620019 4.611599 0.000000
754 32 14.611005 8.812454 0.000000
755 25 -7.269003 4.523016 0.000000
756 39 -3.602625 -2.989383 0.000000
757 36 5.852620 0.036860 0.000000
758 38 8.804599 6.300257 0.000000
759 37 3.398172 13.188851 0.000000
760 31 -4.153303 -11.104423 0.000000
761 31 8.309422 2.957249 0.000000
762 28 0.061045 -10.986398 0.000000
763 29 -1.986388 -13.786435 0.000000
764 33 -8.232384 3.331173 0.000000
765 32 -10.607128 -2.648102 0.000000
766 34 9.334196 13.715062 0.000000
767 30 -13.617950 12.693485 0.000000
768 31 -7.182774 12.328344 0.000000
769 31 10.826880 -14.506755 0.000000
770 33 -9.739480 -13.642707 0.000000
771 33 -8.152351 -7.637006 0.000000
772 34 0.630956 3.911080 0.000000
773 34 -9.489999 -6.390826 0.000000
774 29 5.020049 -1.090774 0.000000
775 29 14.518814 -3.302239 0.000000
776 31 -1.871231 9.437541 0.000000
777 31 -13.638762 8.502094 0.000000
778 24 -1.693815 -14.000427 0.000000
779 27 -11.880515 -2.165249 0.000000
780 29 -11.650191 -13.783428 0.000000
781 35 -11.034188 9.569413 0.000000
782 29 -14.335479 1.756982 0.000000
783 31 2.667861 11.262455 0.000000
784 28 -5.343380 14.311848 0.000000
785 20 -5.412942 14.152537 0.000000
786 24 4.616097 11.207869 0.000000
787 32 13.821728 9.972387 0.000000
788 32 13.378204 -11.799138 0.000000
789 28 2.813861 -0.506857 0.000000
790 33 -11.784252 -5.986442 0.000000
791 34 7.309920 -0.736959 0.000000
792 23 2.615744 -11.123207 0.000000
793 32 8.433161 5.150055 0.000000
794 38 4.474424 7.962098 0.000000
795 33 12.047458 -1.220069 0.000000
796 30 2.634310 2.797333 0.000000
797 25 14.283468 10.373119 0.000000
798 33 -13.984319 -8.348427 0.000000
799 23 -0.100309 14.547946 0.000000
800 29 -8.196880 13.292496 0.000000
801 26 8.871158 4.319363 0.000000
802 28 -6.655135 7.000893 0.000000
803 27 -14.824241 13.079912 0.000000
804 29 10.429585 14.978422 0.000000
805 35 -9.421980 -5.770745 0.000000
806 31 -6.084497 14.548548 0.000000
807 31 -9.671772 -13.571642 0.000000
808 29 -5.662427 -1.388343 0.000000
809 33 12.819850 -1.315087 0.000000
810 29 6.110986 3.060988 0.000000
811 36 -6.219922 4.588890 0.000000
812 28 4.318577 -9.674302 0.000000
813 34 14.875065 -4.899826 0.000000
814 35 -13.496572 7.875776 0.000000
815 20 -0.130811 5.357982 0.000000
816 33 -13.930037 -1.859508 0.000000
817 33 14.609559 8.678742 0.000000
818 34 -1.158645 9.599467 0.000000
819 27 10.636898 -8.502209 0.000000
820 31 0.295194 -14.341476 0.000000
821 34 -1.636668 -12.364047 0.000000
822 40 -2.912795 -4.077878 0.000000
823 32 -0.144091 -7.719140 0.000000
824 28 5.549501 -5.070037 0.000000
825 33 0.725593 -0.808020 0.000000
826 35 8.587471 -8.699479 0.000000
827 26 -11.550167 11.340270 0.000000
828 29 -14.794399 5.938251 0.000000
829 28 0.537548 -11.249795 0.000000
830 25 -13.279536 7.258863 0.000000
831 36 -6.832998 8.732641 0.000000
832 38 10.581378 -12.674614 0.000000
833 27 4.058060 1.760217 0.000000
834 38 -12.292945 6.173429 0.000000
835 27 -3.917066 8.098512 0.000000
836 31 -3.612357 -14.970274 0.000000
837 29 13.257440 -4.348035 0.000000
838 40 -2.938656 -11.078448 0.000000
839 31 -7.194599 -4.483057 0.000000
840 37 -8.705670 10.588119 0.000000
841 35 14.639589 -9.774894 0.000000
842 37 1.666549 7.121436 0.000000
843 31 3.929333 5.595615 0.000000
844 30 5.237652 -14.718421 0.000000
845 31 1.033797 -8.232400 0.000000
846 30 -6.079260 13.625399 0.000000
847 37 11.694416 -3.074078 0.000000
848 35 -6.055664 7.144708 0.000000
849 31 8.225169 5.188985 0.000000
850 31 11.904531 1.290965 0.000000
851 31 -11.876002 -1.097412 0.000000
852 25 8.346054 5.186088 0.000000
853 27 11.129015 5.947071 0.000000
854 32 -8.611021 3.561484 0.000000
855 32 8.736151 7.051123 0.000000
856 30 3.183854 -14.179898 0.000000
857 33 -13.476808 0.253384 0.000000
858 34 -6.655549 11.857229 0.000000
859 27 -6.704699 7.502781 0.000000
860 33 0.779224 -5.122357 0.000000
861 34 -10.344075 1.112593 0.000000
862 32 6.897912 -0.776731 0.000000
863 29 -2.422882 -1.565305 0.000000
864 29 12.858619 -8.012256 0.000000
865 35 2.449222 -8.806449 0.000000
866 28 -11.958167 -11.666721 0.000000
867 38 -1.212008 -13.883067 0.000000
868 32 -6.580388 -6.631118 0.000000
869 27 -9.169873 1.364293 0.000000
870 26 -12.706638 0.229781 0.000000
871 29 11.726787 -4.945379 0.000000
872 31 -5.868293 -3.077220 0.000000
873 33 -4.283502 -12.583697 0.000000
874 26 11.300475 -8.901567 0.000000
875 31 -14.566570 -9.907554 0.000000
876 31 -4.930929 9.291112 0.000000
877 29 7.004260 -1.807740 0.000000
878 28 1.319980 6.853783 0.000000
879 35 -14.182918 -10.446023 0.000000
880 31 11.557970 -1.881787 0.000000
881 28 3.318672 -6.939576 0.000000
882 26 4.913719 1.019925 0.000000
883 26 11.011601 -13.846935 0.000000
884 30 10.397111 7.751909 0.000000
885 31 -3.786722 13.244427 0.000000
886 28 -12.860479 9.456970 0.000000
887 32 5.271614 12.175006 0.000000
888 31 2.482262 -11.992805 0.000000
889 33 -11.742624 -0.680918 0.000000
890 29 4.503629 -10.071326 0.000000
891 29 -8.858610 -14.585882 0.000000
892 34 8.841792 13.920904 0.000000
893 39 -6.954449 -9.910786 0.000000
894 27 11.516960 5.889120 0.000000
895 34 0.325750 1.311267 0.000000
896 35 -1.684972 1.749776 0.000000
897 35 7.526859 -11.881599 0.000000
898 30 -10.195966 -9.194662 0.000000
899 30 9.413137 11.849723 0.000000
900 35 10.843018 -12.617310 0.000000
901 31 -10.735648 -5.949513 0.000000
902 33 12.463291 14.445184 0.000000
903 23 14.925026 4.765505 0.000000
904 28 -10.192120 -7.690173 0.000000
905 28 -7.489344 11.498967 0.000000
906 34 -3.594805 8.600464 0.000000
907 26 -2.463725 3.605752 0.000000
908 29 -9.190732 14.582306 0.000000
909 31 9.115290 -2.999918 0.000000
910 37 3.023785 -14.959123 0.000000
911 26 -9.296690 2.602811 0.000000
912 35 -13.003369 -10.851995 0.000000
913 35 -7.663352 14.293296 0.000000
914 27 7.866452 -2.693329 0.000000
915 32 1.447238 -13.073472 0.000000
916 27 -12.867952 11.322424 0.000000
917 25 7.096183 0.751882 0.000000
918 29 6.456154 -0.451823 0.000000
919 40 1.053762 -7.119256 0.000000
920 36 -5.364463 9.352043 0.000000
921 28 -6.098804 -14.082323 0.000000
922 25 -2.168325 4.584499 0.000000
923 24 12.382549 -13.404886 0.000000
924 29 7.483107 8.915718 0.000000
925 24 5.521817 -10.978955 0.000000
926 29 -14.776193 14.544458 0.000000
927 33 6.742659 -5.865074 0.000000
928 30 6.618515 -14.284616 0.000000
929 30 -4.310951 -3.884823 0.000000
930 28 7.037367 0.162033 0.000000
931 31 -7.704157 9.183304 0.000000
932 26 -14.329378 -10.237327 0.000000
933 33 -2.733340 -12.392133 0.000000
934 23 -13.305801 2.286431 0.000000
935 24 -11.504588 2.349754 0.000000
936 35 12.134908 10.407541 0.000000
937 33 9.868076 0.221886 0.000000
938 28 -10.201993 0.556167 0.000000
939 36 -1.550356 -1.454988 0.000000
940 27 -14.896371 -1.522925 0.000000
941 33 -7.026742 1.970725 0.000000
942 21 -14.877911 -6.212752 0.000000
943 30 -12.193996 2.466036 0.000000
944 31 -8.485554 5.269732 0.000000
945 40 -14.208479 4.964250 0.000000
946 30 4.860586 14.688892 0.000000
947 25 -7.241039 -10.338050 0.000000
948 24 -7.195184 -7.038449 0.000000
949 32 2.090940 3.578739 0.000000
950 36 -12.778064 6.010696 0.000000
951 30 9.782424 14.375695 0.000000
952 28 13.645404 9.423143 0.000000
953 32 -8.239841 13.973086 0.000000
954 28 -11.661159 9.031620 0.000000
955 32 -3.640738 10.728069 0.000000
956 36 -8.908351 1.850983 0.000000
957 28 9.135159 -11.855611 0.000000
958 25 6.059037 13.762204 0.000000
959 39 -2.664599 -4.257679 0.000000
960 30 11.098911 -6.615065 0.000000
961 36 6.136567 2.521992 0.000000
962 31 -5.686331 11.029985 0.000000
963 28 -10.669225 8.783932 0.000000
964 29 -9.292591 0.499591 0.000000
965 28 -3.168533 -9.989189 0.000000
966 29 -7.215217 11.765191 0.000000
967 24 -5.055374 1.805155 0.000000
968 26 -12.855853 -6.018270 0.000000
969 31 -10.983223 -9.278485 0.000000
970 34 9.870100 -13.047688 0.000000
971 29 4.713564 14.613144 0.000000
972 26 -5.030224 6.738645 0.000000
973 31 9.209277 0.285456 0.000000
974 32 12.817403 9.060455 0.000000
975 29 5.971383 11.711838 0.000000
976 33 11.387325 -5.264605 0.000000
977 28 5.683641 3.562523 0.000000
978 34 14.122241 -12.048085 0.000000
979 27 -6.768402 10.986014 0.000000
980 29 -5.057837 -1.775091 0.000000
981 35 -9.254200 12.738058 0.000000
982 30 13.083214 7.458902 0.000000
983 31 6.623184 3.139555 0.000000
984 26 -13.693781 -2.341471 0.000000
985 33 -0.832566 -11.267019 0.000000
986 29 5.990350 -12.150674 0.000000
987 30 8.958751 9.084241 0.000000
988 30 0.098235 -7.739219 0.000000
989 32 4.877456 -3.063217 0.000000
990 28 2.434893 3.392254 0.000000
991 23 -10.787378 -7.775432 0.000000
992 31 -14.801205 8.669806 0.000000
993 33 11.207625 -9.755423 0.000000
994 28 7.859584 -5.907797 0.000000
995 37 14.380632 -13.207297 0.000000
996 36 -13.213527 -2.317252 0.000000
997 27 -13.991475 -4.134490 0.000000
998 22 10.664006 0.493678 0.000000
999 30 14.904735 -12.316919 0.000000
1000 33 11.972242 -12.587309 0.000000

Velocities

1 0.0 0.0 0.0
2 0.0 0.0 0.0
3 0.0 0.0 0.0
4 0.0 0.0 0.0
5 0.0 0.0 0.0
6 0.0 0.0 0.0
7 0.0 0.0 0.0
8 0.0 0.0 0.0
9 0.0 0.0 0.0
10 0.0 0.0 0.0
11 0.0 0.0 0.0
12 0.0 0.0 0.0
13 0.0 0.0 0.0
14 0.0 0.0 0.0
15 0.0 0.0 0.0
16 0.0 0.0 0.0
17 0.0 0.0 0.0
18 0.0 0.0 0.0
19 0.0 0.0 0.0
20 0.0 0.0 0.0
21 0.0 0.0 0.0
22 0.0 0.0 0.0
23 0.0 0.0 0.0
24 0.0 0.0 0.0
25 0.0 0.0 0.0
26 0.0 0.0 0.0
27 0.0 0.0 0.0
28 0.0 0.0 0.0
29 0.0 0.0 0.0
30 0.0 0.0 0.0
31 0.0 0.0 0.0
32 0.0 0.0 0.0
33 0.0 0.0 0.0
34 0.0 0.0 0.0
35 0.0 0.0 0.0
36 0.0 0.0 0.0
37 0.0 0.0 0.0
38 0.0 0.0 0.0
39 0.0 0.0 0.0
40 0.0 0.0 0.0
41 0.0 0.0 0.0
42 0.0 0.0 0.0
43 0.0 0.0 0.0
44 0.0 0.0 0.0
45 0.0 0.0 0.0
46 0.0 0.0 0.0
47 0.0 0.0 0.0
48 0.0 0.0 0.0
49 0.0 0.0 0.0
50 0.0 0.0 0.0
51 0.0 0.0 0.0
52 0.0 0.0 0.0
53 0.0 0.0 0.0
54 0.0 0.0 0.0
55 0.0 0.0 0.0
56 0.0 0.0 0.0
57 0.0 0.0 0.0
58 0.0 0.0 0.0
59 0.0 0.0 0.0
60 0.0 0.0 0.0
61 0.0 0.0 0.0
62 0.0 0.0 0.0
63 0.0 0.0 0.0
64 0.0 0.0 0.0
65 0.0 0.0 0.0
66 0.0 0.0 0.0
67 0.0 0.0 0.0
68 0.0 0.0 0.0
69 0.0 0.0 0.0
70 0.0 0.0 0.0
71 0.0 0.0 0.0
72 0.0 0.0 0.0
73 0.0 0.0 0.0
74 0.0 0.0 0.0
75 0.0 0.0 0.0
76 0.0 0.0 0.0
77 0.0 0.0 0.0
78 0.0 0.0 0.0
79 0.0 0.0 0.0
80 0.0 0.0 0.0
81 0.0 0.0 0.0
82 0.0 0.0 0.0
83 0.0 0.0 0.0
84 0.0 0.0 0.0
85 0.0 0.0 0.0
86 0.0 0.0 0.0
87 0.0 0.0 0.0
88 0.0 0.0 0.0
89 0.0 0.0 0.0
90 0.0 0.0 0.0
91 0.0 0.0 0.0
92 0.0 0.0 0.0
93 0.0 0.0 0.0
94 0.0 0.0 0.0
95 0.0 0.0 0.0
96 0.0 0.0 0.0
97 0.0 0.0 0.0
98 0.0 0.0 0.0
99 0.0 0.0 0.0
100 0.0 0.0 0.0
101 0.0 0.0 0.0
102 0.0 0.0 0.0
103 0.0 0.0 0.0
104 0.0 0.0 0.0
105 0.0 0.0 0.0
106 0.0 0.0 0.0
107 0.0 0.0 0.0
108 0.0 0.0 0.0
109 0.0 0.0 0.0
110 0.0 0.0 0.0
111 0.0 0.0 0.0
112 0.0 0.0 0.0
113 0.0 0.0 0.0
114 0.0 0.0 0.0
115 0.0 0.0 0.0
116 0.0 0.0 0.0
117 0.0 0.0 0.0
118 0.0 0.0 0.0
119 0.0 0.0 0.0
120 0.0 0.0 0.0
121 0.0 0.0 0.0
122 0.0 0.0 0.0
123 0.0 0.0 0.0
124 0.0 0.0 0.0
125 0.0 0.0 0.0
126 0.0 0.0 0.0
127 0.0 0.0 0.0
128 0.0 0.0 0.0
129 0.0 0.0 0.0
130 0.0 0.0 0.0
131 0.0 0.0 0.0
132 0.0 0.0 0.0
133 0.0 0.0 0.0
134 0.0 0.0 0.0
135 0.0 0.0 0.0
136 0.0 0.0 0.0
137 0.0 0.0 0.0
138 0.0 0.0 0.0
139 0.0 0.0 0.0
140 0.0 0.0 0.0
141 0.0 0.0 0.0
142 0.0 0.0 0.0
143 0.0 0.0 0.0
144 0.0 0.0 0.0
145 0.0 0.0 0.0
146 0.0 0.0 0.0
147 0.0 0.0 0.0
148 0.0 0.0 0.0
149 0.0 0.0 0.0
150 0.0 0.0 0.0
151 0.0 0.0 0.0
152 0.0 0.0 0.0
153 0.0 0.0 0.0
154 0.0 0.0 0.0
155 0.0 0.0 0.0
156 0.0 0.0 0.0
157 0.0 0.0 0.0
158 0.0 0.0 0.0
159 0.0 0.0 0.0
160 0.0 0.0 0.0
161 0.0 0.0 0.0
162 0.0 0.0 0.0
163 0.0 0.0 0.0
164 0.0 0.0 0.0
165 0.0 0.0 0.0
166 0.0 0.0 0.0
167 0.0 0.0 0.0
168 0.0 0.0 0.0
169 0.0 0.0 0.0
170 0.0 0.0 0.0
171 0.0 0.0 0.0
172 0.0 0.0 0.0
173 0.0 0.0 0.0
174 0.0 0.0 0.0
175 0.0 0.0 0.0
176 0.0 0.0 0.0
177 0.0 0.0 0.0
178 0.0 0.0 0.0
179 0.0 0.0 0.0
180 0.0 0.0 0.0
181 0.0 0.0 0.0
182 0.0 0.0 0.0
183 0.0 0.0 0.0
184 0.0 0.0 0.0
185 0.0 0.0 0.0
186 0.0 0.0 0.0
187 0.0 0.0 0.0
188 0.0 0.0 0.0
189 0.0 0.0 0.0
190 0.0 0.0 0.0
191 0.0 0.0 0.0
192 0.0 0.0 0.0
193 0.0 0.0 0.0
194 0.0 0.0 0.0
195 0.0 0.0 0.0
196 0.0 0.0 0.0
197 0.0 0.0 0.0
198 0.0 0.0 0.0
199 0.0 0.0 0.0
200 0.0 0.0 0.0
201 0.0 0.0 0.0
202 0.0 0.0 0.0
203 0.0 0.0 0.0
204 0.0 0.0 0.0
205 0.0 0.0 0.0
206 0.0 0.0 0.0
207 0.0 0.0 0.0
208 0.0 0.0 0.0
209 0.0 0.0 0.0
210 0.0 0.0 0.0
211 0.0 0.0 0.0
212 0.0 0.0 0.0
213 0.0 0.0 0.0
214 0.0 0.0 0.0
215 0.0 0.0 0.0
216 0.0 0.0 0.0
217 0.0 0.0 0.0
218 0.0 0.0 0.0
219 0.0 0.0 0.0
220 0.0 0.0 0.0
221 0.0 0.0 0.0
222 0.0 0.0 0.0
223 0.0 0.0 0.0
224 0.0 0.0 0.0
225 0.0 0.0 0.0
226 0.0 0.0 0.0
227 0.0 0.0 0.0
228 0.0 0.0 0.0
229 0.0 0.0 0.0
230 0.0 0.0 0.0
231 0.0 0.0 0.0
232 0.0 0.0 0.0
233 0.0 0.0 0.0
234 0.0 0.0 0.0
235 0.0 0.0 0.0
236 0.0 0.0 0.0
237 0.0 0.0 0.0
238 0.0 0.0 0.0
239 0.0 0.0 0.0
240 0.0 0.0 0.0
241 0.0 0.0 0.0
242 0.0 0.0 0.0
243 0.0 0.0 0.0
244 0.0 0.0 0.0
245 0.0 0.0 0.0
246 0.0 0.0 0.0
247 0.0 0.0 0.0
248 0.0 0.0 0.0
249 0.0 0.0 0.0
250 0.0 0.0 0.0
251 0.0 0.0 0.0
252 0.0 0.0 0.0
253 0.0 0.0 0.0
254 0.0 0.0 0.0
255 0.0 0.0 0.0
256 0.0 0.0 0.0
257 0.0 0.0 0.0
258 0.0 0.0 0.0
259 0.0 0.0 0.0
260 0.0 0.0 0.0
261 0.0 0.0 0.0
262 0.0 0.0 0.0
263 0.0 0.0 0.0
264 0.0 0.0 0.0
265 0.0 0.0 0.0
266 0.0 0.0 0.0
267 0.0 0.0 0.0
268 0.0 0.0 0.0
269 0.0 0.0 0.0
270 0.0 0.0 0.0
271 0.0 0.0 0.0
272 0.0 0.0 0.0
273 0.0 0.0 0.0
274 0.0 0.0 0.0
275 0.0 0.0 0.0
276 0.0 0.0 0.0
277 0.0 0.0 0.0
278 0.0 0.0 0.0
279 0.0 0.0 0.0
280 0.0 0.0 0.0
281 0.0 0.0 0.0
282 0.0 0.0 0.0
283 0.0 0.0 0.0
284 0.0 0.0 0.0
285 0.0 0.0 0.0
286 0.0 0.0 0.0
287 0.0 0.0 0.0
288 0.0 0.0 0.0
289 0.0 0.0 0.0
290 0.0 0.0 0.0
291 0.0 0.0 0.0
292 0.0 0.0 0.0
293 0.0 0.0 0.0
294 0.0 0.0 0.0
295 0.0 0.0 0.0
296 0.0 0.0 0.0
297 0.0 0.0 0.0
298 0.0 0.0 0.0
299 0.0 0.0 0.0
300 0.0 0.0 0.0
301 0.0 0.0 0.0
302 0.0 0.0 0.0
303 0.0 0.0 0.0
304 0.0 0.0 0.0
305 0.0 0.0 0.0
306 0.0 0.0 0.0
307 0.0 0.0 0.0
308 0.0 0.0 0.0
309 0.0 0.0 0.0
310 0.0 0.0 0.0
311 0.0 0.0 0.0
312 0.0 0.0 0.0
313 0.0 0.0 0.0
314 0.0 0.0 0.0
315 0.0 0.0 0.0
316 0.0 0.0 0.0
317 0.0 0.0 0.0
318 0.0 0.0 0.0
319 0.0 0.0 0.0
320 0.0 0.0 0.0
321 0.0 0.0 0.0
322 0.0 0.0 0.0
323 0.0 0.0 0.0
324 0.0 0.0 0.0
325 0.0 0.0 0.0
326 0.0 0.0 0.0
327 0.0 0.0 0.0
328 0.0 0.0 0.0
329 0.0 0.0 0.0
330 0.0 0.0 0.0
331 0.0 0.0 0.0
332 0.0 0.0 0.0
333 0.0 0.0 0.0
334 0.0 0.0 0.0
335 0.0 0.0 0.0
336 0.0 0.0 0.0
337 0.0 0.0 0.0
338 0.0 0.0 0.0
339 0.0 0.0 0.0
340 0.0 0.0 0.0
341 0.0 0.0 0.0
342 0.0 0.0 0.0
343 0.0 0.0 0.0
344 0.0 0.0 0.0
345 0.0 0.0 0.0
346 0.0 0.0 0.0
347 0.0 0.0 0.0
348 0.0 0.0 0.0
349 0.0 0.0 0.0
350 0.0 0.0 0.0
351 0.0 0.0 0.0
352 0.0 0.0 0.0
353 0.0 0.0 0.0
354 0.0 0.0 0.0
355 0.0 0.0 0.0
356 0.0 0.0 0.0
357 0.0 0.0 0.0
358 0.0 0.0 0.0
359 0.0 0.0 0.0
360 0.0 0.0 0.0
361 0.0 0.0 0.0
362 0.0 0.0 0.0
363 0.0 0.0 0.0
364 0.0 0.0 0.0
365 0.0 0.0 0.0
366 0.0 0.0 0.0
367 0.0 0.0 0.0
368 0.0 0.0 0.0
369 0.0 0.0 0.0
370 0.0 0.0 0.0
371 0.0 0.0 0.0
372 0.0 0.0 0.0
373 0.0 0.0 0.0
374 0.0 0.0 0.0
375 0.0 0.0 0.0
376 0.0 0.0 0.0
377 0.0 0.0 0.0
378 0.0 0.0 0.0
379 0.0 0.0 0.0
380 0.0 0.0 0.0
381 0.0 0.0 0.0
382 0.0 0.0 0.0
383 0.0 0.0 0.0
384 0.0 0.0 0.0
385 0.0 0.0 0.0
386 0.0 0.0 0.0
387 0.0 0.0 0.0
388 0.0 0.0 0.0
389 0.0 0.0 0.0
390 0.0 0.0 0.0
391 0.0 0.0 0.0
392 0.0 0.0 0.0
393 0.0 0.0 0.0
394 0.0 0.0 0.0
395 0.0 0.0 0.0
396 0.0 0.0 0.0
397 0.0 0.0 0.0
398 0.0 0.0 0.0
399 0.0 0.0 0.0
400 0.0 0.0 0.0
401 0.0 0.0 0.0
402 0.0 0.0 0.0
403 0.0 0.0 0.0
404 0.0 0.0 0.0
405 0.0 0.0 0.0
406 0.0 0.0 0.0
407 0.0 0.0 0.0
408 0.0 0.0 0.0
409 0.0 0.0 0.0
410 0.0 0.0 0.0
411 0.0 0.0 0.0
412 0.0 0.0 0.0
413 0.0 0.0 0.0
414 0.0 0.0 0.0
415 0.0 0.0 0.0
416 0.0 0.0 0.0
417 0.0 0.0 0.0
418 0.0 0.0 0.0
419 0.0 0.0 0.0
420 0.0 0.0 0.0
421 0.0 0.0 0.0
422 0.0 0.0 0.0
423 0.0 0.0 0.0
424 0.0 0.0 0.0
425 0.0 0.0 0.0
426 0.0 0.0 0.0
427 0.0 0.0 0.0
428 0.0 0.0 0.0
429 0.0 0.0 0.0
430 0.0 0.0 0.0
431 0.0 0.0 0.0
432 0.0 0.0 0.0
433 0.0 0.0 0.0
434 0.0 0.0 0.0
435 0.0 0.0 0.0
436 0.0 0.0 0.0
437 0.0 0.0 0.0
438 0.0 0.0 0.0
439 0.0 0.0 0.0
440 0.0 0.0 0.0
441 0.0 0.0 0.0
442 0.0 0.0 0.0
443 0.0 0.0 0.0
444 0.0 0.0 0.0
445 0.0 0.0 0.0
446 0.0 0.0 0.0
447 0.0 0.0 0.0
448 0.0 0.0 0.0
449 0.0 0.0 0.0
450 0.0 0.0 0.0
451 0.0 0.0 0.0
452 0.0 0.0 0.0
453 0.0 0.0 0.0
454 0.0 0.0 0.0
455 0.0 0.0 0.0
456 0.0 0.0 0.0
457 0.0 0.0 0.0
458 0.0 0.0 0.0
459 0.0 0.0 0.0
460 0.0 0.0 0.0
461 0.0 0.0 0.0
462 0.0 0.0 0.0
463 0.0 0.0 0.0
464 0.0 0.0 0.0
465 0.0 0.0 0.0
466 0.0 0.0 0.0
467 0.0 0.0 0.0
468 0.0 0.0 0.0
469 0.0 0.0 0.0
470 0.0 0.0 0.0
471 0.0 0.0 0.0
472 0.0 0.0 0.0
473 0.0 0.0 0.0
474 0.0 0.0 0.0
475 0.0 0.0 0.0
476 0.0 0.0 0.0
477 0.0 0.0 0.0
478 0.0 0.0 0.0
479 0.0 0.0 0.0
480 0.0 0.0 0.0
481 0.0 0.0 0.0
482 0.0 0.0 0.0
483 0.0 0.0 0.0
484 0.0 0.0 0.0
485 0.0 0.0 0.0
486 0.0 0.0 0.0
487 0.0 0.0 0.0
488 0.0 0.0 0.0
489 0.0 0.0 0.0
490 0.0 0.0 0.0
491 0.0 0.0 0.0
492 0.0 0.0 0.0
493 0.0 0.0 0.0
494 0.0 0.0 0.0
495 0.0 0.0 0.0
496 0.0 0.0 0.0
497 0.0 0.0 0.0
498 0.0 0.0 0.0
499 0.0 0.0 0.0
500 0.0 0.0 0.0
501 0.0 0.0 0.0
502 0.0 0.0 0.0
503 0.0 0.0 0.0
504 0.0 0.0 0.0
505 0.0 0.0 0.0
506 0.0 0.0 0.0
507 0.0 0.0 0.0
508 0.0 0.0 0.0
509 0.0 0.0 0.0
510 0.0 0.0 0.0
511 0.0 0.0 0.0
512 0.0 0.0 0.0
513 0.0 0.0 0.0
514 0.0 0.0 0.0
515 0.0 0.0 0.0
516 0.0 0.0 0.0
517 0.0 0.0 0.0
518 0.0 0.0 0.0
519 0.0 0.0 0.0
520 0.0 0.0 0.0
521 0.0 0.0 0.0
522 0.0 0.0 0.0
523 0.0 0.0 0.0
524 0.0 0.0 0.0
525 0.0 0.0 0.0
526 0.0 0.0 0.0
527 0.0 0.0 0.0
528 0.0 0.0 0.0
529 0.0 0.0 0.0
530 0.0 0.0 0.0
531 0.0 0.0 0.0
532 0.0 0.0 0.0
533 0.0 0.0 0.0
534 0.0 0.0 0.0
535 0.0 0.0 0.0
536 0.0 0.0 0.0
537 0.0 0.0 0.0
538 0.0 0.0 0.0
539 0.0 0.0 0.0
540 0.0 0.0 0.0
541 0.0 0.0 0.0
542 0.0 0.0 0.0
543 0.0 0.0 0.0
544 0.0 0.0 0.0
545 0.0 0.0 0.0
546 0.0 0.0 0.0
547 0.0 0.0 0.0
548 0.0 0.0 0.0
549 0.0 0.0 0.0
550 0.0 0.0 0.0
551 0.0 0.0 0.0
552 0.0 0.0 0.0
553 0.0 0.0 0.0
554 0.0 0.0 0.0
555 0.0 0.0 0.0
556 0.0 0.0 0.0
557 0.0 0.0 0.0
558 0.0 0.0 0.0
559 0.0 0.0 0.0
560 0.0 0.0 0.0
561 0.0 0.0 0.0
562 0.0 0.0 0.0
563 0.0 0.0 0.0
564 0.0 0.0 0.0
565 0.0 0.0 0.0
566 0.0 0.0 0.0
567 0.0 0.0 0.0
568 0.0 0.0 0.0
569 0.0 0.0 0.0
570 0.0 0.0 0.0
571 0.0 0.0 0.0
572 0.0 0.0 0.0
573 0.0 0.0 0.0
574 0.0 0.0 0.0
575 0.0 0.0 0.0
576 0.0 0.0 0.0
577 0.0 0.0 0.0
578 0.0 0.0 0.0
579 0.0 0.0 0.0
580 0.0 0.0 0.0
581 0.0 0.0 0.0
582 0.0 0.0 0.0
583 0.0 0.0 0.0
584 0.0 0.0 0.0
585 0.0 0.0 0.0
586 0.0 0.0 0.0
587 0.0 0.0 0.0
588 0.0 0.0 0.0
589 0.0 0.0 0.0
590 0.0 0.0 0.0
591 0.0 0.0 0.0
592 0.0 0.0 0.0
593 0.0 0.0 0.0
594 0.0 0.0 0.0
595 0.0 0.0 0.0
596 0.0 0.0 0.0
597 0.0 0.0 0.0
598 0.0 0.0 0.0
599 0.0 0.0 0.0
600 0.0 0.0 0.0
601 0.0 0.0 0.0
602 0.0 0.0 0.0
603 0.0 0.0 0.0
604 0.0 0.0 0.0
605 0.0 0.0 0.0
606 0.0 0.0 0.0
607 0.0 0.0 0.0
608 0.0 0.0 0.0
609 0.0 0.0 0.0
610 0.0 0.0 0.0
611 0.0 0.0 0.0
612 0.0 0.0 0.0
613 0.0 0.0 0.0
614 0.0 0.0 0.0
615 0.0 0.0 0.0
616 0.0 0.0 0.0
617 0.0 0.0 0.0
618 0.0 0.0 0.0
619 0.0 0.0 0.0
620 0.0 0.0 0.0
621 0.0 0.0 0.0
622 0.0 0.0 0.0
623 0.0 0.0 0.0
624 0.0 0.0 0.0
625 0.0 0.0 0.0
626 0.0 0.0 0.0
627 0.0 0.0 0.0
628 0.0 0.0 0.0
629 0.0 0.0 0.0
630 0.0 0.0 0.0
631 0.0 0.0 0.0
632 0.0 0.0 0.0
633 0.0 0.0 0.0
634 0.0 0.0 0.0
635 0.0 0.0 0.0
636 0.0 0.0 0.0
637 0.0 0.0 0.0
638 0.0 0.0 0.0
639 0.0 0.0 0.0
640 0.0 0.0 0.0
641 0.0 0.0 0.0
642 0.0 0.0 0.0
643 0.0 0.0 0.0
644 0.0 0.0 0.0
645 0.0 0.0 0.0
646 0.0 0.0 0.0
647 0.0 0.0 0.0
648 0.0 0.0 0.0
649 0.0 0.0 0.0
650 0.0 0.0 0.0
651 0.0 0.0 0.0
652 0.0 0.0 0.0
653 0.0 0.0 0.0
654 0.0 0.0 0.0
655 0.0 0.0 0.0
656 0.0 0.0 0.0
657 0.0 0.0 0.0
658 0.0 0.0 0.0
659 0.0 0.0 0.0
660 0.0 0.0 0.0
661 0.0 0.0 0.0
662 0.0 0.0 0.0
663 0.0 0.0 0.0
664 0.0 0.0 0.0
665 0.0 0.0 0.0
666 0.0 0.0 0.0
667 0.0 0.0 0.0
668 0.0 0.0 0.0
669 0.0 0.0 0.0
670 0.0 0.0 0.0
671 0.0 0.0 0.0
672 0.0 0.0 0.0
673 0.0 0.0 0.0
674 0.0 0.0 0.0
675 0.0 0.0 0.0
676 0.0 0.0 0.0
677 0.0 0.0 0.0
678 0.0 0.0 0.0
679 0.0 0.0 0.0
680 0.0 0.0 0.0
681 0.0 0.0 0.0
682 0.0 0.0 0.0
683 0.0 0.0 0.0
684 0.0 0.0 0.0
685 0.0 0.0 0.0
686 0.0 0.0 0.0
687 0.0 0.0 0.0
688 0.0 0.0 0.0
689 0.0 0.0 0.0
690 0.0 0.0 0.0
691 0.0 0.0 0.0
692 0.0 0.0 0.0
693 0.0 0.0 0.0
694 0.0 0.0 0.0
695 0.0 0.0 0.0
696 0.0 0.0 0.0
697 0.0 0.0 0.0
698 0.0 0.0 0.0
699 0.0 0.0 0.0
700 0.0 0.0 0.0
701 0.0 0.0 0.0
702 0.0 0.0 0.0
703 0.0 0.0 0.0
704 0.0 0.0 0.0
705 0.0 0.0 0.0
706 0.0 0.0 0.0
707 0.0 0.0 0.0
708 0.0 0.0 0.0
709 0.0 0.0 0.0
710 0.0 0.0 0.0
711 0.0 0.0 0.0
712 0.0 0.0 0.0
713 0.0 0.0 0.0
714 0.0 0.0 0.0
715 0.0 0.0 0.0
716 0.0 0.0 0.0
717 0.0 0.0 0.0
718 0.0 0.0 0.0
719 0.0 0.0 0.0
720 0.0 0.0 0.0
721 0.0 0.0 0.0
722 0.0 0.0 0.0
723 0.0 0.0 0.0
724 0.0 0.0 0.0
725 0.0 0.0 0.0
726 0.0 0.0 0.0
727 0.0 0.0 0.0
728 0.0 0.0 0.0
729 0.0 0.0 0.0
730 0.0 0.0 0.0
731 0.0 0.0 0.0
732 0.0 0.0 0.0
733 0.0 0.0 0.0
734 0.0 0.0 0.0
735 0.0 0.0 0.0
736 0.0 0.0 0.0
737 0.0 0.0 0.0
738 0.0 0.0 0.0
739 0.0 0.0 0.0
740 0.0 0.0 0.0
741 0.0 0.0 0.0
742 0.0 0.0 0.0
743 0.0 0.0 0.0
744 0.0 0.0 0.0
745 0.0 0.0 0.0
746 0.0 0.0 0.0
747 0.0 0.0 0.0
748 0.0 0.0 0.0
749 0.0 0.0 0.0
750 0.0 0.0 0.0
751 0.0 0.0 0.0
752 0.0 0.0 0.0
753 0.0 0.0 0.0
754 0.0 0.0 0.0
755 0.0 0.0 0.0
756 0.0 0.0 0.0
757 0.0 0.0 0.0
758 0.0 0.0 0.0
759 0.0 0.0 0.0
760 0.0 0.0 0.0
761 0.0 0.0 0.0
762 0.0 0.0 0.0
763 0.0 0.0 0.0
764 0.0 0.0 0.0
765 0.0 0.0 0.0
766 0.0 0.0 0.0
767 0.0 0.0 0.0
768 0.0 0.0 0.0
769 0.0 0.0 0.0
770 0.0 0.0 0.0
771 0.0 0.0 0.0
772 0.0 0.0 0.0
773 0.0 0.0 0.0
774 0.0 0.0 0.0
775 0.0 0.0 0.0
776 0.0 0.0 0.0
777 0.0 0.0 0.0
778 0.0 0.0 0.0
779 0.0 0.0 0.0
780 0.0 0.0 0.0
781 0.0 0.0 0.0
782 0.0 0.0 0.0
783 0.0 0.0 0.0
784 0.0 0.0 0.0
785 0.0 0.0 0.0
786 0.0 0.0 0.0
787 0.0 0.0 0.0
788 0.0 0.0 0.0
789 0.0 0.0 0.0
790 0.0 0.0 0.0
791 0.0 0.0 0.0
792 0.0 0.0 0.0
793 0.0 0.0 0.0
794 0.0 0.0 0.0
795 0.0 0.0 0.0
796 0.0 0.0 0.0
797 0.0 0.0 0.0
798 0.0 0.0 0.0
799 0.0 0.0 0.0
800 0.0 0.0 0.0
801 0.0 0.0 0.0
802 0.0 0.0 0.0
803 0.0 0.0 0.0
804 0.0 0.0 0.0
805 0.0 0.0 0.0
806 0.0 0.0 0.0
807 0.0 0.0 0.0
808 0.0 0.0 0.0
809 0.0 0.0 0.0
810 0.0 0.0 0.0
811 0.0 0.0 0.0
812 0.0 0.0 0.0
813 0.0 0.0 0.0
814 0.0 0.0 0.0
815 0.0 0.0 0.0
816 0.0 0.0 0.0
817 0.0 0.0 0.0
818 0.0 0.0 0.0
819 0.0 0.0 0.0
820 0.0 0.0 0.0
821 0.0 0.0 0.0
822 0.0 0.0 0.0
823 0.0 0.0 0.0
824 0.0 0.0 0.0
825 0.0 0.0 0.0
826 0.0 0.0 0.0
827 0.0 0.0 0.0
828 0.0 0.0 0.0
829 0.0 0.0 0.0
830 0.0 0.0 0.0
831 0.0 0.0 0.0
832 0.0 0.0 0.0
833 0.0 0.0 0.0
834 0.0 0.0 0.0
835 0.0 0.0 0.0
836 0.0 0.0 0.0
837 0.0 0.0 0.0
838 0.0 0.0 0.0
839 0.0 0.0 0.0
840 0.0 0.0 0.0
841 0.0 0.0 0.0
842 0.0 0.0 0.0
843 0.0 0.0 0.0
844 0.0 0.0 0.0
845 0.0 0.0 0.0
846 0.0 0.0 0.0
847 0.0 0.0 0.0
848 0.0 0.0 0.0
849 0.0 0.0 0.0
850 0.0 0.0 0.0
851 0.0 0.0 0.0
852 0.0 0.0 0.0
853 0.0 0.0 0.0
854 0.0 0.0 0.0
855 0.0 0.0 0.0
856 0.0 0.0 0.0
857 0.0 0.0 0.0
858 0.0 0.0 0.0
859 0.0 0.0 0.0
860 0.0 0.0 0.0
861 0.0 0.0 0.0
862 0.0 0.0 0.0
863 0.0 0.0 0.0
864 0.0 0.0 0.0
865 0.0 0.0 0.0
866 0.0 0.0 0.0
867 0.0 0.0 0.0
868 0.0 0.0 0.0
869 0.0 0.0 0.0
870 0.0 0.0 0.0
871 0.0 0.0 0.0
872 0.0 0.0 0.0
873 0.0 0.0 0.0
874 0.0 0.0 0.0
875 0.0 0.0 0.0
876 0.0 0.0 0.0
877 0.0 0.0 0.0
878 0.0 0.0 0.0
879 0.0 0.0 0.0
880 0.0 0.0 0.0
881 0.0 0.0 0.0
882 0.0 0.0 0.0
883 0.0 0.0 0.0
884 0.0 0.0 0.0
885 0.0 0.0 0.0
886 0.0 0.0 0.0
887 0.0 0.0 0.0
888 0.0 0.0 0.0
889 0.0 0.0 0.0
890 0.0 0.0 0.0
891 0.0 0.0 0.0
892 0.0 0.0 0.0
893 0.0 0.0 0.0
894 0.0 0.0 0.0
895 0.0 0.0 0.0
896 0.0 0.0 0.0
897 0.0 0.0 0.0
898 0.0 0.0 0.0
899 0.0 0.0 0.0
900 0.0 0.0 0.0
901 0.0 0.0 0.0
902 0.0 0.0 0.0
903 0.0 0.0 0.0
904 0.0 0.0 0.0
905 0.0 0.0 0.0
906 0.0 0.0 0.0
907 0.0 0.0 0.0
908 0.0 0.0 0.0
909 0.0 0.0 0.0
910 0.0 0.0 0.0
911 0.0 0.0 0.0
912 0.0 0.0 0.0
913 0.0 0.0 0.0
914 0.0 0.0 0.0
915 0.0 0.0 0.0
916 0.0 0.0 0.0
917 0.0 0.0 0.0
918 0.0 0.0 0.0
919 0.0 0.0 0.0
920 0.0 0.0 0.0
921 0.0 0.0 0.0
922 0.0 0.0 0.0
923 0.0 0.0 0.0
924 0.0 0.0 0.0
925 0.0 0.0 0.0
926 0.0 0.0 0.0
927 0.0 0.0 0.0
928 0.0 0.0 0.0
929 0.0 0.0 0.0
930 0.0 0.0 0.0
931 0.0 0.0 0.0
932 0.0 0.0 0.0
933 0.0 0.0 0.0
934 0.0 0.0 0.0
935 0.0 0.0 0.0
936 0.0 0.0 0.0
937 0.0 0.0 0.0
938 0.0 0.0 0.0
939 0.0 0.0 0.0
940 0.0 0.0 0.0
941 0.0 0.0 0.0
942 0.0 0.0 0.0
943 0.0 0.0 0.0
944 0.0 0.0 0.0
945 0.0 0.0 0.0
946 0.0 0.0 0.0
947 0.0 0.0 0.0
948 0.0 0.0 0.0
949 0.0 0.0 0.0
950 0.0 0.0 0.0
951 0.0 0.0 0.0
952 0.0 0.0 0.0
953 0.0 0.0 0.0
954 0.0 0.0 0.0
955 0.0 0.0 0.0
956 0.0 0.0 0.0
957 0.0 0.0 0.0
958 0.0 0.0 0.0
959 0.0 0.0 0.0
960 0.0 0.0 0.0
961 0.0 0.0 0.0
962 0.0 0.0 0.0
963 0.0 0.0 0.0
964 0.0 0.0 0.0
965 0.0 0.0 0.0
966 0.0 0.0 0.0
967 0.0 0.0 0.0
968 0.0 0.0 0.0
969 0.0 0.0 0.0
970 0.0 0.0 0.0
971 0.0 0.0 0.0
972 0.0 0.0 0.0
973 0.0 0.0 0.0
974 0.0 0.0 0.0
975 0.0 0.0 0.0
976 0.0 0.0 0.0
977 0.0 0.0 0.0
978 0.0 0.0 0.0
979 0.0 0.0 0.0
980 0.0 0.0 0.0
981 0.0 0.0 0.0
982 0.0 0.0 0.0
983 0.0 0.0 0.0
984 0.0 0.0 0.0
985 0.0 0.0 0.0
986 0.0 0.0 0.0
987 0.0 0.0 0.0
988 0.0 0.0 0.0
989 0.0 0.0 0.0
990 0.0 0.0 0.0
991 0.0 0.0 0.0
992 0.0 0.0 0.0
993 0.0 0.0 0.0
994 0.0 0.0 0.0
995 0.0 0.0 0.0
996 0.0 0.0 0.0
997 0.0 0.0 0.0
998 0.0 0.0 0.0
999 0.0 0.0 0.0
1000 0.0 0.0 0.0
