LAMMPS (20 Nov 2019)
####
# Combined 2D equilibration + production run
###

units lj
#dimensionless

dimension 2
atom_style atomic
#only stores values for type position velocity

#periodic boundary conditions
boundary p p p

###
# Neighbors
###
#only hold a list of near neighbour interactions not all 1xN interactions for each particle
neighbor 1.9 bin
neigh_modify every 1 delay 1 check yes

###
# Read initial configuration (generated with Python or Fortran script)
###
read_data lammps_input_pd
  orthogonal box = (-15.0042 -15.0042 -0.5) to (15.0042 15.0042 0.5)
  1 by 1 by 1 MPI processor grid
  reading atoms ...
  1000 atoms
  reading velocities ...
  1000 velocities
  read_data CPU = 0.00431487 secs

reset_timestep 0

###
# Define groups (all atoms)
###
#group all type *

###
# Dumps
###
dump   id all atom 10000 dump.LJ

###################################################################
# EQUILIBRATION STAGE
# Using "soft" potential to relax overlaps
###################################################################

pair_style soft 1.12246152962189

include pair.polydisperse.equilibration
pair_coeff 1 1 100.000000 0.460209
pair_coeff 1 2 100.000000 0.471434
pair_coeff 1 3 100.000000 0.482659
pair_coeff 1 4 100.000000 0.493883
pair_coeff 1 5 100.000000 0.505108
pair_coeff 1 6 100.000000 0.516333
pair_coeff 1 7 100.000000 0.527557
pair_coeff 1 8 100.000000 0.538782
pair_coeff 1 9 100.000000 0.550006
pair_coeff 1 10 100.000000 0.561231
pair_coeff 1 11 100.000000 0.572456
pair_coeff 1 12 100.000000 0.583680
pair_coeff 1 13 100.000000 0.594905
pair_coeff 1 14 100.000000 0.606130
pair_coeff 1 15 100.000000 0.617354
pair_coeff 1 16 100.000000 0.628579
pair_coeff 1 17 100.000000 0.639803
pair_coeff 1 18 100.000000 0.651028
pair_coeff 1 19 100.000000 0.662253
pair_coeff 1 20 100.000000 0.673477
pair_coeff 1 21 100.000000 0.684702
pair_coeff 1 22 100.000000 0.695926
pair_coeff 1 23 100.000000 0.707151
pair_coeff 1 24 100.000000 0.718376
pair_coeff 1 25 100.000000 0.729600
pair_coeff 1 26 100.000000 0.740825
pair_coeff 1 27 100.000000 0.752050
pair_coeff 1 28 100.000000 0.763274
pair_coeff 1 29 100.000000 0.774499
pair_coeff 1 30 100.000000 0.785723
pair_coeff 1 31 100.000000 0.796948
pair_coeff 1 32 100.000000 0.808173
pair_coeff 1 33 100.000000 0.819397
pair_coeff 1 34 100.000000 0.830622
pair_coeff 1 35 100.000000 0.841847
pair_coeff 1 36 100.000000 0.853071
pair_coeff 1 37 100.000000 0.864296
pair_coeff 1 38 100.000000 0.875520
pair_coeff 1 39 100.000000 0.886745
pair_coeff 1 40 100.000000 0.897970
pair_coeff 1 41 100.000000 0.909194
pair_coeff 1 42 100.000000 0.920419
pair_coeff 1 43 100.000000 0.931644
pair_coeff 1 44 100.000000 0.942868
pair_coeff 1 45 100.000000 0.954093
pair_coeff 1 46 100.000000 0.965317
pair_coeff 1 47 100.000000 0.976542
pair_coeff 1 48 100.000000 0.987767
pair_coeff 1 49 100.000000 0.998991
pair_coeff 1 50 100.000000 1.010216
pair_coeff 1 51 100.000000 1.021440
pair_coeff 1 52 100.000000 1.032665
pair_coeff 1 53 100.000000 1.043890
pair_coeff 1 54 100.000000 1.055114
pair_coeff 1 55 100.000000 1.066339
pair_coeff 1 56 100.000000 1.077564
pair_coeff 1 57 100.000000 1.088788
pair_coeff 1 58 100.000000 1.100013
pair_coeff 1 59 100.000000 1.111237
pair_coeff 1 60 100.000000 1.122462
pair_coeff 2 2 100.000000 0.482659
pair_coeff 2 3 100.000000 0.493883
pair_coeff 2 4 100.000000 0.505108
pair_coeff 2 5 100.000000 0.516333
pair_coeff 2 6 100.000000 0.527557
pair_coeff 2 7 100.000000 0.538782
pair_coeff 2 8 100.000000 0.550006
pair_coeff 2 9 100.000000 0.561231
pair_coeff 2 10 100.000000 0.572456
pair_coeff 2 11 100.000000 0.583680
pair_coeff 2 12 100.000000 0.594905
pair_coeff 2 13 100.000000 0.606130
pair_coeff 2 14 100.000000 0.617354
pair_coeff 2 15 100.000000 0.628579
pair_coeff 2 16 100.000000 0.639803
pair_coeff 2 17 100.000000 0.651028
pair_coeff 2 18 100.000000 0.662253
pair_coeff 2 19 100.000000 0.673477
pair_coeff 2 20 100.000000 0.684702
pair_coeff 2 21 100.000000 0.695926
pair_coeff 2 22 100.000000 0.707151
pair_coeff 2 23 100.000000 0.718376
pair_coeff 2 24 100.000000 0.729600
pair_coeff 2 25 100.000000 0.740825
pair_coeff 2 26 100.000000 0.752050
pair_coeff 2 27 100.000000 0.763274
pair_coeff 2 28 100.000000 0.774499
pair_coeff 2 29 100.000000 0.785723
pair_coeff 2 30 100.000000 0.796948
pair_coeff 2 31 100.000000 0.808173
pair_coeff 2 32 100.000000 0.819397
pair_coeff 2 33 100.000000 0.830622
pair_coeff 2 34 100.000000 0.841847
pair_coeff 2 35 100.000000 0.853071
pair_coeff 2 36 100.000000 0.864296
pair_coeff 2 37 100.000000 0.875520
pair_coeff 2 38 100.000000 0.886745
pair_coeff 2 39 100.000000 0.897970
pair_coeff 2 40 100.000000 0.909194
pair_coeff 2 41 100.000000 0.920419
pair_coeff 2 42 100.000000 0.931644
pair_coeff 2 43 100.000000 0.942868
pair_coeff 2 44 100.000000 0.954093
pair_coeff 2 45 100.000000 0.965317
pair_coeff 2 46 100.000000 0.976542
pair_coeff 2 47 100.000000 0.987767
pair_coeff 2 48 100.000000 0.998991
pair_coeff 2 49 100.000000 1.010216
pair_coeff 2 50 100.000000 1.021440
pair_coeff 2 51 100.000000 1.032665
pair_coeff 2 52 100.000000 1.043890
pair_coeff 2 53 100.000000 1.055114
pair_coeff 2 54 100.000000 1.066339
pair_coeff 2 55 100.000000 1.077564
pair_coeff 2 56 100.000000 1.088788
pair_coeff 2 57 100.000000 1.100013
pair_coeff 2 58 100.000000 1.111237
pair_coeff 2 59 100.000000 1.122462
pair_coeff 2 60 100.000000 1.133687
pair_coeff 3 3 100.000000 0.505108
pair_coeff 3 4 100.000000 0.516333
pair_coeff 3 5 100.000000 0.527557
pair_coeff 3 6 100.000000 0.538782
pair_coeff 3 7 100.000000 0.550006
pair_coeff 3 8 100.000000 0.561231
pair_coeff 3 9 100.000000 0.572456
pair_coeff 3 10 100.000000 0.583680
pair_coeff 3 11 100.000000 0.594905
pair_coeff 3 12 100.000000 0.606130
pair_coeff 3 13 100.000000 0.617354
pair_coeff 3 14 100.000000 0.628579
pair_coeff 3 15 100.000000 0.639803
pair_coeff 3 16 100.000000 0.651028
pair_coeff 3 17 100.000000 0.662253
pair_coeff 3 18 100.000000 0.673477
pair_coeff 3 19 100.000000 0.684702
pair_coeff 3 20 100.000000 0.695926
pair_coeff 3 21 100.000000 0.707151
pair_coeff 3 22 100.000000 0.718376
pair_coeff 3 23 100.000000 0.729600
pair_coeff 3 24 100.000000 0.740825
pair_coeff 3 25 100.000000 0.752050
pair_coeff 3 26 100.000000 0.763274
pair_coeff 3 27 100.000000 0.774499
pair_coeff 3 28 100.000000 0.785723
pair_coeff 3 29 100.000000 0.796948
pair_coeff 3 30 100.000000 0.808173
pair_coeff 3 31 100.000000 0.819397
pair_coeff 3 32 100.000000 0.830622
pair_coeff 3 33 100.000000 0.841847
pair_coeff 3 34 100.000000 0.853071
pair_coeff 3 35 100.000000 0.864296
pair_coeff 3 36 100.000000 0.875520
pair_coeff 3 37 100.000000 0.886745
pair_coeff 3 38 100.000000 0.897970
pair_coeff 3 39 100.000000 0.909194
pair_coeff 3 40 100.000000 0.920419
pair_coeff 3 41 100.000000 0.931644
pair_coeff 3 42 100.000000 0.942868
pair_coeff 3 43 100.000000 0.954093
pair_coeff 3 44 100.000000 0.965317
pair_coeff 3 45 100.000000 0.976542
pair_coeff 3 46 100.000000 0.987767
pair_coeff 3 47 100.000000 0.998991
pair_coeff 3 48 100.000000 1.010216
pair_coeff 3 49 100.000000 1.021440
pair_coeff 3 50 100.000000 1.032665
pair_coeff 3 51 100.000000 1.043890
pair_coeff 3 52 100.000000 1.055114
pair_coeff 3 53 100.000000 1.066339
pair_coeff 3 54 100.000000 1.077564
pair_coeff 3 55 100.000000 1.088788
pair_coeff 3 56 100.000000 1.100013
pair_coeff 3 57 100.000000 1.111237
pair_coeff 3 58 100.000000 1.122462
pair_coeff 3 59 100.000000 1.133687
pair_coeff 3 60 100.000000 1.144911
pair_coeff 4 4 100.000000 0.527557
pair_coeff 4 5 100.000000 0.538782
pair_coeff 4 6 100.000000 0.550006
pair_coeff 4 7 100.000000 0.561231
pair_coeff 4 8 100.000000 0.572456
pair_coeff 4 9 100.000000 0.583680
pair_coeff 4 10 100.000000 0.594905
pair_coeff 4 11 100.000000 0.606130
pair_coeff 4 12 100.000000 0.617354
pair_coeff 4 13 100.000000 0.628579
pair_coeff 4 14 100.000000 0.639803
pair_coeff 4 15 100.000000 0.651028
pair_coeff 4 16 100.000000 0.662253
pair_coeff 4 17 100.000000 0.673477
pair_coeff 4 18 100.000000 0.684702
pair_coeff 4 19 100.000000 0.695926
pair_coeff 4 20 100.000000 0.707151
pair_coeff 4 21 100.000000 0.718376
pair_coeff 4 22 100.000000 0.729600
pair_coeff 4 23 100.000000 0.740825
pair_coeff 4 24 100.000000 0.752050
pair_coeff 4 25 100.000000 0.763274
pair_coeff 4 26 100.000000 0.774499
pair_coeff 4 27 100.000000 0.785723
pair_coeff 4 28 100.000000 0.796948
pair_coeff 4 29 100.000000 0.808173
pair_coeff 4 30 100.000000 0.819397
pair_coeff 4 31 100.000000 0.830622
pair_coeff 4 32 100.000000 0.841847
pair_coeff 4 33 100.000000 0.853071
pair_coeff 4 34 100.000000 0.864296
pair_coeff 4 35 100.000000 0.875520
pair_coeff 4 36 100.000000 0.886745
pair_coeff 4 37 100.000000 0.897970
pair_coeff 4 38 100.000000 0.909194
pair_coeff 4 39 100.000000 0.920419
pair_coeff 4 40 100.000000 0.931644
pair_coeff 4 41 100.000000 0.942868
pair_coeff 4 42 100.000000 0.954093
pair_coeff 4 43 100.000000 0.965317
pair_coeff 4 44 100.000000 0.976542
pair_coeff 4 45 100.000000 0.987767
pair_coeff 4 46 100.000000 0.998991
pair_coeff 4 47 100.000000 1.010216
pair_coeff 4 48 100.000000 1.021440
pair_coeff 4 49 100.000000 1.032665
pair_coeff 4 50 100.000000 1.043890
pair_coeff 4 51 100.000000 1.055114
pair_coeff 4 52 100.000000 1.066339
pair_coeff 4 53 100.000000 1.077564
pair_coeff 4 54 100.000000 1.088788
pair_coeff 4 55 100.000000 1.100013
pair_coeff 4 56 100.000000 1.111237
pair_coeff 4 57 100.000000 1.122462
pair_coeff 4 58 100.000000 1.133687
pair_coeff 4 59 100.000000 1.144911
pair_coeff 4 60 100.000000 1.156136
pair_coeff 5 5 100.000000 0.550006
pair_coeff 5 6 100.000000 0.561231
pair_coeff 5 7 100.000000 0.572456
pair_coeff 5 8 100.000000 0.583680
pair_coeff 5 9 100.000000 0.594905
pair_coeff 5 10 100.000000 0.606130
pair_coeff 5 11 100.000000 0.617354
pair_coeff 5 12 100.000000 0.628579
pair_coeff 5 13 100.000000 0.639803
pair_coeff 5 14 100.000000 0.651028
pair_coeff 5 15 100.000000 0.662253
pair_coeff 5 16 100.000000 0.673477
pair_coeff 5 17 100.000000 0.684702
pair_coeff 5 18 100.000000 0.695926
pair_coeff 5 19 100.000000 0.707151
pair_coeff 5 20 100.000000 0.718376
pair_coeff 5 21 100.000000 0.729600
pair_coeff 5 22 100.000000 0.740825
pair_coeff 5 23 100.000000 0.752050
pair_coeff 5 24 100.000000 0.763274
pair_coeff 5 25 100.000000 0.774499
pair_coeff 5 26 100.000000 0.785723
pair_coeff 5 27 100.000000 0.796948
pair_coeff 5 28 100.000000 0.808173
pair_coeff 5 29 100.000000 0.819397
pair_coeff 5 30 100.000000 0.830622
pair_coeff 5 31 100.000000 0.841847
pair_coeff 5 32 100.000000 0.853071
pair_coeff 5 33 100.000000 0.864296
pair_coeff 5 34 100.000000 0.875520
pair_coeff 5 35 100.000000 0.886745
pair_coeff 5 36 100.000000 0.897970
pair_coeff 5 37 100.000000 0.909194
pair_coeff 5 38 100.000000 0.920419
pair_coeff 5 39 100.000000 0.931644
pair_coeff 5 40 100.000000 0.942868
pair_coeff 5 41 100.000000 0.954093
pair_coeff 5 42 100.000000 0.965317
pair_coeff 5 43 100.000000 0.976542
pair_coeff 5 44 100.000000 0.987767
pair_coeff 5 45 100.000000 0.998991
pair_coeff 5 46 100.000000 1.010216
pair_coeff 5 47 100.000000 1.021440
pair_coeff 5 48 100.000000 1.032665
pair_coeff 5 49 100.000000 1.043890
pair_coeff 5 50 100.000000 1.055114
pair_coeff 5 51 100.000000 1.066339
pair_coeff 5 52 100.000000 1.077564
pair_coeff 5 53 100.000000 1.088788
pair_coeff 5 54 100.000000 1.100013
pair_coeff 5 55 100.000000 1.111237
pair_coeff 5 56 100.000000 1.122462
pair_coeff 5 57 100.000000 1.133687
pair_coeff 5 58 100.000000 1.144911
pair_coeff 5 59 100.000000 1.156136
pair_coeff 5 60 100.000000 1.167361
pair_coeff 6 6 100.000000 0.572456
pair_coeff 6 7 100.000000 0.583680
pair_coeff 6 8 100.000000 0.594905
pair_coeff 6 9 100.000000 0.606130
pair_coeff 6 10 100.000000 0.617354
pair_coeff 6 11 100.000000 0.628579
pair_coeff 6 12 100.000000 0.639803
pair_coeff 6 13 100.000000 0.651028
pair_coeff 6 14 100.000000 0.662253
pair_coeff 6 15 100.000000 0.673477
pair_coeff 6 16 100.000000 0.684702
pair_coeff 6 17 100.000000 0.695926
pair_coeff 6 18 100.000000 0.707151
pair_coeff 6 19 100.000000 0.718376
pair_coeff 6 20 100.000000 0.729600
pair_coeff 6 21 100.000000 0.740825
pair_coeff 6 22 100.000000 0.752050
pair_coeff 6 23 100.000000 0.763274
pair_coeff 6 24 100.000000 0.774499
pair_coeff 6 25 100.000000 0.785723
pair_coeff 6 26 100.000000 0.796948
pair_coeff 6 27 100.000000 0.808173
pair_coeff 6 28 100.000000 0.819397
pair_coeff 6 29 100.000000 0.830622
pair_coeff 6 30 100.000000 0.841847
pair_coeff 6 31 100.000000 0.853071
pair_coeff 6 32 100.000000 0.864296
pair_coeff 6 33 100.000000 0.875520
pair_coeff 6 34 100.000000 0.886745
pair_coeff 6 35 100.000000 0.897970
pair_coeff 6 36 100.000000 0.909194
pair_coeff 6 37 100.000000 0.920419
pair_coeff 6 38 100.000000 0.931644
pair_coeff 6 39 100.000000 0.942868
pair_coeff 6 40 100.000000 0.954093
pair_coeff 6 41 100.000000 0.965317
pair_coeff 6 42 100.000000 0.976542
pair_coeff 6 43 100.000000 0.987767
pair_coeff 6 44 100.000000 0.998991
pair_coeff 6 45 100.000000 1.010216
pair_coeff 6 46 100.000000 1.021440
pair_coeff 6 47 100.000000 1.032665
pair_coeff 6 48 100.000000 1.043890
pair_coeff 6 49 100.000000 1.055114
pair_coeff 6 50 100.000000 1.066339
pair_coeff 6 51 100.000000 1.077564
pair_coeff 6 52 100.000000 1.088788
pair_coeff 6 53 100.000000 1.100013
pair_coeff 6 54 100.000000 1.111237
pair_coeff 6 55 100.000000 1.122462
pair_coeff 6 56 100.000000 1.133687
pair_coeff 6 57 100.000000 1.144911
pair_coeff 6 58 100.000000 1.156136
pair_coeff 6 59 100.000000 1.167361
pair_coeff 6 60 100.000000 1.178585
pair_coeff 7 7 100.000000 0.594905
pair_coeff 7 8 100.000000 0.606130
pair_coeff 7 9 100.000000 0.617354
pair_coeff 7 10 100.000000 0.628579
pair_coeff 7 11 100.000000 0.639803
pair_coeff 7 12 100.000000 0.651028
pair_coeff 7 13 100.000000 0.662253
pair_coeff 7 14 100.000000 0.673477
pair_coeff 7 15 100.000000 0.684702
pair_coeff 7 16 100.000000 0.695926
pair_coeff 7 17 100.000000 0.707151
pair_coeff 7 18 100.000000 0.718376
pair_coeff 7 19 100.000000 0.729600
pair_coeff 7 20 100.000000 0.740825
pair_coeff 7 21 100.000000 0.752050
pair_coeff 7 22 100.000000 0.763274
pair_coeff 7 23 100.000000 0.774499
pair_coeff 7 24 100.000000 0.785723
pair_coeff 7 25 100.000000 0.796948
pair_coeff 7 26 100.000000 0.808173
pair_coeff 7 27 100.000000 0.819397
pair_coeff 7 28 100.000000 0.830622
pair_coeff 7 29 100.000000 0.841847
pair_coeff 7 30 100.000000 0.853071
pair_coeff 7 31 100.000000 0.864296
pair_coeff 7 32 100.000000 0.875520
pair_coeff 7 33 100.000000 0.886745
pair_coeff 7 34 100.000000 0.897970
pair_coeff 7 35 100.000000 0.909194
pair_coeff 7 36 100.000000 0.920419
pair_coeff 7 37 100.000000 0.931644
pair_coeff 7 38 100.000000 0.942868
pair_coeff 7 39 100.000000 0.954093
pair_coeff 7 40 100.000000 0.965317
pair_coeff 7 41 100.000000 0.976542
pair_coeff 7 42 100.000000 0.987767
pair_coeff 7 43 100.000000 0.998991
pair_coeff 7 44 100.000000 1.010216
pair_coeff 7 45 100.000000 1.021440
pair_coeff 7 46 100.000000 1.032665
pair_coeff 7 47 100.000000 1.043890
pair_coeff 7 48 100.000000 1.055114
pair_coeff 7 49 100.000000 1.066339
pair_coeff 7 50 100.000000 1.077564
pair_coeff 7 51 100.000000 1.088788
pair_coeff 7 52 100.000000 1.100013
pair_coeff 7 53 100.000000 1.111237
pair_coeff 7 54 100.000000 1.122462
pair_coeff 7 55 100.000000 1.133687
pair_coeff 7 56 100.000000 1.144911
pair_coeff 7 57 100.000000 1.156136
pair_coeff 7 58 100.000000 1.167361
pair_coeff 7 59 100.000000 1.178585
pair_coeff 7 60 100.000000 1.189810
pair_coeff 8 8 100.000000 0.617354
pair_coeff 8 9 100.000000 0.628579
pair_coeff 8 10 100.000000 0.639803
pair_coeff 8 11 100.000000 0.651028
pair_coeff 8 12 100.000000 0.662253
pair_coeff 8 13 100.000000 0.673477
pair_coeff 8 14 100.000000 0.684702
pair_coeff 8 15 100.000000 0.695926
pair_coeff 8 16 100.000000 0.707151
pair_coeff 8 17 100.000000 0.718376
pair_coeff 8 18 100.000000 0.729600
pair_coeff 8 19 100.000000 0.740825
pair_coeff 8 20 100.000000 0.752050
pair_coeff 8 21 100.000000 0.763274
pair_coeff 8 22 100.000000 0.774499
pair_coeff 8 23 100.000000 0.785723
pair_coeff 8 24 100.000000 0.796948
pair_coeff 8 25 100.000000 0.808173
pair_coeff 8 26 100.000000 0.819397
pair_coeff 8 27 100.000000 0.830622
pair_coeff 8 28 100.000000 0.841847
pair_coeff 8 29 100.000000 0.853071
pair_coeff 8 30 100.000000 0.864296
pair_coeff 8 31 100.000000 0.875520
pair_coeff 8 32 100.000000 0.886745
pair_coeff 8 33 100.000000 0.897970
pair_coeff 8 34 100.000000 0.909194
pair_coeff 8 35 100.000000 0.920419
pair_coeff 8 36 100.000000 0.931644
pair_coeff 8 37 100.000000 0.942868
pair_coeff 8 38 100.000000 0.954093
pair_coeff 8 39 100.000000 0.965317
pair_coeff 8 40 100.000000 0.976542
pair_coeff 8 41 100.000000 0.987767
pair_coeff 8 42 100.000000 0.998991
pair_coeff 8 43 100.000000 1.010216
pair_coeff 8 44 100.000000 1.021440
pair_coeff 8 45 100.000000 1.032665
pair_coeff 8 46 100.000000 1.043890
pair_coeff 8 47 100.000000 1.055114
pair_coeff 8 48 100.000000 1.066339
pair_coeff 8 49 100.000000 1.077564
pair_coeff 8 50 100.000000 1.088788
pair_coeff 8 51 100.000000 1.100013
pair_coeff 8 52 100.000000 1.111237
pair_coeff 8 53 100.000000 1.122462
pair_coeff 8 54 100.000000 1.133687
pair_coeff 8 55 100.000000 1.144911
pair_coeff 8 56 100.000000 1.156136
pair_coeff 8 57 100.000000 1.167361
pair_coeff 8 58 100.000000 1.178585
pair_coeff 8 59 100.000000 1.189810
pair_coeff 8 60 100.000000 1.201034
pair_coeff 9 9 100.000000 0.639803
pair_coeff 9 10 100.000000 0.651028
pair_coeff 9 11 100.000000 0.662253
pair_coeff 9 12 100.000000 0.673477
pair_coeff 9 13 100.000000 0.684702
pair_coeff 9 14 100.000000 0.695926
pair_coeff 9 15 100.000000 0.707151
pair_coeff 9 16 100.000000 0.718376
pair_coeff 9 17 100.000000 0.729600
pair_coeff 9 18 100.000000 0.740825
pair_coeff 9 19 100.000000 0.752050
pair_coeff 9 20 100.000000 0.763274
pair_coeff 9 21 100.000000 0.774499
pair_coeff 9 22 100.000000 0.785723
pair_coeff 9 23 100.000000 0.796948
pair_coeff 9 24 100.000000 0.808173
pair_coeff 9 25 100.000000 0.819397
pair_coeff 9 26 100.000000 0.830622
pair_coeff 9 27 100.000000 0.841847
pair_coeff 9 28 100.000000 0.853071
pair_coeff 9 29 100.000000 0.864296
pair_coeff 9 30 100.000000 0.875520
pair_coeff 9 31 100.000000 0.886745
pair_coeff 9 32 100.000000 0.897970
pair_coeff 9 33 100.000000 0.909194
pair_coeff 9 34 100.000000 0.920419
pair_coeff 9 35 100.000000 0.931644
pair_coeff 9 36 100.000000 0.942868
pair_coeff 9 37 100.000000 0.954093
pair_coeff 9 38 100.000000 0.965317
pair_coeff 9 39 100.000000 0.976542
pair_coeff 9 40 100.000000 0.987767
pair_coeff 9 41 100.000000 0.998991
pair_coeff 9 42 100.000000 1.010216
pair_coeff 9 43 100.000000 1.021440
pair_coeff 9 44 100.000000 1.032665
pair_coeff 9 45 100.000000 1.043890
pair_coeff 9 46 100.000000 1.055114
pair_coeff 9 47 100.000000 1.066339
pair_coeff 9 48 100.000000 1.077564
pair_coeff 9 49 100.000000 1.088788
pair_coeff 9 50 100.000000 1.100013
pair_coeff 9 51 100.000000 1.111237
pair_coeff 9 52 100.000000 1.122462
pair_coeff 9 53 100.000000 1.133687
pair_coeff 9 54 100.000000 1.144911
pair_coeff 9 55 100.000000 1.156136
pair_coeff 9 56 100.000000 1.167361
pair_coeff 9 57 100.000000 1.178585
pair_coeff 9 58 100.000000 1.189810
pair_coeff 9 59 100.000000 1.201034
pair_coeff 9 60 100.000000 1.212259
pair_coeff 10 10 100.000000 0.662253
pair_coeff 10 11 100.000000 0.673477
pair_coeff 10 12 100.000000 0.684702
pair_coeff 10 13 100.000000 0.695926
pair_coeff 10 14 100.000000 0.707151
pair_coeff 10 15 100.000000 0.718376
pair_coeff 10 16 100.000000 0.729600
pair_coeff 10 17 100.000000 0.740825
pair_coeff 10 18 100.000000 0.752050
pair_coeff 10 19 100.000000 0.763274
pair_coeff 10 20 100.000000 0.774499
pair_coeff 10 21 100.000000 0.785723
pair_coeff 10 22 100.000000 0.796948
pair_coeff 10 23 100.000000 0.808173
pair_coeff 10 24 100.000000 0.819397
pair_coeff 10 25 100.000000 0.830622
pair_coeff 10 26 100.000000 0.841847
pair_coeff 10 27 100.000000 0.853071
pair_coeff 10 28 100.000000 0.864296
pair_coeff 10 29 100.000000 0.875520
pair_coeff 10 30 100.000000 0.886745
pair_coeff 10 31 100.000000 0.897970
pair_coeff 10 32 100.000000 0.909194
pair_coeff 10 33 100.000000 0.920419
pair_coeff 10 34 100.000000 0.931644
pair_coeff 10 35 100.000000 0.942868
pair_coeff 10 36 100.000000 0.954093
pair_coeff 10 37 100.000000 0.965317
pair_coeff 10 38 100.000000 0.976542
pair_coeff 10 39 100.000000 0.987767
pair_coeff 10 40 100.000000 0.998991
pair_coeff 10 41 100.000000 1.010216
pair_coeff 10 42 100.000000 1.021440
pair_coeff 10 43 100.000000 1.032665
pair_coeff 10 44 100.000000 1.043890
pair_coeff 10 45 100.000000 1.055114
pair_coeff 10 46 100.000000 1.066339
pair_coeff 10 47 100.000000 1.077564
pair_coeff 10 48 100.000000 1.088788
pair_coeff 10 49 100.000000 1.100013
pair_coeff 10 50 100.000000 1.111237
pair_coeff 10 51 100.000000 1.122462
pair_coeff 10 52 100.000000 1.133687
pair_coeff 10 53 100.000000 1.144911
pair_coeff 10 54 100.000000 1.156136
pair_coeff 10 55 100.000000 1.167361
pair_coeff 10 56 100.000000 1.178585
pair_coeff 10 57 100.000000 1.189810
pair_coeff 10 58 100.000000 1.201034
pair_coeff 10 59 100.000000 1.212259
pair_coeff 10 60 100.000000 1.223484
pair_coeff 11 11 100.000000 0.684702
pair_coeff 11 12 100.000000 0.695926
pair_coeff 11 13 100.000000 0.707151
pair_coeff 11 14 100.000000 0.718376
pair_coeff 11 15 100.000000 0.729600
pair_coeff 11 16 100.000000 0.740825
pair_coeff 11 17 100.000000 0.752050
pair_coeff 11 18 100.000000 0.763274
pair_coeff 11 19 100.000000 0.774499
pair_coeff 11 20 100.000000 0.785723
pair_coeff 11 21 100.000000 0.796948
pair_coeff 11 22 100.000000 0.808173
pair_coeff 11 23 100.000000 0.819397
pair_coeff 11 24 100.000000 0.830622
pair_coeff 11 25 100.000000 0.841847
pair_coeff 11 26 100.000000 0.853071
pair_coeff 11 27 100.000000 0.864296
pair_coeff 11 28 100.000000 0.875520
pair_coeff 11 29 100.000000 0.886745
pair_coeff 11 30 100.000000 0.897970
pair_coeff 11 31 100.000000 0.909194
pair_coeff 11 32 100.000000 0.920419
pair_coeff 11 33 100.000000 0.931644
pair_coeff 11 34 100.000000 0.942868
pair_coeff 11 35 100.000000 0.954093
pair_coeff 11 36 100.000000 0.965317
pair_coeff 11 37 100.000000 0.976542
pair_coeff 11 38 100.000000 0.987767
pair_coeff 11 39 100.000000 0.998991
pair_coeff 11 40 100.000000 1.010216
pair_coeff 11 41 100.000000 1.021440
pair_coeff 11 42 100.000000 1.032665
pair_coeff 11 43 100.000000 1.043890
pair_coeff 11 44 100.000000 1.055114
pair_coeff 11 45 100.000000 1.066339
pair_coeff 11 46 100.000000 1.077564
pair_coeff 11 47 100.000000 1.088788
pair_coeff 11 48 100.000000 1.100013
pair_coeff 11 49 100.000000 1.111237
pair_coeff 11 50 100.000000 1.122462
pair_coeff 11 51 100.000000 1.133687
pair_coeff 11 52 100.000000 1.144911
pair_coeff 11 53 100.000000 1.156136
pair_coeff 11 54 100.000000 1.167361
pair_coeff 11 55 100.000000 1.178585
pair_coeff 11 56 100.000000 1.189810
pair_coeff 11 57 100.000000 1.201034
pair_coeff 11 58 100.000000 1.212259
pair_coeff 11 59 100.000000 1.223484
pair_coeff 11 60 100.000000 1.234708
pair_coeff 12 12 100.000000 0.707151
pair_coeff 12 13 100.000000 0.718376
pair_coeff 12 14 100.000000 0.729600
pair_coeff 12 15 100.000000 0.740825
pair_coeff 12 16 100.000000 0.752050
pair_coeff 12 17 100.000000 0.763274
pair_coeff 12 18 100.000000 0.774499
pair_coeff 12 19 100.000000 0.785723
pair_coeff 12 20 100.000000 0.796948
pair_coeff 12 21 100.000000 0.808173
pair_coeff 12 22 100.000000 0.819397
pair_coeff 12 23 100.000000 0.830622
pair_coeff 12 24 100.000000 0.841847
pair_coeff 12 25 100.000000 0.853071
pair_coeff 12 26 100.000000 0.864296
pair_coeff 12 27 100.000000 0.875520
pair_coeff 12 28 100.000000 0.886745
pair_coeff 12 29 100.000000 0.897970
pair_coeff 12 30 100.000000 0.909194
pair_coeff 12 31 100.000000 0.920419
pair_coeff 12 32 100.000000 0.931644
pair_coeff 12 33 100.000000 0.942868
pair_coeff 12 34 100.000000 0.954093
pair_coeff 12 35 100.000000 0.965317
pair_coeff 12 36 100.000000 0.976542
pair_coeff 12 37 100.000000 0.987767
pair_coeff 12 38 100.000000 0.998991
pair_coeff 12 39 100.000000 1.010216
pair_coeff 12 40 100.000000 1.021440
pair_coeff 12 41 100.000000 1.032665
pair_coeff 12 42 100.000000 1.043890
pair_coeff 12 43 100.000000 1.055114
pair_coeff 12 44 100.000000 1.066339
pair_coeff 12 45 100.000000 1.077564
pair_coeff 12 46 100.000000 1.088788
pair_coeff 12 47 100.000000 1.100013
pair_coeff 12 48 100.000000 1.111237
pair_coeff 12 49 100.000000 1.122462
pair_coeff 12 50 100.000000 1.133687
pair_coeff 12 51 100.000000 1.144911
pair_coeff 12 52 100.000000 1.156136
pair_coeff 12 53 100.000000 1.167361
pair_coeff 12 54 100.000000 1.178585
pair_coeff 12 55 100.000000 1.189810
pair_coeff 12 56 100.000000 1.201034
pair_coeff 12 57 100.000000 1.212259
pair_coeff 12 58 100.000000 1.223484
pair_coeff 12 59 100.000000 1.234708
pair_coeff 12 60 100.000000 1.245933
pair_coeff 13 13 100.000000 0.729600
pair_coeff 13 14 100.000000 0.740825
pair_coeff 13 15 100.000000 0.752050
pair_coeff 13 16 100.000000 0.763274
pair_coeff 13 17 100.000000 0.774499
pair_coeff 13 18 100.000000 0.785723
pair_coeff 13 19 100.000000 0.796948
pair_coeff 13 20 100.000000 0.808173
pair_coeff 13 21 100.000000 0.819397
pair_coeff 13 22 100.000000 0.830622
pair_coeff 13 23 100.000000 0.841847
pair_coeff 13 24 100.000000 0.853071
pair_coeff 13 25 100.000000 0.864296
pair_coeff 13 26 100.000000 0.875520
pair_coeff 13 27 100.000000 0.886745
pair_coeff 13 28 100.000000 0.897970
pair_coeff 13 29 100.000000 0.909194
pair_coeff 13 30 100.000000 0.920419
pair_coeff 13 31 100.000000 0.931644
pair_coeff 13 32 100.000000 0.942868
pair_coeff 13 33 100.000000 0.954093
pair_coeff 13 34 100.000000 0.965317
pair_coeff 13 35 100.000000 0.976542
pair_coeff 13 36 100.000000 0.987767
pair_coeff 13 37 100.000000 0.998991
pair_coeff 13 38 100.000000 1.010216
pair_coeff 13 39 100.000000 1.021440
pair_coeff 13 40 100.000000 1.032665
pair_coeff 13 41 100.000000 1.043890
pair_coeff 13 42 100.000000 1.055114
pair_coeff 13 43 100.000000 1.066339
pair_coeff 13 44 100.000000 1.077564
pair_coeff 13 45 100.000000 1.088788
pair_coeff 13 46 100.000000 1.100013
pair_coeff 13 47 100.000000 1.111237
pair_coeff 13 48 100.000000 1.122462
pair_coeff 13 49 100.000000 1.133687
pair_coeff 13 50 100.000000 1.144911
pair_coeff 13 51 100.000000 1.156136
pair_coeff 13 52 100.000000 1.167361
pair_coeff 13 53 100.000000 1.178585
pair_coeff 13 54 100.000000 1.189810
pair_coeff 13 55 100.000000 1.201034
pair_coeff 13 56 100.000000 1.212259
pair_coeff 13 57 100.000000 1.223484
pair_coeff 13 58 100.000000 1.234708
pair_coeff 13 59 100.000000 1.245933
pair_coeff 13 60 100.000000 1.257157
pair_coeff 14 14 100.000000 0.752050
pair_coeff 14 15 100.000000 0.763274
pair_coeff 14 16 100.000000 0.774499
pair_coeff 14 17 100.000000 0.785723
pair_coeff 14 18 100.000000 0.796948
pair_coeff 14 19 100.000000 0.808173
pair_coeff 14 20 100.000000 0.819397
pair_coeff 14 21 100.000000 0.830622
pair_coeff 14 22 100.000000 0.841847
pair_coeff 14 23 100.000000 0.853071
pair_coeff 14 24 100.000000 0.864296
pair_coeff 14 25 100.000000 0.875520
pair_coeff 14 26 100.000000 0.886745
pair_coeff 14 27 100.000000 0.897970
pair_coeff 14 28 100.000000 0.909194
pair_coeff 14 29 100.000000 0.920419
pair_coeff 14 30 100.000000 0.931644
pair_coeff 14 31 100.000000 0.942868
pair_coeff 14 32 100.000000 0.954093
pair_coeff 14 33 100.000000 0.965317
pair_coeff 14 34 100.000000 0.976542
pair_coeff 14 35 100.000000 0.987767
pair_coeff 14 36 100.000000 0.998991
pair_coeff 14 37 100.000000 1.010216
pair_coeff 14 38 100.000000 1.021440
pair_coeff 14 39 100.000000 1.032665
pair_coeff 14 40 100.000000 1.043890
pair_coeff 14 41 100.000000 1.055114
pair_coeff 14 42 100.000000 1.066339
pair_coeff 14 43 100.000000 1.077564
pair_coeff 14 44 100.000000 1.088788
pair_coeff 14 45 100.000000 1.100013
pair_coeff 14 46 100.000000 1.111237
pair_coeff 14 47 100.000000 1.122462
pair_coeff 14 48 100.000000 1.133687
pair_coeff 14 49 100.000000 1.144911
pair_coeff 14 50 100.000000 1.156136
pair_coeff 14 51 100.000000 1.167361
pair_coeff 14 52 100.000000 1.178585
pair_coeff 14 53 100.000000 1.189810
pair_coeff 14 54 100.000000 1.201034
pair_coeff 14 55 100.000000 1.212259
pair_coeff 14 56 100.000000 1.223484
pair_coeff 14 57 100.000000 1.234708
pair_coeff 14 58 100.000000 1.245933
pair_coeff 14 59 100.000000 1.257157
pair_coeff 14 60 100.000000 1.268382
pair_coeff 15 15 100.000000 0.774499
pair_coeff 15 16 100.000000 0.785723
pair_coeff 15 17 100.000000 0.796948
pair_coeff 15 18 100.000000 0.808173
pair_coeff 15 19 100.000000 0.819397
pair_coeff 15 20 100.000000 0.830622
pair_coeff 15 21 100.000000 0.841847
pair_coeff 15 22 100.000000 0.853071
pair_coeff 15 23 100.000000 0.864296
pair_coeff 15 24 100.000000 0.875520
pair_coeff 15 25 100.000000 0.886745
pair_coeff 15 26 100.000000 0.897970
pair_coeff 15 27 100.000000 0.909194
pair_coeff 15 28 100.000000 0.920419
pair_coeff 15 29 100.000000 0.931644
pair_coeff 15 30 100.000000 0.942868
pair_coeff 15 31 100.000000 0.954093
pair_coeff 15 32 100.000000 0.965317
pair_coeff 15 33 100.000000 0.976542
pair_coeff 15 34 100.000000 0.987767
pair_coeff 15 35 100.000000 0.998991
pair_coeff 15 36 100.000000 1.010216
pair_coeff 15 37 100.000000 1.021440
pair_coeff 15 38 100.000000 1.032665
pair_coeff 15 39 100.000000 1.043890
pair_coeff 15 40 100.000000 1.055114
pair_coeff 15 41 100.000000 1.066339
pair_coeff 15 42 100.000000 1.077564
pair_coeff 15 43 100.000000 1.088788
pair_coeff 15 44 100.000000 1.100013
pair_coeff 15 45 100.000000 1.111237
pair_coeff 15 46 100.000000 1.122462
pair_coeff 15 47 100.000000 1.133687
pair_coeff 15 48 100.000000 1.144911
pair_coeff 15 49 100.000000 1.156136
pair_coeff 15 50 100.000000 1.167361
pair_coeff 15 51 100.000000 1.178585
pair_coeff 15 52 100.000000 1.189810
pair_coeff 15 53 100.000000 1.201034
pair_coeff 15 54 100.000000 1.212259
pair_coeff 15 55 100.000000 1.223484
pair_coeff 15 56 100.000000 1.234708
pair_coeff 15 57 100.000000 1.245933
pair_coeff 15 58 100.000000 1.257157
pair_coeff 15 59 100.000000 1.268382
pair_coeff 15 60 100.000000 1.279607
pair_coeff 16 16 100.000000 0.796948
pair_coeff 16 17 100.000000 0.808173
pair_coeff 16 18 100.000000 0.819397
pair_coeff 16 19 100.000000 0.830622
pair_coeff 16 20 100.000000 0.841847
pair_coeff 16 21 100.000000 0.853071
pair_coeff 16 22 100.000000 0.864296
pair_coeff 16 23 100.000000 0.875520
pair_coeff 16 24 100.000000 0.886745
pair_coeff 16 25 100.000000 0.897970
pair_coeff 16 26 100.000000 0.909194
pair_coeff 16 27 100.000000 0.920419
pair_coeff 16 28 100.000000 0.931644
pair_coeff 16 29 100.000000 0.942868
pair_coeff 16 30 100.000000 0.954093
pair_coeff 16 31 100.000000 0.965317
pair_coeff 16 32 100.000000 0.976542
pair_coeff 16 33 100.000000 0.987767
pair_coeff 16 34 100.000000 0.998991
pair_coeff 16 35 100.000000 1.010216
pair_coeff 16 36 100.000000 1.021440
pair_coeff 16 37 100.000000 1.032665
pair_coeff 16 38 100.000000 1.043890
pair_coeff 16 39 100.000000 1.055114
pair_coeff 16 40 100.000000 1.066339
pair_coeff 16 41 100.000000 1.077564
pair_coeff 16 42 100.000000 1.088788
pair_coeff 16 43 100.000000 1.100013
pair_coeff 16 44 100.000000 1.111237
pair_coeff 16 45 100.000000 1.122462
pair_coeff 16 46 100.000000 1.133687
pair_coeff 16 47 100.000000 1.144911
pair_coeff 16 48 100.000000 1.156136
pair_coeff 16 49 100.000000 1.167361
pair_coeff 16 50 100.000000 1.178585
pair_coeff 16 51 100.000000 1.189810
pair_coeff 16 52 100.000000 1.201034
pair_coeff 16 53 100.000000 1.212259
pair_coeff 16 54 100.000000 1.223484
pair_coeff 16 55 100.000000 1.234708
pair_coeff 16 56 100.000000 1.245933
pair_coeff 16 57 100.000000 1.257157
pair_coeff 16 58 100.000000 1.268382
pair_coeff 16 59 100.000000 1.279607
pair_coeff 16 60 100.000000 1.290831
pair_coeff 17 17 100.000000 0.819397
pair_coeff 17 18 100.000000 0.830622
pair_coeff 17 19 100.000000 0.841847
pair_coeff 17 20 100.000000 0.853071
pair_coeff 17 21 100.000000 0.864296
pair_coeff 17 22 100.000000 0.875520
pair_coeff 17 23 100.000000 0.886745
pair_coeff 17 24 100.000000 0.897970
pair_coeff 17 25 100.000000 0.909194
pair_coeff 17 26 100.000000 0.920419
pair_coeff 17 27 100.000000 0.931644
pair_coeff 17 28 100.000000 0.942868
pair_coeff 17 29 100.000000 0.954093
pair_coeff 17 30 100.000000 0.965317
pair_coeff 17 31 100.000000 0.976542
pair_coeff 17 32 100.000000 0.987767
pair_coeff 17 33 100.000000 0.998991
pair_coeff 17 34 100.000000 1.010216
pair_coeff 17 35 100.000000 1.021440
pair_coeff 17 36 100.000000 1.032665
pair_coeff 17 37 100.000000 1.043890
pair_coeff 17 38 100.000000 1.055114
pair_coeff 17 39 100.000000 1.066339
pair_coeff 17 40 100.000000 1.077564
pair_coeff 17 41 100.000000 1.088788
pair_coeff 17 42 100.000000 1.100013
pair_coeff 17 43 100.000000 1.111237
pair_coeff 17 44 100.000000 1.122462
pair_coeff 17 45 100.000000 1.133687
pair_coeff 17 46 100.000000 1.144911
pair_coeff 17 47 100.000000 1.156136
pair_coeff 17 48 100.000000 1.167361
pair_coeff 17 49 100.000000 1.178585
pair_coeff 17 50 100.000000 1.189810
pair_coeff 17 51 100.000000 1.201034
pair_coeff 17 52 100.000000 1.212259
pair_coeff 17 53 100.000000 1.223484
pair_coeff 17 54 100.000000 1.234708
pair_coeff 17 55 100.000000 1.245933
pair_coeff 17 56 100.000000 1.257157
pair_coeff 17 57 100.000000 1.268382
pair_coeff 17 58 100.000000 1.279607
pair_coeff 17 59 100.000000 1.290831
pair_coeff 17 60 100.000000 1.302056
pair_coeff 18 18 100.000000 0.841847
pair_coeff 18 19 100.000000 0.853071
pair_coeff 18 20 100.000000 0.864296
pair_coeff 18 21 100.000000 0.875520
pair_coeff 18 22 100.000000 0.886745
pair_coeff 18 23 100.000000 0.897970
pair_coeff 18 24 100.000000 0.909194
pair_coeff 18 25 100.000000 0.920419
pair_coeff 18 26 100.000000 0.931644
pair_coeff 18 27 100.000000 0.942868
pair_coeff 18 28 100.000000 0.954093
pair_coeff 18 29 100.000000 0.965317
pair_coeff 18 30 100.000000 0.976542
pair_coeff 18 31 100.000000 0.987767
pair_coeff 18 32 100.000000 0.998991
pair_coeff 18 33 100.000000 1.010216
pair_coeff 18 34 100.000000 1.021440
pair_coeff 18 35 100.000000 1.032665
pair_coeff 18 36 100.000000 1.043890
pair_coeff 18 37 100.000000 1.055114
pair_coeff 18 38 100.000000 1.066339
pair_coeff 18 39 100.000000 1.077564
pair_coeff 18 40 100.000000 1.088788
pair_coeff 18 41 100.000000 1.100013
pair_coeff 18 42 100.000000 1.111237
pair_coeff 18 43 100.000000 1.122462
pair_coeff 18 44 100.000000 1.133687
pair_coeff 18 45 100.000000 1.144911
pair_coeff 18 46 100.000000 1.156136
pair_coeff 18 47 100.000000 1.167361
pair_coeff 18 48 100.000000 1.178585
pair_coeff 18 49 100.000000 1.189810
pair_coeff 18 50 100.000000 1.201034
pair_coeff 18 51 100.000000 1.212259
pair_coeff 18 52 100.000000 1.223484
pair_coeff 18 53 100.000000 1.234708
pair_coeff 18 54 100.000000 1.245933
pair_coeff 18 55 100.000000 1.257157
pair_coeff 18 56 100.000000 1.268382
pair_coeff 18 57 100.000000 1.279607
pair_coeff 18 58 100.000000 1.290831
pair_coeff 18 59 100.000000 1.302056
pair_coeff 18 60 100.000000 1.313281
pair_coeff 19 19 100.000000 0.864296
pair_coeff 19 20 100.000000 0.875520
pair_coeff 19 21 100.000000 0.886745
pair_coeff 19 22 100.000000 0.897970
pair_coeff 19 23 100.000000 0.909194
pair_coeff 19 24 100.000000 0.920419
pair_coeff 19 25 100.000000 0.931644
pair_coeff 19 26 100.000000 0.942868
pair_coeff 19 27 100.000000 0.954093
pair_coeff 19 28 100.000000 0.965317
pair_coeff 19 29 100.000000 0.976542
pair_coeff 19 30 100.000000 0.987767
pair_coeff 19 31 100.000000 0.998991
pair_coeff 19 32 100.000000 1.010216
pair_coeff 19 33 100.000000 1.021440
pair_coeff 19 34 100.000000 1.032665
pair_coeff 19 35 100.000000 1.043890
pair_coeff 19 36 100.000000 1.055114
pair_coeff 19 37 100.000000 1.066339
pair_coeff 19 38 100.000000 1.077564
pair_coeff 19 39 100.000000 1.088788
pair_coeff 19 40 100.000000 1.100013
pair_coeff 19 41 100.000000 1.111237
pair_coeff 19 42 100.000000 1.122462
pair_coeff 19 43 100.000000 1.133687
pair_coeff 19 44 100.000000 1.144911
pair_coeff 19 45 100.000000 1.156136
pair_coeff 19 46 100.000000 1.167361
pair_coeff 19 47 100.000000 1.178585
pair_coeff 19 48 100.000000 1.189810
pair_coeff 19 49 100.000000 1.201034
pair_coeff 19 50 100.000000 1.212259
pair_coeff 19 51 100.000000 1.223484
pair_coeff 19 52 100.000000 1.234708
pair_coeff 19 53 100.000000 1.245933
pair_coeff 19 54 100.000000 1.257157
pair_coeff 19 55 100.000000 1.268382
pair_coeff 19 56 100.000000 1.279607
pair_coeff 19 57 100.000000 1.290831
pair_coeff 19 58 100.000000 1.302056
pair_coeff 19 59 100.000000 1.313281
pair_coeff 19 60 100.000000 1.324505
pair_coeff 20 20 100.000000 0.886745
pair_coeff 20 21 100.000000 0.897970
pair_coeff 20 22 100.000000 0.909194
pair_coeff 20 23 100.000000 0.920419
pair_coeff 20 24 100.000000 0.931644
pair_coeff 20 25 100.000000 0.942868
pair_coeff 20 26 100.000000 0.954093
pair_coeff 20 27 100.000000 0.965317
pair_coeff 20 28 100.000000 0.976542
pair_coeff 20 29 100.000000 0.987767
pair_coeff 20 30 100.000000 0.998991
pair_coeff 20 31 100.000000 1.010216
pair_coeff 20 32 100.000000 1.021440
pair_coeff 20 33 100.000000 1.032665
pair_coeff 20 34 100.000000 1.043890
pair_coeff 20 35 100.000000 1.055114
pair_coeff 20 36 100.000000 1.066339
pair_coeff 20 37 100.000000 1.077564
pair_coeff 20 38 100.000000 1.088788
pair_coeff 20 39 100.000000 1.100013
pair_coeff 20 40 100.000000 1.111237
pair_coeff 20 41 100.000000 1.122462
pair_coeff 20 42 100.000000 1.133687
pair_coeff 20 43 100.000000 1.144911
pair_coeff 20 44 100.000000 1.156136
pair_coeff 20 45 100.000000 1.167361
pair_coeff 20 46 100.000000 1.178585
pair_coeff 20 47 100.000000 1.189810
pair_coeff 20 48 100.000000 1.201034
pair_coeff 20 49 100.000000 1.212259
pair_coeff 20 50 100.000000 1.223484
pair_coeff 20 51 100.000000 1.234708
pair_coeff 20 52 100.000000 1.245933
pair_coeff 20 53 100.000000 1.257157
pair_coeff 20 54 100.000000 1.268382
pair_coeff 20 55 100.000000 1.279607
pair_coeff 20 56 100.000000 1.290831
pair_coeff 20 57 100.000000 1.302056
pair_coeff 20 58 100.000000 1.313281
pair_coeff 20 59 100.000000 1.324505
pair_coeff 20 60 100.000000 1.335730
pair_coeff 21 21 100.000000 0.909194
pair_coeff 21 22 100.000000 0.920419
pair_coeff 21 23 100.000000 0.931644
pair_coeff 21 24 100.000000 0.942868
pair_coeff 21 25 100.000000 0.954093
pair_coeff 21 26 100.000000 0.965317
pair_coeff 21 27 100.000000 0.976542
pair_coeff 21 28 100.000000 0.987767
pair_coeff 21 29 100.000000 0.998991
pair_coeff 21 30 100.000000 1.010216
pair_coeff 21 31 100.000000 1.021440
pair_coeff 21 32 100.000000 1.032665
pair_coeff 21 33 100.000000 1.043890
pair_coeff 21 34 100.000000 1.055114
pair_coeff 21 35 100.000000 1.066339
pair_coeff 21 36 100.000000 1.077564
pair_coeff 21 37 100.000000 1.088788
pair_coeff 21 38 100.000000 1.100013
pair_coeff 21 39 100.000000 1.111237
pair_coeff 21 40 100.000000 1.122462
pair_coeff 21 41 100.000000 1.133687
pair_coeff 21 42 100.000000 1.144911
pair_coeff 21 43 100.000000 1.156136
pair_coeff 21 44 100.000000 1.167361
pair_coeff 21 45 100.000000 1.178585
pair_coeff 21 46 100.000000 1.189810
pair_coeff 21 47 100.000000 1.201034
pair_coeff 21 48 100.000000 1.212259
pair_coeff 21 49 100.000000 1.223484
pair_coeff 21 50 100.000000 1.234708
pair_coeff 21 51 100.000000 1.245933
pair_coeff 21 52 100.000000 1.257157
pair_coeff 21 53 100.000000 1.268382
pair_coeff 21 54 100.000000 1.279607
pair_coeff 21 55 100.000000 1.290831
pair_coeff 21 56 100.000000 1.302056
pair_coeff 21 57 100.000000 1.313281
pair_coeff 21 58 100.000000 1.324505
pair_coeff 21 59 100.000000 1.335730
pair_coeff 21 60 100.000000 1.346954
pair_coeff 22 22 100.000000 0.931644
pair_coeff 22 23 100.000000 0.942868
pair_coeff 22 24 100.000000 0.954093
pair_coeff 22 25 100.000000 0.965317
pair_coeff 22 26 100.000000 0.976542
pair_coeff 22 27 100.000000 0.987767
pair_coeff 22 28 100.000000 0.998991
pair_coeff 22 29 100.000000 1.010216
pair_coeff 22 30 100.000000 1.021440
pair_coeff 22 31 100.000000 1.032665
pair_coeff 22 32 100.000000 1.043890
pair_coeff 22 33 100.000000 1.055114
pair_coeff 22 34 100.000000 1.066339
pair_coeff 22 35 100.000000 1.077564
pair_coeff 22 36 100.000000 1.088788
pair_coeff 22 37 100.000000 1.100013
pair_coeff 22 38 100.000000 1.111237
pair_coeff 22 39 100.000000 1.122462
pair_coeff 22 40 100.000000 1.133687
pair_coeff 22 41 100.000000 1.144911
pair_coeff 22 42 100.000000 1.156136
pair_coeff 22 43 100.000000 1.167361
pair_coeff 22 44 100.000000 1.178585
pair_coeff 22 45 100.000000 1.189810
pair_coeff 22 46 100.000000 1.201034
pair_coeff 22 47 100.000000 1.212259
pair_coeff 22 48 100.000000 1.223484
pair_coeff 22 49 100.000000 1.234708
pair_coeff 22 50 100.000000 1.245933
pair_coeff 22 51 100.000000 1.257157
pair_coeff 22 52 100.000000 1.268382
pair_coeff 22 53 100.000000 1.279607
pair_coeff 22 54 100.000000 1.290831
pair_coeff 22 55 100.000000 1.302056
pair_coeff 22 56 100.000000 1.313281
pair_coeff 22 57 100.000000 1.324505
pair_coeff 22 58 100.000000 1.335730
pair_coeff 22 59 100.000000 1.346954
pair_coeff 22 60 100.000000 1.358179
pair_coeff 23 23 100.000000 0.954093
pair_coeff 23 24 100.000000 0.965317
pair_coeff 23 25 100.000000 0.976542
pair_coeff 23 26 100.000000 0.987767
pair_coeff 23 27 100.000000 0.998991
pair_coeff 23 28 100.000000 1.010216
pair_coeff 23 29 100.000000 1.021440
pair_coeff 23 30 100.000000 1.032665
pair_coeff 23 31 100.000000 1.043890
pair_coeff 23 32 100.000000 1.055114
pair_coeff 23 33 100.000000 1.066339
pair_coeff 23 34 100.000000 1.077564
pair_coeff 23 35 100.000000 1.088788
pair_coeff 23 36 100.000000 1.100013
pair_coeff 23 37 100.000000 1.111237
pair_coeff 23 38 100.000000 1.122462
pair_coeff 23 39 100.000000 1.133687
pair_coeff 23 40 100.000000 1.144911
pair_coeff 23 41 100.000000 1.156136
pair_coeff 23 42 100.000000 1.167361
pair_coeff 23 43 100.000000 1.178585
pair_coeff 23 44 100.000000 1.189810
pair_coeff 23 45 100.000000 1.201034
pair_coeff 23 46 100.000000 1.212259
pair_coeff 23 47 100.000000 1.223484
pair_coeff 23 48 100.000000 1.234708
pair_coeff 23 49 100.000000 1.245933
pair_coeff 23 50 100.000000 1.257157
pair_coeff 23 51 100.000000 1.268382
pair_coeff 23 52 100.000000 1.279607
pair_coeff 23 53 100.000000 1.290831
pair_coeff 23 54 100.000000 1.302056
pair_coeff 23 55 100.000000 1.313281
pair_coeff 23 56 100.000000 1.324505
pair_coeff 23 57 100.000000 1.335730
pair_coeff 23 58 100.000000 1.346954
pair_coeff 23 59 100.000000 1.358179
pair_coeff 23 60 100.000000 1.369404
pair_coeff 24 24 100.000000 0.976542
pair_coeff 24 25 100.000000 0.987767
pair_coeff 24 26 100.000000 0.998991
pair_coeff 24 27 100.000000 1.010216
pair_coeff 24 28 100.000000 1.021440
pair_coeff 24 29 100.000000 1.032665
pair_coeff 24 30 100.000000 1.043890
pair_coeff 24 31 100.000000 1.055114
pair_coeff 24 32 100.000000 1.066339
pair_coeff 24 33 100.000000 1.077564
pair_coeff 24 34 100.000000 1.088788
pair_coeff 24 35 100.000000 1.100013
pair_coeff 24 36 100.000000 1.111237
pair_coeff 24 37 100.000000 1.122462
pair_coeff 24 38 100.000000 1.133687
pair_coeff 24 39 100.000000 1.144911
pair_coeff 24 40 100.000000 1.156136
pair_coeff 24 41 100.000000 1.167361
pair_coeff 24 42 100.000000 1.178585
pair_coeff 24 43 100.000000 1.189810
pair_coeff 24 44 100.000000 1.201034
pair_coeff 24 45 100.000000 1.212259
pair_coeff 24 46 100.000000 1.223484
pair_coeff 24 47 100.000000 1.234708
pair_coeff 24 48 100.000000 1.245933
pair_coeff 24 49 100.000000 1.257157
pair_coeff 24 50 100.000000 1.268382
pair_coeff 24 51 100.000000 1.279607
pair_coeff 24 52 100.000000 1.290831
pair_coeff 24 53 100.000000 1.302056
pair_coeff 24 54 100.000000 1.313281
pair_coeff 24 55 100.000000 1.324505
pair_coeff 24 56 100.000000 1.335730
pair_coeff 24 57 100.000000 1.346954
pair_coeff 24 58 100.000000 1.358179
pair_coeff 24 59 100.000000 1.369404
pair_coeff 24 60 100.000000 1.380628
pair_coeff 25 25 100.000000 0.998991
pair_coeff 25 26 100.000000 1.010216
pair_coeff 25 27 100.000000 1.021440
pair_coeff 25 28 100.000000 1.032665
pair_coeff 25 29 100.000000 1.043890
pair_coeff 25 30 100.000000 1.055114
pair_coeff 25 31 100.000000 1.066339
pair_coeff 25 32 100.000000 1.077564
pair_coeff 25 33 100.000000 1.088788
pair_coeff 25 34 100.000000 1.100013
pair_coeff 25 35 100.000000 1.111237
pair_coeff 25 36 100.000000 1.122462
pair_coeff 25 37 100.000000 1.133687
pair_coeff 25 38 100.000000 1.144911
pair_coeff 25 39 100.000000 1.156136
pair_coeff 25 40 100.000000 1.167361
pair_coeff 25 41 100.000000 1.178585
pair_coeff 25 42 100.000000 1.189810
pair_coeff 25 43 100.000000 1.201034
pair_coeff 25 44 100.000000 1.212259
pair_coeff 25 45 100.000000 1.223484
pair_coeff 25 46 100.000000 1.234708
pair_coeff 25 47 100.000000 1.245933
pair_coeff 25 48 100.000000 1.257157
pair_coeff 25 49 100.000000 1.268382
pair_coeff 25 50 100.000000 1.279607
pair_coeff 25 51 100.000000 1.290831
pair_coeff 25 52 100.000000 1.302056
pair_coeff 25 53 100.000000 1.313281
pair_coeff 25 54 100.000000 1.324505
pair_coeff 25 55 100.000000 1.335730
pair_coeff 25 56 100.000000 1.346954
pair_coeff 25 57 100.000000 1.358179
pair_coeff 25 58 100.000000 1.369404
pair_coeff 25 59 100.000000 1.380628
pair_coeff 25 60 100.000000 1.391853
pair_coeff 26 26 100.000000 1.021440
pair_coeff 26 27 100.000000 1.032665
pair_coeff 26 28 100.000000 1.043890
pair_coeff 26 29 100.000000 1.055114
pair_coeff 26 30 100.000000 1.066339
pair_coeff 26 31 100.000000 1.077564
pair_coeff 26 32 100.000000 1.088788
pair_coeff 26 33 100.000000 1.100013
pair_coeff 26 34 100.000000 1.111237
pair_coeff 26 35 100.000000 1.122462
pair_coeff 26 36 100.000000 1.133687
pair_coeff 26 37 100.000000 1.144911
pair_coeff 26 38 100.000000 1.156136
pair_coeff 26 39 100.000000 1.167361
pair_coeff 26 40 100.000000 1.178585
pair_coeff 26 41 100.000000 1.189810
pair_coeff 26 42 100.000000 1.201034
pair_coeff 26 43 100.000000 1.212259
pair_coeff 26 44 100.000000 1.223484
pair_coeff 26 45 100.000000 1.234708
pair_coeff 26 46 100.000000 1.245933
pair_coeff 26 47 100.000000 1.257157
pair_coeff 26 48 100.000000 1.268382
pair_coeff 26 49 100.000000 1.279607
pair_coeff 26 50 100.000000 1.290831
pair_coeff 26 51 100.000000 1.302056
pair_coeff 26 52 100.000000 1.313281
pair_coeff 26 53 100.000000 1.324505
pair_coeff 26 54 100.000000 1.335730
pair_coeff 26 55 100.000000 1.346954
pair_coeff 26 56 100.000000 1.358179
pair_coeff 26 57 100.000000 1.369404
pair_coeff 26 58 100.000000 1.380628
pair_coeff 26 59 100.000000 1.391853
pair_coeff 26 60 100.000000 1.403078
pair_coeff 27 27 100.000000 1.043890
pair_coeff 27 28 100.000000 1.055114
pair_coeff 27 29 100.000000 1.066339
pair_coeff 27 30 100.000000 1.077564
pair_coeff 27 31 100.000000 1.088788
pair_coeff 27 32 100.000000 1.100013
pair_coeff 27 33 100.000000 1.111237
pair_coeff 27 34 100.000000 1.122462
pair_coeff 27 35 100.000000 1.133687
pair_coeff 27 36 100.000000 1.144911
pair_coeff 27 37 100.000000 1.156136
pair_coeff 27 38 100.000000 1.167361
pair_coeff 27 39 100.000000 1.178585
pair_coeff 27 40 100.000000 1.189810
pair_coeff 27 41 100.000000 1.201034
pair_coeff 27 42 100.000000 1.212259
pair_coeff 27 43 100.000000 1.223484
pair_coeff 27 44 100.000000 1.234708
pair_coeff 27 45 100.000000 1.245933
pair_coeff 27 46 100.000000 1.257157
pair_coeff 27 47 100.000000 1.268382
pair_coeff 27 48 100.000000 1.279607
pair_coeff 27 49 100.000000 1.290831
pair_coeff 27 50 100.000000 1.302056
pair_coeff 27 51 100.000000 1.313281
pair_coeff 27 52 100.000000 1.324505
pair_coeff 27 53 100.000000 1.335730
pair_coeff 27 54 100.000000 1.346954
pair_coeff 27 55 100.000000 1.358179
pair_coeff 27 56 100.000000 1.369404
pair_coeff 27 57 100.000000 1.380628
pair_coeff 27 58 100.000000 1.391853
pair_coeff 27 59 100.000000 1.403078
pair_coeff 27 60 100.000000 1.414302
pair_coeff 28 28 100.000000 1.066339
pair_coeff 28 29 100.000000 1.077564
pair_coeff 28 30 100.000000 1.088788
pair_coeff 28 31 100.000000 1.100013
pair_coeff 28 32 100.000000 1.111237
pair_coeff 28 33 100.000000 1.122462
pair_coeff 28 34 100.000000 1.133687
pair_coeff 28 35 100.000000 1.144911
pair_coeff 28 36 100.000000 1.156136
pair_coeff 28 37 100.000000 1.167361
pair_coeff 28 38 100.000000 1.178585
pair_coeff 28 39 100.000000 1.189810
pair_coeff 28 40 100.000000 1.201034
pair_coeff 28 41 100.000000 1.212259
pair_coeff 28 42 100.000000 1.223484
pair_coeff 28 43 100.000000 1.234708
pair_coeff 28 44 100.000000 1.245933
pair_coeff 28 45 100.000000 1.257157
pair_coeff 28 46 100.000000 1.268382
pair_coeff 28 47 100.000000 1.279607
pair_coeff 28 48 100.000000 1.290831
pair_coeff 28 49 100.000000 1.302056
pair_coeff 28 50 100.000000 1.313281
pair_coeff 28 51 100.000000 1.324505
pair_coeff 28 52 100.000000 1.335730
pair_coeff 28 53 100.000000 1.346954
pair_coeff 28 54 100.000000 1.358179
pair_coeff 28 55 100.000000 1.369404
pair_coeff 28 56 100.000000 1.380628
pair_coeff 28 57 100.000000 1.391853
pair_coeff 28 58 100.000000 1.403078
pair_coeff 28 59 100.000000 1.414302
pair_coeff 28 60 100.000000 1.425527
pair_coeff 29 29 100.000000 1.088788
pair_coeff 29 30 100.000000 1.100013
pair_coeff 29 31 100.000000 1.111237
pair_coeff 29 32 100.000000 1.122462
pair_coeff 29 33 100.000000 1.133687
pair_coeff 29 34 100.000000 1.144911
pair_coeff 29 35 100.000000 1.156136
pair_coeff 29 36 100.000000 1.167361
pair_coeff 29 37 100.000000 1.178585
pair_coeff 29 38 100.000000 1.189810
pair_coeff 29 39 100.000000 1.201034
pair_coeff 29 40 100.000000 1.212259
pair_coeff 29 41 100.000000 1.223484
pair_coeff 29 42 100.000000 1.234708
pair_coeff 29 43 100.000000 1.245933
pair_coeff 29 44 100.000000 1.257157
pair_coeff 29 45 100.000000 1.268382
pair_coeff 29 46 100.000000 1.279607
pair_coeff 29 47 100.000000 1.290831
pair_coeff 29 48 100.000000 1.302056
pair_coeff 29 49 100.000000 1.313281
pair_coeff 29 50 100.000000 1.324505
pair_coeff 29 51 100.000000 1.335730
pair_coeff 29 52 100.000000 1.346954
pair_coeff 29 53 100.000000 1.358179
pair_coeff 29 54 100.000000 1.369404
pair_coeff 29 55 100.000000 1.380628
pair_coeff 29 56 100.000000 1.391853
pair_coeff 29 57 100.000000 1.403078
pair_coeff 29 58 100.000000 1.414302
pair_coeff 29 59 100.000000 1.425527
pair_coeff 29 60 100.000000 1.436751
pair_coeff 30 30 100.000000 1.111237
pair_coeff 30 31 100.000000 1.122462
pair_coeff 30 32 100.000000 1.133687
pair_coeff 30 33 100.000000 1.144911
pair_coeff 30 34 100.000000 1.156136
pair_coeff 30 35 100.000000 1.167361
pair_coeff 30 36 100.000000 1.178585
pair_coeff 30 37 100.000000 1.189810
pair_coeff 30 38 100.000000 1.201034
pair_coeff 30 39 100.000000 1.212259
pair_coeff 30 40 100.000000 1.223484
pair_coeff 30 41 100.000000 1.234708
pair_coeff 30 42 100.000000 1.245933
pair_coeff 30 43 100.000000 1.257157
pair_coeff 30 44 100.000000 1.268382
pair_coeff 30 45 100.000000 1.279607
pair_coeff 30 46 100.000000 1.290831
pair_coeff 30 47 100.000000 1.302056
pair_coeff 30 48 100.000000 1.313281
pair_coeff 30 49 100.000000 1.324505
pair_coeff 30 50 100.000000 1.335730
pair_coeff 30 51 100.000000 1.346954
pair_coeff 30 52 100.000000 1.358179
pair_coeff 30 53 100.000000 1.369404
pair_coeff 30 54 100.000000 1.380628
pair_coeff 30 55 100.000000 1.391853
pair_coeff 30 56 100.000000 1.403078
pair_coeff 30 57 100.000000 1.414302
pair_coeff 30 58 100.000000 1.425527
pair_coeff 30 59 100.000000 1.436751
pair_coeff 30 60 100.000000 1.447976
pair_coeff 31 31 100.000000 1.133687
pair_coeff 31 32 100.000000 1.144911
pair_coeff 31 33 100.000000 1.156136
pair_coeff 31 34 100.000000 1.167361
pair_coeff 31 35 100.000000 1.178585
pair_coeff 31 36 100.000000 1.189810
pair_coeff 31 37 100.000000 1.201034
pair_coeff 31 38 100.000000 1.212259
pair_coeff 31 39 100.000000 1.223484
pair_coeff 31 40 100.000000 1.234708
pair_coeff 31 41 100.000000 1.245933
pair_coeff 31 42 100.000000 1.257157
pair_coeff 31 43 100.000000 1.268382
pair_coeff 31 44 100.000000 1.279607
pair_coeff 31 45 100.000000 1.290831
pair_coeff 31 46 100.000000 1.302056
pair_coeff 31 47 100.000000 1.313281
pair_coeff 31 48 100.000000 1.324505
pair_coeff 31 49 100.000000 1.335730
pair_coeff 31 50 100.000000 1.346954
pair_coeff 31 51 100.000000 1.358179
pair_coeff 31 52 100.000000 1.369404
pair_coeff 31 53 100.000000 1.380628
pair_coeff 31 54 100.000000 1.391853
pair_coeff 31 55 100.000000 1.403078
pair_coeff 31 56 100.000000 1.414302
pair_coeff 31 57 100.000000 1.425527
pair_coeff 31 58 100.000000 1.436751
pair_coeff 31 59 100.000000 1.447976
pair_coeff 31 60 100.000000 1.459201
pair_coeff 32 32 100.000000 1.156136
pair_coeff 32 33 100.000000 1.167361
pair_coeff 32 34 100.000000 1.178585
pair_coeff 32 35 100.000000 1.189810
pair_coeff 32 36 100.000000 1.201034
pair_coeff 32 37 100.000000 1.212259
pair_coeff 32 38 100.000000 1.223484
pair_coeff 32 39 100.000000 1.234708
pair_coeff 32 40 100.000000 1.245933
pair_coeff 32 41 100.000000 1.257157
pair_coeff 32 42 100.000000 1.268382
pair_coeff 32 43 100.000000 1.279607
pair_coeff 32 44 100.000000 1.290831
pair_coeff 32 45 100.000000 1.302056
pair_coeff 32 46 100.000000 1.313281
pair_coeff 32 47 100.000000 1.324505
pair_coeff 32 48 100.000000 1.335730
pair_coeff 32 49 100.000000 1.346954
pair_coeff 32 50 100.000000 1.358179
pair_coeff 32 51 100.000000 1.369404
pair_coeff 32 52 100.000000 1.380628
pair_coeff 32 53 100.000000 1.391853
pair_coeff 32 54 100.000000 1.403078
pair_coeff 32 55 100.000000 1.414302
pair_coeff 32 56 100.000000 1.425527
pair_coeff 32 57 100.000000 1.436751
pair_coeff 32 58 100.000000 1.447976
pair_coeff 32 59 100.000000 1.459201
pair_coeff 32 60 100.000000 1.470425
pair_coeff 33 33 100.000000 1.178585
pair_coeff 33 34 100.000000 1.189810
pair_coeff 33 35 100.000000 1.201034
pair_coeff 33 36 100.000000 1.212259
pair_coeff 33 37 100.000000 1.223484
pair_coeff 33 38 100.000000 1.234708
pair_coeff 33 39 100.000000 1.245933
pair_coeff 33 40 100.000000 1.257157
pair_coeff 33 41 100.000000 1.268382
pair_coeff 33 42 100.000000 1.279607
pair_coeff 33 43 100.000000 1.290831
pair_coeff 33 44 100.000000 1.302056
pair_coeff 33 45 100.000000 1.313281
pair_coeff 33 46 100.000000 1.324505
pair_coeff 33 47 100.000000 1.335730
pair_coeff 33 48 100.000000 1.346954
pair_coeff 33 49 100.000000 1.358179
pair_coeff 33 50 100.000000 1.369404
pair_coeff 33 51 100.000000 1.380628
pair_coeff 33 52 100.000000 1.391853
pair_coeff 33 53 100.000000 1.403078
pair_coeff 33 54 100.000000 1.414302
pair_coeff 33 55 100.000000 1.425527
pair_coeff 33 56 100.000000 1.436751
pair_coeff 33 57 100.000000 1.447976
pair_coeff 33 58 100.000000 1.459201
pair_coeff 33 59 100.000000 1.470425
pair_coeff 33 60 100.000000 1.481650
pair_coeff 34 34 100.000000 1.201034
pair_coeff 34 35 100.000000 1.212259
pair_coeff 34 36 100.000000 1.223484
pair_coeff 34 37 100.000000 1.234708
pair_coeff 34 38 100.000000 1.245933
pair_coeff 34 39 100.000000 1.257157
pair_coeff 34 40 100.000000 1.268382
pair_coeff 34 41 100.000000 1.279607
pair_coeff 34 42 100.000000 1.290831
pair_coeff 34 43 100.000000 1.302056
pair_coeff 34 44 100.000000 1.313281
pair_coeff 34 45 100.000000 1.324505
pair_coeff 34 46 100.000000 1.335730
pair_coeff 34 47 100.000000 1.346954
pair_coeff 34 48 100.000000 1.358179
pair_coeff 34 49 100.000000 1.369404
pair_coeff 34 50 100.000000 1.380628
pair_coeff 34 51 100.000000 1.391853
pair_coeff 34 52 100.000000 1.403078
pair_coeff 34 53 100.000000 1.414302
pair_coeff 34 54 100.000000 1.425527
pair_coeff 34 55 100.000000 1.436751
pair_coeff 34 56 100.000000 1.447976
pair_coeff 34 57 100.000000 1.459201
pair_coeff 34 58 100.000000 1.470425
pair_coeff 34 59 100.000000 1.481650
pair_coeff 34 60 100.000000 1.492875
pair_coeff 35 35 100.000000 1.223484
pair_coeff 35 36 100.000000 1.234708
pair_coeff 35 37 100.000000 1.245933
pair_coeff 35 38 100.000000 1.257157
pair_coeff 35 39 100.000000 1.268382
pair_coeff 35 40 100.000000 1.279607
pair_coeff 35 41 100.000000 1.290831
pair_coeff 35 42 100.000000 1.302056
pair_coeff 35 43 100.000000 1.313281
pair_coeff 35 44 100.000000 1.324505
pair_coeff 35 45 100.000000 1.335730
pair_coeff 35 46 100.000000 1.346954
pair_coeff 35 47 100.000000 1.358179
pair_coeff 35 48 100.000000 1.369404
pair_coeff 35 49 100.000000 1.380628
pair_coeff 35 50 100.000000 1.391853
pair_coeff 35 51 100.000000 1.403078
pair_coeff 35 52 100.000000 1.414302
pair_coeff 35 53 100.000000 1.425527
pair_coeff 35 54 100.000000 1.436751
pair_coeff 35 55 100.000000 1.447976
pair_coeff 35 56 100.000000 1.459201
pair_coeff 35 57 100.000000 1.470425
pair_coeff 35 58 100.000000 1.481650
pair_coeff 35 59 100.000000 1.492875
pair_coeff 35 60 100.000000 1.504099
pair_coeff 36 36 100.000000 1.245933
pair_coeff 36 37 100.000000 1.257157
pair_coeff 36 38 100.000000 1.268382
pair_coeff 36 39 100.000000 1.279607
pair_coeff 36 40 100.000000 1.290831
pair_coeff 36 41 100.000000 1.302056
pair_coeff 36 42 100.000000 1.313281
pair_coeff 36 43 100.000000 1.324505
pair_coeff 36 44 100.000000 1.335730
pair_coeff 36 45 100.000000 1.346954
pair_coeff 36 46 100.000000 1.358179
pair_coeff 36 47 100.000000 1.369404
pair_coeff 36 48 100.000000 1.380628
pair_coeff 36 49 100.000000 1.391853
pair_coeff 36 50 100.000000 1.403078
pair_coeff 36 51 100.000000 1.414302
pair_coeff 36 52 100.000000 1.425527
pair_coeff 36 53 100.000000 1.436751
pair_coeff 36 54 100.000000 1.447976
pair_coeff 36 55 100.000000 1.459201
pair_coeff 36 56 100.000000 1.470425
pair_coeff 36 57 100.000000 1.481650
pair_coeff 36 58 100.000000 1.492875
pair_coeff 36 59 100.000000 1.504099
pair_coeff 36 60 100.000000 1.515324
pair_coeff 37 37 100.000000 1.268382
pair_coeff 37 38 100.000000 1.279607
pair_coeff 37 39 100.000000 1.290831
pair_coeff 37 40 100.000000 1.302056
pair_coeff 37 41 100.000000 1.313281
pair_coeff 37 42 100.000000 1.324505
pair_coeff 37 43 100.000000 1.335730
pair_coeff 37 44 100.000000 1.346954
pair_coeff 37 45 100.000000 1.358179
pair_coeff 37 46 100.000000 1.369404
pair_coeff 37 47 100.000000 1.380628
pair_coeff 37 48 100.000000 1.391853
pair_coeff 37 49 100.000000 1.403078
pair_coeff 37 50 100.000000 1.414302
pair_coeff 37 51 100.000000 1.425527
pair_coeff 37 52 100.000000 1.436751
pair_coeff 37 53 100.000000 1.447976
pair_coeff 37 54 100.000000 1.459201
pair_coeff 37 55 100.000000 1.470425
pair_coeff 37 56 100.000000 1.481650
pair_coeff 37 57 100.000000 1.492875
pair_coeff 37 58 100.000000 1.504099
pair_coeff 37 59 100.000000 1.515324
pair_coeff 37 60 100.000000 1.526548
pair_coeff 38 38 100.000000 1.290831
pair_coeff 38 39 100.000000 1.302056
pair_coeff 38 40 100.000000 1.313281
pair_coeff 38 41 100.000000 1.324505
pair_coeff 38 42 100.000000 1.335730
pair_coeff 38 43 100.000000 1.346954
pair_coeff 38 44 100.000000 1.358179
pair_coeff 38 45 100.000000 1.369404
pair_coeff 38 46 100.000000 1.380628
pair_coeff 38 47 100.000000 1.391853
pair_coeff 38 48 100.000000 1.403078
pair_coeff 38 49 100.000000 1.414302
pair_coeff 38 50 100.000000 1.425527
pair_coeff 38 51 100.000000 1.436751
pair_coeff 38 52 100.000000 1.447976
pair_coeff 38 53 100.000000 1.459201
pair_coeff 38 54 100.000000 1.470425
pair_coeff 38 55 100.000000 1.481650
pair_coeff 38 56 100.000000 1.492875
pair_coeff 38 57 100.000000 1.504099
pair_coeff 38 58 100.000000 1.515324
pair_coeff 38 59 100.000000 1.526548
pair_coeff 38 60 100.000000 1.537773
pair_coeff 39 39 100.000000 1.313281
pair_coeff 39 40 100.000000 1.324505
pair_coeff 39 41 100.000000 1.335730
pair_coeff 39 42 100.000000 1.346954
pair_coeff 39 43 100.000000 1.358179
pair_coeff 39 44 100.000000 1.369404
pair_coeff 39 45 100.000000 1.380628
pair_coeff 39 46 100.000000 1.391853
pair_coeff 39 47 100.000000 1.403078
pair_coeff 39 48 100.000000 1.414302
pair_coeff 39 49 100.000000 1.425527
pair_coeff 39 50 100.000000 1.436751
pair_coeff 39 51 100.000000 1.447976
pair_coeff 39 52 100.000000 1.459201
pair_coeff 39 53 100.000000 1.470425
pair_coeff 39 54 100.000000 1.481650
pair_coeff 39 55 100.000000 1.492875
pair_coeff 39 56 100.000000 1.504099
pair_coeff 39 57 100.000000 1.515324
pair_coeff 39 58 100.000000 1.526548
pair_coeff 39 59 100.000000 1.537773
pair_coeff 39 60 100.000000 1.548998
pair_coeff 40 40 100.000000 1.335730
pair_coeff 40 41 100.000000 1.346954
pair_coeff 40 42 100.000000 1.358179
pair_coeff 40 43 100.000000 1.369404
pair_coeff 40 44 100.000000 1.380628
pair_coeff 40 45 100.000000 1.391853
pair_coeff 40 46 100.000000 1.403078
pair_coeff 40 47 100.000000 1.414302
pair_coeff 40 48 100.000000 1.425527
pair_coeff 40 49 100.000000 1.436751
pair_coeff 40 50 100.000000 1.447976
pair_coeff 40 51 100.000000 1.459201
pair_coeff 40 52 100.000000 1.470425
pair_coeff 40 53 100.000000 1.481650
pair_coeff 40 54 100.000000 1.492875
pair_coeff 40 55 100.000000 1.504099
pair_coeff 40 56 100.000000 1.515324
pair_coeff 40 57 100.000000 1.526548
pair_coeff 40 58 100.000000 1.537773
pair_coeff 40 59 100.000000 1.548998
pair_coeff 40 60 100.000000 1.560222
pair_coeff 41 41 100.000000 1.358179
pair_coeff 41 42 100.000000 1.369404
pair_coeff 41 43 100.000000 1.380628
pair_coeff 41 44 100.000000 1.391853
pair_coeff 41 45 100.000000 1.403078
pair_coeff 41 46 100.000000 1.414302
pair_coeff 41 47 100.000000 1.425527
pair_coeff 41 48 100.000000 1.436751
pair_coeff 41 49 100.000000 1.447976
pair_coeff 41 50 100.000000 1.459201
pair_coeff 41 51 100.000000 1.470425
pair_coeff 41 52 100.000000 1.481650
pair_coeff 41 53 100.000000 1.492875
pair_coeff 41 54 100.000000 1.504099
pair_coeff 41 55 100.000000 1.515324
pair_coeff 41 56 100.000000 1.526548
pair_coeff 41 57 100.000000 1.537773
pair_coeff 41 58 100.000000 1.548998
pair_coeff 41 59 100.000000 1.560222
pair_coeff 41 60 100.000000 1.571447
pair_coeff 42 42 100.000000 1.380628
pair_coeff 42 43 100.000000 1.391853
pair_coeff 42 44 100.000000 1.403078
pair_coeff 42 45 100.000000 1.414302
pair_coeff 42 46 100.000000 1.425527
pair_coeff 42 47 100.000000 1.436751
pair_coeff 42 48 100.000000 1.447976
pair_coeff 42 49 100.000000 1.459201
pair_coeff 42 50 100.000000 1.470425
pair_coeff 42 51 100.000000 1.481650
pair_coeff 42 52 100.000000 1.492875
pair_coeff 42 53 100.000000 1.504099
pair_coeff 42 54 100.000000 1.515324
pair_coeff 42 55 100.000000 1.526548
pair_coeff 42 56 100.000000 1.537773
pair_coeff 42 57 100.000000 1.548998
pair_coeff 42 58 100.000000 1.560222
pair_coeff 42 59 100.000000 1.571447
pair_coeff 42 60 100.000000 1.582671
pair_coeff 43 43 100.000000 1.403078
pair_coeff 43 44 100.000000 1.414302
pair_coeff 43 45 100.000000 1.425527
pair_coeff 43 46 100.000000 1.436751
pair_coeff 43 47 100.000000 1.447976
pair_coeff 43 48 100.000000 1.459201
pair_coeff 43 49 100.000000 1.470425
pair_coeff 43 50 100.000000 1.481650
pair_coeff 43 51 100.000000 1.492875
pair_coeff 43 52 100.000000 1.504099
pair_coeff 43 53 100.000000 1.515324
pair_coeff 43 54 100.000000 1.526548
pair_coeff 43 55 100.000000 1.537773
pair_coeff 43 56 100.000000 1.548998
pair_coeff 43 57 100.000000 1.560222
pair_coeff 43 58 100.000000 1.571447
pair_coeff 43 59 100.000000 1.582671
pair_coeff 43 60 100.000000 1.593896
pair_coeff 44 44 100.000000 1.425527
pair_coeff 44 45 100.000000 1.436751
pair_coeff 44 46 100.000000 1.447976
pair_coeff 44 47 100.000000 1.459201
pair_coeff 44 48 100.000000 1.470425
pair_coeff 44 49 100.000000 1.481650
pair_coeff 44 50 100.000000 1.492875
pair_coeff 44 51 100.000000 1.504099
pair_coeff 44 52 100.000000 1.515324
pair_coeff 44 53 100.000000 1.526548
pair_coeff 44 54 100.000000 1.537773
pair_coeff 44 55 100.000000 1.548998
pair_coeff 44 56 100.000000 1.560222
pair_coeff 44 57 100.000000 1.571447
pair_coeff 44 58 100.000000 1.582671
pair_coeff 44 59 100.000000 1.593896
pair_coeff 44 60 100.000000 1.605121
pair_coeff 45 45 100.000000 1.447976
pair_coeff 45 46 100.000000 1.459201
pair_coeff 45 47 100.000000 1.470425
pair_coeff 45 48 100.000000 1.481650
pair_coeff 45 49 100.000000 1.492875
pair_coeff 45 50 100.000000 1.504099
pair_coeff 45 51 100.000000 1.515324
pair_coeff 45 52 100.000000 1.526548
pair_coeff 45 53 100.000000 1.537773
pair_coeff 45 54 100.000000 1.548998
pair_coeff 45 55 100.000000 1.560222
pair_coeff 45 56 100.000000 1.571447
pair_coeff 45 57 100.000000 1.582671
pair_coeff 45 58 100.000000 1.593896
pair_coeff 45 59 100.000000 1.605121
pair_coeff 45 60 100.000000 1.616345
pair_coeff 46 46 100.000000 1.470425
pair_coeff 46 47 100.000000 1.481650
pair_coeff 46 48 100.000000 1.492875
pair_coeff 46 49 100.000000 1.504099
pair_coeff 46 50 100.000000 1.515324
pair_coeff 46 51 100.000000 1.526548
pair_coeff 46 52 100.000000 1.537773
pair_coeff 46 53 100.000000 1.548998
pair_coeff 46 54 100.000000 1.560222
pair_coeff 46 55 100.000000 1.571447
pair_coeff 46 56 100.000000 1.582671
pair_coeff 46 57 100.000000 1.593896
pair_coeff 46 58 100.000000 1.605121
pair_coeff 46 59 100.000000 1.616345
pair_coeff 46 60 100.000000 1.627570
pair_coeff 47 47 100.000000 1.492875
pair_coeff 47 48 100.000000 1.504099
pair_coeff 47 49 100.000000 1.515324
pair_coeff 47 50 100.000000 1.526548
pair_coeff 47 51 100.000000 1.537773
pair_coeff 47 52 100.000000 1.548998
pair_coeff 47 53 100.000000 1.560222
pair_coeff 47 54 100.000000 1.571447
pair_coeff 47 55 100.000000 1.582671
pair_coeff 47 56 100.000000 1.593896
pair_coeff 47 57 100.000000 1.605121
pair_coeff 47 58 100.000000 1.616345
pair_coeff 47 59 100.000000 1.627570
pair_coeff 47 60 100.000000 1.638795
pair_coeff 48 48 100.000000 1.515324
pair_coeff 48 49 100.000000 1.526548
pair_coeff 48 50 100.000000 1.537773
pair_coeff 48 51 100.000000 1.548998
pair_coeff 48 52 100.000000 1.560222
pair_coeff 48 53 100.000000 1.571447
pair_coeff 48 54 100.000000 1.582671
pair_coeff 48 55 100.000000 1.593896
pair_coeff 48 56 100.000000 1.605121
pair_coeff 48 57 100.000000 1.616345
pair_coeff 48 58 100.000000 1.627570
pair_coeff 48 59 100.000000 1.638795
pair_coeff 48 60 100.000000 1.650019
pair_coeff 49 49 100.000000 1.537773
pair_coeff 49 50 100.000000 1.548998
pair_coeff 49 51 100.000000 1.560222
pair_coeff 49 52 100.000000 1.571447
pair_coeff 49 53 100.000000 1.582671
pair_coeff 49 54 100.000000 1.593896
pair_coeff 49 55 100.000000 1.605121
pair_coeff 49 56 100.000000 1.616345
pair_coeff 49 57 100.000000 1.627570
pair_coeff 49 58 100.000000 1.638795
pair_coeff 49 59 100.000000 1.650019
pair_coeff 49 60 100.000000 1.661244
pair_coeff 50 50 100.000000 1.560222
pair_coeff 50 51 100.000000 1.571447
pair_coeff 50 52 100.000000 1.582671
pair_coeff 50 53 100.000000 1.593896
pair_coeff 50 54 100.000000 1.605121
pair_coeff 50 55 100.000000 1.616345
pair_coeff 50 56 100.000000 1.627570
pair_coeff 50 57 100.000000 1.638795
pair_coeff 50 58 100.000000 1.650019
pair_coeff 50 59 100.000000 1.661244
pair_coeff 50 60 100.000000 1.672468
pair_coeff 51 51 100.000000 1.582671
pair_coeff 51 52 100.000000 1.593896
pair_coeff 51 53 100.000000 1.605121
pair_coeff 51 54 100.000000 1.616345
pair_coeff 51 55 100.000000 1.627570
pair_coeff 51 56 100.000000 1.638795
pair_coeff 51 57 100.000000 1.650019
pair_coeff 51 58 100.000000 1.661244
pair_coeff 51 59 100.000000 1.672468
pair_coeff 51 60 100.000000 1.683693
pair_coeff 52 52 100.000000 1.605121
pair_coeff 52 53 100.000000 1.616345
pair_coeff 52 54 100.000000 1.627570
pair_coeff 52 55 100.000000 1.638795
pair_coeff 52 56 100.000000 1.650019
pair_coeff 52 57 100.000000 1.661244
pair_coeff 52 58 100.000000 1.672468
pair_coeff 52 59 100.000000 1.683693
pair_coeff 52 60 100.000000 1.694918
pair_coeff 53 53 100.000000 1.627570
pair_coeff 53 54 100.000000 1.638795
pair_coeff 53 55 100.000000 1.650019
pair_coeff 53 56 100.000000 1.661244
pair_coeff 53 57 100.000000 1.672468
pair_coeff 53 58 100.000000 1.683693
pair_coeff 53 59 100.000000 1.694918
pair_coeff 53 60 100.000000 1.706142
pair_coeff 54 54 100.000000 1.650019
pair_coeff 54 55 100.000000 1.661244
pair_coeff 54 56 100.000000 1.672468
pair_coeff 54 57 100.000000 1.683693
pair_coeff 54 58 100.000000 1.694918
pair_coeff 54 59 100.000000 1.706142
pair_coeff 54 60 100.000000 1.717367
pair_coeff 55 55 100.000000 1.672468
pair_coeff 55 56 100.000000 1.683693
pair_coeff 55 57 100.000000 1.694918
pair_coeff 55 58 100.000000 1.706142
pair_coeff 55 59 100.000000 1.717367
pair_coeff 55 60 100.000000 1.728592
pair_coeff 56 56 100.000000 1.694918
pair_coeff 56 57 100.000000 1.706142
pair_coeff 56 58 100.000000 1.717367
pair_coeff 56 59 100.000000 1.728592
pair_coeff 56 60 100.000000 1.739816
pair_coeff 57 57 100.000000 1.717367
pair_coeff 57 58 100.000000 1.728592
pair_coeff 57 59 100.000000 1.739816
pair_coeff 57 60 100.000000 1.751041
pair_coeff 58 58 100.000000 1.739816
pair_coeff 58 59 100.000000 1.751041
pair_coeff 58 60 100.000000 1.762265
pair_coeff 59 59 100.000000 1.762265
pair_coeff 59 60 100.000000 1.773490
pair_coeff 60 60 100.000000 1.784715

fix 1 all nve
fix 2 all langevin 1.0 1.0 1.0 31
fix 3 all enforce2d

thermo 1000
thermo_style custom step temp epair press pxx pyy vol

timestep 0.01
run 250000   # short soft push to relax
Neighbor list info ...
  update every 1 steps, delay 1 steps, check yes
  max neighbors/atom: 2000, page size: 100000
  master list distance cutoff = 3.68471
  ghost atom cutoff = 3.68471
  binsize = 1.84236, bins = 17 17 1
  1 neighbor lists, perpetual/occasional/extra = 1 0 0
  (1) pair soft, perpetual
      attributes: half, newton on
      pair build: half/bin/atomonly/newton
      stencil: half/bin/2d/newton
      bin: standard
Per MPI rank memory allocation (min/avg/max) = 3.754 | 3.754 | 3.754 Mbytes
Step Temp E_pair Press Pxx Pyy Volume 
       0            0     132.7618    146.92772    150.87998    142.97546    900.50755 
    1000    1.0524755    15.680116    127.32956    127.29014    127.36897    900.50755 
    2000    1.0552044    15.510851    127.11936    127.61209    126.62662    900.50755 
    3000    1.0160972    15.454877     126.7392    127.42438    126.05401    900.50755 
    4000    1.0886609    15.433979    126.99954    127.25903    126.74006    900.50755 
    5000    1.0076541    15.383055     127.2847    128.10462    126.46478    900.50755 
    6000    0.9598296    15.428526    126.96915    127.42986    126.50844    900.50755 
    7000    1.0095083    15.392808    126.83938    127.15367    126.52509    900.50755 
    8000   0.99966363    15.370516    126.57196    127.82705    125.31688    900.50755 
    9000    1.0187756    15.403788    126.61865    127.19176    126.04553    900.50755 
   10000    1.0193472     15.35829    126.70491    127.25802    126.15181    900.50755 
   11000    1.0454998    15.455202    126.53036    127.43794    125.62277    900.50755 
   12000    1.0585577    15.412379    126.96782    128.04659    125.88906    900.50755 
   13000   0.96928688     15.33756    126.51484    126.60968    126.41999    900.50755 
   14000   0.96200898    15.415254    126.82795     127.1864     126.4695    900.50755 
   15000    1.0386804    15.415873    126.61261    127.18437    126.04085    900.50755 
   16000   0.95653677    15.398965    126.64375    127.60846    125.67905    900.50755 
   17000    1.0134224    15.422735    126.32656    126.62649    126.02664    900.50755 
   18000    1.0173751    15.382263    126.76297    127.01855    126.50738    900.50755 
   19000    1.0033697    15.362765    126.78844     127.0191    126.55778    900.50755 
   20000   0.98077628    15.353226    125.94648    125.47869    126.41427    900.50755 
   21000    1.0413233    15.342492    126.52464    126.85078     126.1985    900.50755 
   22000   0.97633569    15.326659    126.48238    126.70864    126.25612    900.50755 
   23000    1.0355473    15.332449    126.48739    126.52749     126.4473    900.50755 
   24000    1.0414006    15.330581    126.61034    126.91707    126.30361    900.50755 
   25000    1.0153826    15.339853    126.59172    126.17191    127.01154    900.50755 
   26000   0.98023276    15.291423      126.417    126.50679    126.32721    900.50755 
   27000   0.96043969    15.338884    126.29728    126.19294    126.40163    900.50755 
   28000    1.0311764    15.379902    126.52411    126.61156    126.43666    900.50755 
   29000   0.99840353    15.369779    126.91124    127.40158     126.4209    900.50755 
   30000   0.98522944    15.344156    126.40118    126.88156     125.9208    900.50755 
   31000    1.0041496    15.263202    126.52532    127.09154    125.95911    900.50755 
   32000   0.99246211    15.362083    126.41041    126.56492     126.2559    900.50755 
   33000    1.0140364    15.330185    126.62442    127.42811    125.82073    900.50755 
   34000    1.0515546    15.385405    126.60632    126.53081    126.68182    900.50755 
   35000    1.0351413    15.244851    126.95963    127.32975    126.58951    900.50755 
   36000    1.0424817    15.338146    126.51906    126.30026    126.73786    900.50755 
   37000   0.98141768    15.305463    126.23685     126.4782    125.99551    900.50755 
   38000    1.0234243    15.237422     126.3975    126.04654    126.74846    900.50755 
   39000   0.97474456    15.279214    126.69742    126.49482    126.90002    900.50755 
   40000    1.0440809    15.269064    126.60448    126.34022    126.86875    900.50755 
   41000    1.0343683    15.226375     126.3671    126.91773    125.81646    900.50755 
   42000    1.0384844     15.25959    126.32546    127.14236    125.50856    900.50755 
   43000    1.0232732    15.280595    126.67704    127.48972    125.86435    900.50755 
   44000    1.0294717    15.240475    126.51316    127.24221    125.78411    900.50755 
   45000    1.0271387    15.308685    126.60334     127.3423    125.86438    900.50755 
   46000    1.0057238     15.26153    126.76853    127.50376    126.03331    900.50755 
   47000   0.96703616    15.253943    126.48994    127.12954    125.85035    900.50755 
   48000    1.0185813    15.262403     126.2909    127.15635    125.42545    900.50755 
   49000    1.0415702    15.262651    126.97194    127.97587    125.96801    900.50755 
   50000   0.98912724    15.216116    126.70443    127.17019    126.23866    900.50755 
   51000    1.0357934    15.210087    126.55998    127.05381    126.06615    900.50755 
   52000     1.014502    15.240231    126.89875    127.81752    125.97997    900.50755 
   53000    1.0504829    15.252914    126.50976    127.43058    125.58894    900.50755 
   54000    1.0021393    15.215977    126.58438    127.07098    126.09778    900.50755 
   55000    1.0086566    15.244674    126.38094    126.87845    125.88342    900.50755 
   56000    1.0304343    15.261465    126.53423    127.54097     125.5275    900.50755 
   57000   0.99380627    15.227062    126.71393    127.19993    126.22792    900.50755 
   58000    1.0434185    15.279884    126.22959    127.35443    125.10475    900.50755 
   59000    0.9642333    15.225661    126.90898    128.20284    125.61512    900.50755 
   60000   0.96063113    15.170324    126.42346    127.37111    125.47582    900.50755 
   61000    1.0321274    15.245866    126.45607    127.71845     125.1937    900.50755 
   62000    1.0365623    15.209405    126.25391    126.71796    125.78987    900.50755 
   63000    1.0236783    15.185328    126.34395    127.30023    125.38766    900.50755 
   64000    1.0015992    15.180188    126.33791    127.04293    125.63288    900.50755 
   65000   0.98515867    15.229537    126.40151     127.5978    125.20522    900.50755 
   66000    1.0093357     15.22589    126.56401    127.24786    125.88015    900.50755 
   67000   0.93845975     15.22499    126.23996    126.94439    125.53552    900.50755 
   68000   0.98668216    15.248947    126.57524    127.43614    125.71434    900.50755 
   69000    1.0328825    15.188171     126.1119    127.20474    125.01905    900.50755 
   70000    1.0278147    15.167435     126.8589     127.8615    125.85631    900.50755 
   71000    1.0386701    15.264516     126.1008    127.03164    125.16996    900.50755 
   72000    1.0289283    15.213322    126.35634    126.95833    125.75434    900.50755 
   73000   0.98604364    15.204087    126.08503    127.24421    124.92586    900.50755 
   74000   0.94116571    15.156534    126.51771    127.55434    125.48108    900.50755 
   75000   0.92734483     15.30054    126.16683    127.40846     124.9252    900.50755 
   76000   0.98529285    15.215064    126.76188    127.48467    126.03909    900.50755 
   77000   0.98794513    15.168439     126.4763    127.08738    125.86522    900.50755 
   78000    1.0557332    15.222773    126.51486    127.57148    125.45824    900.50755 
   79000     1.037852    15.220911    126.40474     127.1475    125.66198    900.50755 
   80000    1.0085422    15.287205      126.008    126.53284    125.48316    900.50755 
   81000    1.0304169    15.239897    126.38255     127.4498     125.3153    900.50755 
   82000    1.0427442    15.176351    126.72313    127.92844    125.51782    900.50755 
   83000   0.99036789    15.237074    126.46176    127.55455    125.36896    900.50755 
   84000   0.97606082    15.218258    126.56225     127.1856    125.93891    900.50755 
   85000     1.015557    15.300922     126.4265    127.41866    125.43433    900.50755 
   86000   0.89364718     15.24572    126.54136    127.30529    125.77743    900.50755 
   87000    1.0380796    15.243557    126.37099    127.26049    125.48148    900.50755 
   88000    1.0621885    15.203853    126.64326    127.30008    125.98643    900.50755 
   89000   0.96163876    15.186216    126.34974    126.88133    125.81815    900.50755 
   90000    1.0571485    15.221352    126.93558     128.1983    125.67286    900.50755 
   91000    1.0408073    15.224489    126.52215    127.42727    125.61702    900.50755 
   92000    1.0211112    15.190299     126.9159    127.68261     126.1492    900.50755 
   93000   0.98468035    15.196735    126.44133    127.40193    125.48072    900.50755 
   94000    1.0169052    15.229102    126.65439    127.45229    125.85648    900.50755 
   95000   0.94376388    15.280098    126.20535    127.14138    125.26932    900.50755 
   96000   0.98265609    15.276186    126.27527    126.98635    125.56419    900.50755 
   97000     1.050521    15.174133    126.87864    127.46669     126.2906    900.50755 
   98000    1.0112338    15.246592    126.26346    127.60618    124.92074    900.50755 
   99000     1.007521    15.220833    126.36203      127.255    125.46905    900.50755 
  100000    1.0447791    15.245646    126.37899    127.41458    125.34339    900.50755 
  101000    1.0012401    15.193487    126.49613    127.51054    125.48171    900.50755 
  102000   0.98704236    15.255908     126.0144    126.60139    125.42741    900.50755 
  103000   0.97820075    15.241492    126.50179    127.29046    125.71312    900.50755 
  104000   0.98214269    15.213092    126.59532    128.03307    125.15758    900.50755 
  105000   0.99734531    15.235686    126.46222    127.69649    125.22796    900.50755 
  106000     1.003327    15.248782    126.57915    127.59148    125.56681    900.50755 
  107000    1.0205418    15.238443    126.67341    127.46365    125.88316    900.50755 
  108000   0.98870444    15.178273    126.08233    127.07471    125.08995    900.50755 
  109000   0.97613674    15.227273    126.16039    126.83677    125.48401    900.50755 
  110000    1.0552905    15.200674    126.41262    127.47194     125.3533    900.50755 
  111000   0.96885613    15.200389    126.24798    127.19636    125.29961    900.50755 
  112000    1.0604277    15.232576    126.43793     127.1858    125.69005    900.50755 
  113000    1.0166757    15.184101    126.56275    127.51815    125.60734    900.50755 
  114000    1.0367758    15.215126    126.85715    128.07066    125.64365    900.50755 
  115000   0.99879053    15.168141    126.13023    127.25432    125.00614    900.50755 
  116000   0.97438009    15.231108     126.4417    126.82897    126.05444    900.50755 
  117000    1.0377259    15.213409    126.40918    127.32497    125.49338    900.50755 
  118000    1.0331809    15.218734    127.06171    127.53699    126.58643    900.50755 
  119000   0.99111613    15.316664     126.3792    127.29756    125.46084    900.50755 
  120000   0.99382114    15.179911    126.74017    127.79407    125.68626    900.50755 
  121000    1.0088146    15.211473    126.38706     127.7037    125.07042    900.50755 
  122000    1.0154605    15.188534    126.41918    127.27027     125.5681    900.50755 
  123000   0.98300431    15.239596     126.2825    127.20874    125.35626    900.50755 
  124000   0.98608544    15.164575    126.13729    126.94686    125.32772    900.50755 
  125000    0.9809909    15.230985    126.37114    127.25779    125.48449    900.50755 
  126000    1.0216424    15.199002    126.87844    127.85876    125.89811    900.50755 
  127000   0.99317895    15.150085    126.40821    127.65731    125.15911    900.50755 
  128000    1.0747534    15.220044    126.63616    127.57432      125.698    900.50755 
  129000   0.96142933    15.245512    125.94759    126.79094    125.10424    900.50755 
  130000   0.94368547    15.209489    126.12341    127.28093    124.96589    900.50755 
  131000   0.98853616    15.243084    126.52101    127.52972    125.51231    900.50755 
  132000    1.0333328    15.278885    126.35964    127.87896    124.84032    900.50755 
  133000   0.99880437    15.221041    126.79073    127.85951    125.72195    900.50755 
  134000    0.9693513     15.19032    126.48652    126.98691    125.98613    900.50755 
  135000    1.0066321    15.210202    125.72752    126.19225    125.26279    900.50755 
  136000    1.0382023    15.211038    126.42943    127.29254    125.56631    900.50755 
  137000   0.96800929    15.253009    126.62029    127.43103    125.80955    900.50755 
  138000   0.97987878    15.251672    126.49604    126.97602    126.01606    900.50755 
  139000   0.99201247    15.215187    126.27199    127.07323    125.47075    900.50755 
  140000    1.0309573    15.237526    126.43057    127.44354    125.41759    900.50755 
  141000    0.9887982     15.20145    126.63489    127.16192    126.10787    900.50755 
  142000   0.96939827    15.236233    126.37711    127.24639    125.50783    900.50755 
  143000    1.0046402    15.241448    126.29387     127.3419    125.24583    900.50755 
  144000    1.0095568    15.211426    126.18798    126.64621    125.72974    900.50755 
  145000    1.0150521     15.21312    126.22264     127.3629    125.08239    900.50755 
  146000    1.0099577    15.161729    126.83545    127.72553    125.94538    900.50755 
  147000   0.96726369    15.242455    126.51591    127.09732    125.93449    900.50755 
  148000    1.0194723    15.183359    126.45892     127.5582    125.35963    900.50755 
  149000   0.95846089    15.224171    126.43524    128.20493    124.66555    900.50755 
  150000   0.99030442    15.238546    126.53812    127.16688    125.90937    900.50755 
  151000    1.0040332    15.246359    126.73487    127.66066    125.80909    900.50755 
  152000    1.0060713    15.216221     126.4676    127.46023    125.47496    900.50755 
  153000   0.97873155    15.223296    126.38265    127.35826    125.40704    900.50755 
  154000    1.0133001     15.23522    126.91177    127.99787    125.82568    900.50755 
  155000    1.0257042    15.202665    126.58288    127.29693    125.86882    900.50755 
  156000    1.0373301    15.219587    126.55467    127.45834      125.651    900.50755 
  157000    1.0177945    15.291266    126.23038    127.00542    125.45533    900.50755 
  158000   0.99444096    15.262218    126.39043    127.35375     125.4271    900.50755 
  159000   0.98689838    15.215725    126.32901    127.30347    125.35454    900.50755 
  160000    1.0426977    15.211012    126.71445    127.62611     125.8028    900.50755 
  161000   0.99269506    15.240567    126.17506    126.94554    125.40459    900.50755 
  162000    1.0400431    15.209271    126.53527    127.47914     125.5914    900.50755 
  163000   0.98888636    15.204617     126.4044    127.07043    125.73837    900.50755 
  164000     0.979033    15.245588    126.37925    127.38145    125.37706    900.50755 
  165000    1.0072693    15.113056    126.72159      127.318    126.12518    900.50755 
  166000   0.99052821    15.258964    126.09002    127.18738    124.99266    900.50755 
  167000   0.96813986     15.20101    126.63386    127.48238    125.78534    900.50755 
  168000   0.97040277    15.223543    126.45336      127.505    125.40171    900.50755 
  169000    1.0544768    15.149392    126.74408    127.97109    125.51706    900.50755 
  170000    1.0761467    15.235925     126.5103    127.88001     125.1406    900.50755 
  171000    1.0392207    15.163733    126.38438    126.61925    126.14952    900.50755 
  172000     1.020276    15.266488    126.37332    127.77341    124.97322    900.50755 
  173000   0.98455849    15.249802    126.78142    127.86321    125.69962    900.50755 
  174000   0.94855901     15.28582    126.19046    127.08644    125.29448    900.50755 
  175000    1.0287491    15.321975    126.38794    126.73293    126.04295    900.50755 
  176000    0.9790601    15.254432    126.35705    127.56202    125.15207    900.50755 
  177000     1.016156     15.21328     126.4462    127.05304    125.83936    900.50755 
  178000     0.955693    15.236932    126.40628     127.2123    125.60026    900.50755 
  179000   0.99920143    15.234309    126.71172    127.43898    125.98447    900.50755 
  180000    1.0160405    15.210011    126.29978    127.97779    124.62176    900.50755 
  181000    1.0430395    15.260247    126.49021    127.76108    125.21934    900.50755 
  182000   0.98894663    15.228024    126.01028     126.7911    125.22945    900.50755 
  183000   0.99046513    15.164652    126.41293    127.53309    125.29277    900.50755 
  184000    0.9730665    15.250298    126.36175    127.37004    125.35345    900.50755 
  185000   0.92028308    15.234499    126.78383    127.92055    125.64711    900.50755 
  186000   0.99953652    15.201834     126.6323    127.70295    125.56166    900.50755 
  187000   0.98074356    15.182523    126.91878    127.56047    126.27708    900.50755 
  188000   0.96836236    15.234711    126.48505    127.27912    125.69099    900.50755 
  189000    1.0164032    15.203289    126.46723    127.60305    125.33142    900.50755 
  190000   0.98060485    15.209029    126.47314    127.63124    125.31505    900.50755 
  191000    1.0379432     15.26103    126.60087    127.16633    126.03542    900.50755 
  192000    1.0268421    15.292633    126.66142     128.1315    125.19134    900.50755 
  193000   0.97811781    15.250913      126.404    127.96289    124.84512    900.50755 
  194000   0.99508264    15.239012    126.64679    127.76121    125.53237    900.50755 
  195000   0.98070121    15.291672    126.16971    126.48966    125.84977    900.50755 
  196000    1.0126688    15.225147    126.02377    126.95876    125.08878    900.50755 
  197000   0.95867602    15.232482    126.63754    127.56846    125.70662    900.50755 
  198000   0.98476202    15.229396    126.51854    127.36936    125.66772    900.50755 
  199000    1.0035321    15.205085    126.60969    127.44625    125.77313    900.50755 
  200000   0.98398485    15.251647     126.4671     127.0473     125.8869    900.50755 
  201000    1.0053594    15.268007    126.13598    127.24319    125.02876    900.50755 
  202000   0.98702156    15.206969    126.85278    128.00885     125.6967    900.50755 
  203000   0.99715926    15.217423    126.75712    127.75896    125.75528    900.50755 
  204000    0.9920121    15.175459    126.50298    127.49026     125.5157    900.50755 
  205000   0.99476212    15.207956     126.2864    127.31107    125.26174    900.50755 
  206000     1.021133    15.176833    126.27224    126.74313    125.80136    900.50755 
  207000   0.98400136    15.230912    126.48191    127.12258    125.84124    900.50755 
  208000   0.97680617    15.262805    126.18224    126.49813    125.86635    900.50755 
  209000   0.96785298    15.275203    126.31698    127.25677    125.37719    900.50755 
  210000   0.98077425     15.28267    126.22234    127.24565    125.19903    900.50755 
  211000   0.99560266    15.192858    126.54636    127.42901    125.66371    900.50755 
  212000   0.98751607    15.208334    126.61885    127.13898    126.09873    900.50755 
  213000    0.9831034    15.242103    126.39726    126.57362     126.2209    900.50755 
  214000    1.0079659    15.185424    126.15292    127.19048    125.11536    900.50755 
  215000     1.028857    15.214509    126.38723    127.53299    125.24147    900.50755 
  216000    1.0051124    15.199478    126.31656    127.39622    125.23691    900.50755 
  217000   0.98860232    15.291497    126.16461     127.4039    124.92533    900.50755 
  218000   0.95209067     15.24473    126.28122    127.60345      124.959    900.50755 
  219000    0.9970986    15.232047    126.40375    126.80796    125.99954    900.50755 
  220000   0.95176621    15.173839    126.23782    127.35488    125.12075    900.50755 
  221000     1.040789    15.230894    126.34346    127.24827    125.43864    900.50755 
  222000    1.0124837    15.235614    126.31565    127.17675    125.45455    900.50755 
  223000   0.97187603    15.165869    126.47334    127.12208    125.82459    900.50755 
  224000    1.0181844    15.222674    126.54069    127.22305    125.85834    900.50755 
  225000   0.99194353    15.262107    126.01935    127.38971    124.64899    900.50755 
  226000    1.0399091    15.173299    126.75414    127.46356    126.04473    900.50755 
  227000    1.0210792     15.25335    126.09332    126.90769    125.27894    900.50755 
  228000   0.97855498    15.215456    126.39491    127.35912     125.4307    900.50755 
  229000   0.98737481     15.28448    126.23861    127.16253    125.31468    900.50755 
  230000   0.92880635     15.20483    126.16023    126.95503    125.36543    900.50755 
  231000   0.95605757    15.174001    126.33061    127.30729    125.35393    900.50755 
  232000   0.99255983    15.221149    126.31577    126.78606    125.84548    900.50755 
  233000   0.96371424     15.19367    126.39957    127.27583    125.52331    900.50755 
  234000   0.99853455    15.178459    126.39479    127.40648    125.38309    900.50755 
  235000    1.0300285    15.190675    126.49697    127.42805    125.56589    900.50755 
  236000   0.97109083    15.197041    126.25586    127.01566    125.49605    900.50755 
  237000    1.0083858    15.257186    126.18051    127.08051    125.28051    900.50755 
  238000     1.008869    15.182829    126.59677    127.71516    125.47838    900.50755 
  239000    1.0547582    15.272811    126.34528    127.03168    125.65889    900.50755 
  240000    1.0055397    15.256157    126.16664    127.02289    125.31039    900.50755 
  241000   0.97070924    15.215702    126.05512    126.73698    125.37326    900.50755 
  242000     1.001898    15.244073    126.71466    127.44636    125.98297    900.50755 
  243000    1.0280726    15.146418    126.70229    126.97765    126.42693    900.50755 
  244000   0.99296898    15.232878    126.40564    127.42124    125.39004    900.50755 
  245000    1.0428598    15.261117     126.4513    126.78748    126.11513    900.50755 
  246000   0.93708245     15.21176    126.86207    127.37678    126.34736    900.50755 
  247000    1.0229647    15.234217    126.64142    127.49315     125.7897    900.50755 
  248000   0.99488814    15.220459    126.34383     127.3271    125.36056    900.50755 
  249000   0.95510735    15.182443    126.64889    127.71373    125.58405    900.50755 
  250000   0.99368974    15.270531    126.42515    127.31085    125.53944    900.50755 
Loop time of 87.0561 on 1 procs for 250000 steps with 1000 atoms

Performance: 2481159.821 tau/day, 2871.713 timesteps/s
99.0% CPU use with 1 MPI tasks x no OpenMP threads

MPI task timing breakdown:
Section |  min time  |  avg time  |  max time  |%varavg| %total
---------------------------------------------------------------
Pair    | 67.022     | 67.022     | 67.022     |   0.0 | 76.99
Neigh   | 0.035383   | 0.035383   | 0.035383   |   0.0 |  0.04
Comm    | 0.83811    | 0.83811    | 0.83811    |   0.0 |  0.96
Output  | 0.039983   | 0.039983   | 0.039983   |   0.0 |  0.05
Modify  | 17.807     | 17.807     | 17.807     |   0.0 | 20.46
Other   |            | 1.313      |            |       |  1.51

Nlocal:    1000 ave 1000 max 1000 min
Histogram: 1 0 0 0 0 0 0 0 0 0
Nghost:    566 ave 566 max 566 min
Histogram: 1 0 0 0 0 0 0 0 0 0
Neighs:    15955 ave 15955 max 15955 min
Histogram: 1 0 0 0 0 0 0 0 0 0

Total # of neighbors = 15955
Ave neighs/atom = 15.955
Neighbor list builds = 78
Dangerous builds = 0

###################################################################
# PRODUCTION STAGE
# Switch to Lennard-Jones interactions
###################################################################

pair_style lj/cut 1.12246152962189
pair_modify shift yes

#pair_coeff 1 1 1.0 1.0 1.12246152962189
include pair.polydisperse
pair_coeff 1 1 1.000000 0.410000 0.460209
pair_coeff 1 2 1.000000 0.420000 0.471434
pair_coeff 1 3 1.000000 0.430000 0.482659
pair_coeff 1 4 1.000000 0.440000 0.493883
pair_coeff 1 5 1.000000 0.450000 0.505108
pair_coeff 1 6 1.000000 0.460000 0.516333
pair_coeff 1 7 1.000000 0.470000 0.527557
pair_coeff 1 8 1.000000 0.480000 0.538782
pair_coeff 1 9 1.000000 0.490000 0.550006
pair_coeff 1 10 1.000000 0.500000 0.561231
pair_coeff 1 11 1.000000 0.510000 0.572456
pair_coeff 1 12 1.000000 0.520000 0.583680
pair_coeff 1 13 1.000000 0.530000 0.594905
pair_coeff 1 14 1.000000 0.540000 0.606130
pair_coeff 1 15 1.000000 0.550000 0.617354
pair_coeff 1 16 1.000000 0.560000 0.628579
pair_coeff 1 17 1.000000 0.570000 0.639803
pair_coeff 1 18 1.000000 0.580000 0.651028
pair_coeff 1 19 1.000000 0.590000 0.662253
pair_coeff 1 20 1.000000 0.600000 0.673477
pair_coeff 1 21 1.000000 0.610000 0.684702
pair_coeff 1 22 1.000000 0.620000 0.695926
pair_coeff 1 23 1.000000 0.630000 0.707151
pair_coeff 1 24 1.000000 0.640000 0.718376
pair_coeff 1 25 1.000000 0.650000 0.729600
pair_coeff 1 26 1.000000 0.660000 0.740825
pair_coeff 1 27 1.000000 0.670000 0.752050
pair_coeff 1 28 1.000000 0.680000 0.763274
pair_coeff 1 29 1.000000 0.690000 0.774499
pair_coeff 1 30 1.000000 0.700000 0.785723
pair_coeff 1 31 1.000000 0.710000 0.796948
pair_coeff 1 32 1.000000 0.720000 0.808173
pair_coeff 1 33 1.000000 0.730000 0.819397
pair_coeff 1 34 1.000000 0.740000 0.830622
pair_coeff 1 35 1.000000 0.750000 0.841847
pair_coeff 1 36 1.000000 0.760000 0.853071
pair_coeff 1 37 1.000000 0.770000 0.864296
pair_coeff 1 38 1.000000 0.780000 0.875520
pair_coeff 1 39 1.000000 0.790000 0.886745
pair_coeff 1 40 1.000000 0.800000 0.897970
pair_coeff 1 41 1.000000 0.810000 0.909194
pair_coeff 1 42 1.000000 0.820000 0.920419
pair_coeff 1 43 1.000000 0.830000 0.931644
pair_coeff 1 44 1.000000 0.840000 0.942868
pair_coeff 1 45 1.000000 0.850000 0.954093
pair_coeff 1 46 1.000000 0.860000 0.965317
pair_coeff 1 47 1.000000 0.870000 0.976542
pair_coeff 1 48 1.000000 0.880000 0.987767
pair_coeff 1 49 1.000000 0.890000 0.998991
pair_coeff 1 50 1.000000 0.900000 1.010216
pair_coeff 1 51 1.000000 0.910000 1.021440
pair_coeff 1 52 1.000000 0.920000 1.032665
pair_coeff 1 53 1.000000 0.930000 1.043890
pair_coeff 1 54 1.000000 0.940000 1.055114
pair_coeff 1 55 1.000000 0.950000 1.066339
pair_coeff 1 56 1.000000 0.960000 1.077564
pair_coeff 1 57 1.000000 0.970000 1.088788
pair_coeff 1 58 1.000000 0.980000 1.100013
pair_coeff 1 59 1.000000 0.990000 1.111237
pair_coeff 1 60 1.000000 1.000000 1.122462
pair_coeff 2 2 1.000000 0.430000 0.482659
pair_coeff 2 3 1.000000 0.440000 0.493883
pair_coeff 2 4 1.000000 0.450000 0.505108
pair_coeff 2 5 1.000000 0.460000 0.516333
pair_coeff 2 6 1.000000 0.470000 0.527557
pair_coeff 2 7 1.000000 0.480000 0.538782
pair_coeff 2 8 1.000000 0.490000 0.550006
pair_coeff 2 9 1.000000 0.500000 0.561231
pair_coeff 2 10 1.000000 0.510000 0.572456
pair_coeff 2 11 1.000000 0.520000 0.583680
pair_coeff 2 12 1.000000 0.530000 0.594905
pair_coeff 2 13 1.000000 0.540000 0.606130
pair_coeff 2 14 1.000000 0.550000 0.617354
pair_coeff 2 15 1.000000 0.560000 0.628579
pair_coeff 2 16 1.000000 0.570000 0.639803
pair_coeff 2 17 1.000000 0.580000 0.651028
pair_coeff 2 18 1.000000 0.590000 0.662253
pair_coeff 2 19 1.000000 0.600000 0.673477
pair_coeff 2 20 1.000000 0.610000 0.684702
pair_coeff 2 21 1.000000 0.620000 0.695926
pair_coeff 2 22 1.000000 0.630000 0.707151
pair_coeff 2 23 1.000000 0.640000 0.718376
pair_coeff 2 24 1.000000 0.650000 0.729600
pair_coeff 2 25 1.000000 0.660000 0.740825
pair_coeff 2 26 1.000000 0.670000 0.752050
pair_coeff 2 27 1.000000 0.680000 0.763274
pair_coeff 2 28 1.000000 0.690000 0.774499
pair_coeff 2 29 1.000000 0.700000 0.785723
pair_coeff 2 30 1.000000 0.710000 0.796948
pair_coeff 2 31 1.000000 0.720000 0.808173
pair_coeff 2 32 1.000000 0.730000 0.819397
pair_coeff 2 33 1.000000 0.740000 0.830622
pair_coeff 2 34 1.000000 0.750000 0.841847
pair_coeff 2 35 1.000000 0.760000 0.853071
pair_coeff 2 36 1.000000 0.770000 0.864296
pair_coeff 2 37 1.000000 0.780000 0.875520
pair_coeff 2 38 1.000000 0.790000 0.886745
pair_coeff 2 39 1.000000 0.800000 0.897970
pair_coeff 2 40 1.000000 0.810000 0.909194
pair_coeff 2 41 1.000000 0.820000 0.920419
pair_coeff 2 42 1.000000 0.830000 0.931644
pair_coeff 2 43 1.000000 0.840000 0.942868
pair_coeff 2 44 1.000000 0.850000 0.954093
pair_coeff 2 45 1.000000 0.860000 0.965317
pair_coeff 2 46 1.000000 0.870000 0.976542
pair_coeff 2 47 1.000000 0.880000 0.987767
pair_coeff 2 48 1.000000 0.890000 0.998991
pair_coeff 2 49 1.000000 0.900000 1.010216
pair_coeff 2 50 1.000000 0.910000 1.021440
pair_coeff 2 51 1.000000 0.920000 1.032665
pair_coeff 2 52 1.000000 0.930000 1.043890
pair_coeff 2 53 1.000000 0.940000 1.055114
pair_coeff 2 54 1.000000 0.950000 1.066339
pair_coeff 2 55 1.000000 0.960000 1.077564
pair_coeff 2 56 1.000000 0.970000 1.088788
pair_coeff 2 57 1.000000 0.980000 1.100013
pair_coeff 2 58 1.000000 0.990000 1.111237
pair_coeff 2 59 1.000000 1.000000 1.122462
pair_coeff 2 60 1.000000 1.010000 1.133687
pair_coeff 3 3 1.000000 0.450000 0.505108
pair_coeff 3 4 1.000000 0.460000 0.516333
pair_coeff 3 5 1.000000 0.470000 0.527557
pair_coeff 3 6 1.000000 0.480000 0.538782
pair_coeff 3 7 1.000000 0.490000 0.550006
pair_coeff 3 8 1.000000 0.500000 0.561231
pair_coeff 3 9 1.000000 0.510000 0.572456
pair_coeff 3 10 1.000000 0.520000 0.583680
pair_coeff 3 11 1.000000 0.530000 0.594905
pair_coeff 3 12 1.000000 0.540000 0.606130
pair_coeff 3 13 1.000000 0.550000 0.617354
pair_coeff 3 14 1.000000 0.560000 0.628579
pair_coeff 3 15 1.000000 0.570000 0.639803
pair_coeff 3 16 1.000000 0.580000 0.651028
pair_coeff 3 17 1.000000 0.590000 0.662253
pair_coeff 3 18 1.000000 0.600000 0.673477
pair_coeff 3 19 1.000000 0.610000 0.684702
pair_coeff 3 20 1.000000 0.620000 0.695926
pair_coeff 3 21 1.000000 0.630000 0.707151
pair_coeff 3 22 1.000000 0.640000 0.718376
pair_coeff 3 23 1.000000 0.650000 0.729600
pair_coeff 3 24 1.000000 0.660000 0.740825
pair_coeff 3 25 1.000000 0.670000 0.752050
pair_coeff 3 26 1.000000 0.680000 0.763274
pair_coeff 3 27 1.000000 0.690000 0.774499
pair_coeff 3 28 1.000000 0.700000 0.785723
pair_coeff 3 29 1.000000 0.710000 0.796948
pair_coeff 3 30 1.000000 0.720000 0.808173
pair_coeff 3 31 1.000000 0.730000 0.819397
pair_coeff 3 32 1.000000 0.740000 0.830622
pair_coeff 3 33 1.000000 0.750000 0.841847
pair_coeff 3 34 1.000000 0.760000 0.853071
pair_coeff 3 35 1.000000 0.770000 0.864296
pair_coeff 3 36 1.000000 0.780000 0.875520
pair_coeff 3 37 1.000000 0.790000 0.886745
pair_coeff 3 38 1.000000 0.800000 0.897970
pair_coeff 3 39 1.000000 0.810000 0.909194
pair_coeff 3 40 1.000000 0.820000 0.920419
pair_coeff 3 41 1.000000 0.830000 0.931644
pair_coeff 3 42 1.000000 0.840000 0.942868
pair_coeff 3 43 1.000000 0.850000 0.954093
pair_coeff 3 44 1.000000 0.860000 0.965317
pair_coeff 3 45 1.000000 0.870000 0.976542
pair_coeff 3 46 1.000000 0.880000 0.987767
pair_coeff 3 47 1.000000 0.890000 0.998991
pair_coeff 3 48 1.000000 0.900000 1.010216
pair_coeff 3 49 1.000000 0.910000 1.021440
pair_coeff 3 50 1.000000 0.920000 1.032665
pair_coeff 3 51 1.000000 0.930000 1.043890
pair_coeff 3 52 1.000000 0.940000 1.055114
pair_coeff 3 53 1.000000 0.950000 1.066339
pair_coeff 3 54 1.000000 0.960000 1.077564
pair_coeff 3 55 1.000000 0.970000 1.088788
pair_coeff 3 56 1.000000 0.980000 1.100013
pair_coeff 3 57 1.000000 0.990000 1.111237
pair_coeff 3 58 1.000000 1.000000 1.122462
pair_coeff 3 59 1.000000 1.010000 1.133687
pair_coeff 3 60 1.000000 1.020000 1.144911
pair_coeff 4 4 1.000000 0.470000 0.527557
pair_coeff 4 5 1.000000 0.480000 0.538782
pair_coeff 4 6 1.000000 0.490000 0.550006
pair_coeff 4 7 1.000000 0.500000 0.561231
pair_coeff 4 8 1.000000 0.510000 0.572456
pair_coeff 4 9 1.000000 0.520000 0.583680
pair_coeff 4 10 1.000000 0.530000 0.594905
pair_coeff 4 11 1.000000 0.540000 0.606130
pair_coeff 4 12 1.000000 0.550000 0.617354
pair_coeff 4 13 1.000000 0.560000 0.628579
pair_coeff 4 14 1.000000 0.570000 0.639803
pair_coeff 4 15 1.000000 0.580000 0.651028
pair_coeff 4 16 1.000000 0.590000 0.662253
pair_coeff 4 17 1.000000 0.600000 0.673477
pair_coeff 4 18 1.000000 0.610000 0.684702
pair_coeff 4 19 1.000000 0.620000 0.695926
pair_coeff 4 20 1.000000 0.630000 0.707151
pair_coeff 4 21 1.000000 0.640000 0.718376
pair_coeff 4 22 1.000000 0.650000 0.729600
pair_coeff 4 23 1.000000 0.660000 0.740825
pair_coeff 4 24 1.000000 0.670000 0.752050
pair_coeff 4 25 1.000000 0.680000 0.763274
pair_coeff 4 26 1.000000 0.690000 0.774499
pair_coeff 4 27 1.000000 0.700000 0.785723
pair_coeff 4 28 1.000000 0.710000 0.796948
pair_coeff 4 29 1.000000 0.720000 0.808173
pair_coeff 4 30 1.000000 0.730000 0.819397
pair_coeff 4 31 1.000000 0.740000 0.830622
pair_coeff 4 32 1.000000 0.750000 0.841847
pair_coeff 4 33 1.000000 0.760000 0.853071
pair_coeff 4 34 1.000000 0.770000 0.864296
pair_coeff 4 35 1.000000 0.780000 0.875520
pair_coeff 4 36 1.000000 0.790000 0.886745
pair_coeff 4 37 1.000000 0.800000 0.897970
pair_coeff 4 38 1.000000 0.810000 0.909194
pair_coeff 4 39 1.000000 0.820000 0.920419
pair_coeff 4 40 1.000000 0.830000 0.931644
pair_coeff 4 41 1.000000 0.840000 0.942868
pair_coeff 4 42 1.000000 0.850000 0.954093
pair_coeff 4 43 1.000000 0.860000 0.965317
pair_coeff 4 44 1.000000 0.870000 0.976542
pair_coeff 4 45 1.000000 0.880000 0.987767
pair_coeff 4 46 1.000000 0.890000 0.998991
pair_coeff 4 47 1.000000 0.900000 1.010216
pair_coeff 4 48 1.000000 0.910000 1.021440
pair_coeff 4 49 1.000000 0.920000 1.032665
pair_coeff 4 50 1.000000 0.930000 1.043890
pair_coeff 4 51 1.000000 0.940000 1.055114
pair_coeff 4 52 1.000000 0.950000 1.066339
pair_coeff 4 53 1.000000 0.960000 1.077564
pair_coeff 4 54 1.000000 0.970000 1.088788
pair_coeff 4 55 1.000000 0.980000 1.100013
pair_coeff 4 56 1.000000 0.990000 1.111237
pair_coeff 4 57 1.000000 1.000000 1.122462
pair_coeff 4 58 1.000000 1.010000 1.133687
pair_coeff 4 59 1.000000 1.020000 1.144911
pair_coeff 4 60 1.000000 1.030000 1.156136
pair_coeff 5 5 1.000000 0.490000 0.550006
pair_coeff 5 6 1.000000 0.500000 0.561231
pair_coeff 5 7 1.000000 0.510000 0.572456
pair_coeff 5 8 1.000000 0.520000 0.583680
pair_coeff 5 9 1.000000 0.530000 0.594905
pair_coeff 5 10 1.000000 0.540000 0.606130
pair_coeff 5 11 1.000000 0.550000 0.617354
pair_coeff 5 12 1.000000 0.560000 0.628579
pair_coeff 5 13 1.000000 0.570000 0.639803
pair_coeff 5 14 1.000000 0.580000 0.651028
pair_coeff 5 15 1.000000 0.590000 0.662253
pair_coeff 5 16 1.000000 0.600000 0.673477
pair_coeff 5 17 1.000000 0.610000 0.684702
pair_coeff 5 18 1.000000 0.620000 0.695926
pair_coeff 5 19 1.000000 0.630000 0.707151
pair_coeff 5 20 1.000000 0.640000 0.718376
pair_coeff 5 21 1.000000 0.650000 0.729600
pair_coeff 5 22 1.000000 0.660000 0.740825
pair_coeff 5 23 1.000000 0.670000 0.752050
pair_coeff 5 24 1.000000 0.680000 0.763274
pair_coeff 5 25 1.000000 0.690000 0.774499
pair_coeff 5 26 1.000000 0.700000 0.785723
pair_coeff 5 27 1.000000 0.710000 0.796948
pair_coeff 5 28 1.000000 0.720000 0.808173
pair_coeff 5 29 1.000000 0.730000 0.819397
pair_coeff 5 30 1.000000 0.740000 0.830622
pair_coeff 5 31 1.000000 0.750000 0.841847
pair_coeff 5 32 1.000000 0.760000 0.853071
pair_coeff 5 33 1.000000 0.770000 0.864296
pair_coeff 5 34 1.000000 0.780000 0.875520
pair_coeff 5 35 1.000000 0.790000 0.886745
pair_coeff 5 36 1.000000 0.800000 0.897970
pair_coeff 5 37 1.000000 0.810000 0.909194
pair_coeff 5 38 1.000000 0.820000 0.920419
pair_coeff 5 39 1.000000 0.830000 0.931644
pair_coeff 5 40 1.000000 0.840000 0.942868
pair_coeff 5 41 1.000000 0.850000 0.954093
pair_coeff 5 42 1.000000 0.860000 0.965317
pair_coeff 5 43 1.000000 0.870000 0.976542
pair_coeff 5 44 1.000000 0.880000 0.987767
pair_coeff 5 45 1.000000 0.890000 0.998991
pair_coeff 5 46 1.000000 0.900000 1.010216
pair_coeff 5 47 1.000000 0.910000 1.021440
pair_coeff 5 48 1.000000 0.920000 1.032665
pair_coeff 5 49 1.000000 0.930000 1.043890
pair_coeff 5 50 1.000000 0.940000 1.055114
pair_coeff 5 51 1.000000 0.950000 1.066339
pair_coeff 5 52 1.000000 0.960000 1.077564
pair_coeff 5 53 1.000000 0.970000 1.088788
pair_coeff 5 54 1.000000 0.980000 1.100013
pair_coeff 5 55 1.000000 0.990000 1.111237
pair_coeff 5 56 1.000000 1.000000 1.122462
pair_coeff 5 57 1.000000 1.010000 1.133687
pair_coeff 5 58 1.000000 1.020000 1.144911
pair_coeff 5 59 1.000000 1.030000 1.156136
pair_coeff 5 60 1.000000 1.040000 1.167361
pair_coeff 6 6 1.000000 0.510000 0.572456
pair_coeff 6 7 1.000000 0.520000 0.583680
pair_coeff 6 8 1.000000 0.530000 0.594905
pair_coeff 6 9 1.000000 0.540000 0.606130
pair_coeff 6 10 1.000000 0.550000 0.617354
pair_coeff 6 11 1.000000 0.560000 0.628579
pair_coeff 6 12 1.000000 0.570000 0.639803
pair_coeff 6 13 1.000000 0.580000 0.651028
pair_coeff 6 14 1.000000 0.590000 0.662253
pair_coeff 6 15 1.000000 0.600000 0.673477
pair_coeff 6 16 1.000000 0.610000 0.684702
pair_coeff 6 17 1.000000 0.620000 0.695926
pair_coeff 6 18 1.000000 0.630000 0.707151
pair_coeff 6 19 1.000000 0.640000 0.718376
pair_coeff 6 20 1.000000 0.650000 0.729600
pair_coeff 6 21 1.000000 0.660000 0.740825
pair_coeff 6 22 1.000000 0.670000 0.752050
pair_coeff 6 23 1.000000 0.680000 0.763274
pair_coeff 6 24 1.000000 0.690000 0.774499
pair_coeff 6 25 1.000000 0.700000 0.785723
pair_coeff 6 26 1.000000 0.710000 0.796948
pair_coeff 6 27 1.000000 0.720000 0.808173
pair_coeff 6 28 1.000000 0.730000 0.819397
pair_coeff 6 29 1.000000 0.740000 0.830622
pair_coeff 6 30 1.000000 0.750000 0.841847
pair_coeff 6 31 1.000000 0.760000 0.853071
pair_coeff 6 32 1.000000 0.770000 0.864296
pair_coeff 6 33 1.000000 0.780000 0.875520
pair_coeff 6 34 1.000000 0.790000 0.886745
pair_coeff 6 35 1.000000 0.800000 0.897970
pair_coeff 6 36 1.000000 0.810000 0.909194
pair_coeff 6 37 1.000000 0.820000 0.920419
pair_coeff 6 38 1.000000 0.830000 0.931644
pair_coeff 6 39 1.000000 0.840000 0.942868
pair_coeff 6 40 1.000000 0.850000 0.954093
pair_coeff 6 41 1.000000 0.860000 0.965317
pair_coeff 6 42 1.000000 0.870000 0.976542
pair_coeff 6 43 1.000000 0.880000 0.987767
pair_coeff 6 44 1.000000 0.890000 0.998991
pair_coeff 6 45 1.000000 0.900000 1.010216
pair_coeff 6 46 1.000000 0.910000 1.021440
pair_coeff 6 47 1.000000 0.920000 1.032665
pair_coeff 6 48 1.000000 0.930000 1.043890
pair_coeff 6 49 1.000000 0.940000 1.055114
pair_coeff 6 50 1.000000 0.950000 1.066339
pair_coeff 6 51 1.000000 0.960000 1.077564
pair_coeff 6 52 1.000000 0.970000 1.088788
pair_coeff 6 53 1.000000 0.980000 1.100013
pair_coeff 6 54 1.000000 0.990000 1.111237
pair_coeff 6 55 1.000000 1.000000 1.122462
pair_coeff 6 56 1.000000 1.010000 1.133687
pair_coeff 6 57 1.000000 1.020000 1.144911
pair_coeff 6 58 1.000000 1.030000 1.156136
pair_coeff 6 59 1.000000 1.040000 1.167361
pair_coeff 6 60 1.000000 1.050000 1.178585
pair_coeff 7 7 1.000000 0.530000 0.594905
pair_coeff 7 8 1.000000 0.540000 0.606130
pair_coeff 7 9 1.000000 0.550000 0.617354
pair_coeff 7 10 1.000000 0.560000 0.628579
pair_coeff 7 11 1.000000 0.570000 0.639803
pair_coeff 7 12 1.000000 0.580000 0.651028
pair_coeff 7 13 1.000000 0.590000 0.662253
pair_coeff 7 14 1.000000 0.600000 0.673477
pair_coeff 7 15 1.000000 0.610000 0.684702
pair_coeff 7 16 1.000000 0.620000 0.695926
pair_coeff 7 17 1.000000 0.630000 0.707151
pair_coeff 7 18 1.000000 0.640000 0.718376
pair_coeff 7 19 1.000000 0.650000 0.729600
pair_coeff 7 20 1.000000 0.660000 0.740825
pair_coeff 7 21 1.000000 0.670000 0.752050
pair_coeff 7 22 1.000000 0.680000 0.763274
pair_coeff 7 23 1.000000 0.690000 0.774499
pair_coeff 7 24 1.000000 0.700000 0.785723
pair_coeff 7 25 1.000000 0.710000 0.796948
pair_coeff 7 26 1.000000 0.720000 0.808173
pair_coeff 7 27 1.000000 0.730000 0.819397
pair_coeff 7 28 1.000000 0.740000 0.830622
pair_coeff 7 29 1.000000 0.750000 0.841847
pair_coeff 7 30 1.000000 0.760000 0.853071
pair_coeff 7 31 1.000000 0.770000 0.864296
pair_coeff 7 32 1.000000 0.780000 0.875520
pair_coeff 7 33 1.000000 0.790000 0.886745
pair_coeff 7 34 1.000000 0.800000 0.897970
pair_coeff 7 35 1.000000 0.810000 0.909194
pair_coeff 7 36 1.000000 0.820000 0.920419
pair_coeff 7 37 1.000000 0.830000 0.931644
pair_coeff 7 38 1.000000 0.840000 0.942868
pair_coeff 7 39 1.000000 0.850000 0.954093
pair_coeff 7 40 1.000000 0.860000 0.965317
pair_coeff 7 41 1.000000 0.870000 0.976542
pair_coeff 7 42 1.000000 0.880000 0.987767
pair_coeff 7 43 1.000000 0.890000 0.998991
pair_coeff 7 44 1.000000 0.900000 1.010216
pair_coeff 7 45 1.000000 0.910000 1.021440
pair_coeff 7 46 1.000000 0.920000 1.032665
pair_coeff 7 47 1.000000 0.930000 1.043890
pair_coeff 7 48 1.000000 0.940000 1.055114
pair_coeff 7 49 1.000000 0.950000 1.066339
pair_coeff 7 50 1.000000 0.960000 1.077564
pair_coeff 7 51 1.000000 0.970000 1.088788
pair_coeff 7 52 1.000000 0.980000 1.100013
pair_coeff 7 53 1.000000 0.990000 1.111237
pair_coeff 7 54 1.000000 1.000000 1.122462
pair_coeff 7 55 1.000000 1.010000 1.133687
pair_coeff 7 56 1.000000 1.020000 1.144911
pair_coeff 7 57 1.000000 1.030000 1.156136
pair_coeff 7 58 1.000000 1.040000 1.167361
pair_coeff 7 59 1.000000 1.050000 1.178585
pair_coeff 7 60 1.000000 1.060000 1.189810
pair_coeff 8 8 1.000000 0.550000 0.617354
pair_coeff 8 9 1.000000 0.560000 0.628579
pair_coeff 8 10 1.000000 0.570000 0.639803
pair_coeff 8 11 1.000000 0.580000 0.651028
pair_coeff 8 12 1.000000 0.590000 0.662253
pair_coeff 8 13 1.000000 0.600000 0.673477
pair_coeff 8 14 1.000000 0.610000 0.684702
pair_coeff 8 15 1.000000 0.620000 0.695926
pair_coeff 8 16 1.000000 0.630000 0.707151
pair_coeff 8 17 1.000000 0.640000 0.718376
pair_coeff 8 18 1.000000 0.650000 0.729600
pair_coeff 8 19 1.000000 0.660000 0.740825
pair_coeff 8 20 1.000000 0.670000 0.752050
pair_coeff 8 21 1.000000 0.680000 0.763274
pair_coeff 8 22 1.000000 0.690000 0.774499
pair_coeff 8 23 1.000000 0.700000 0.785723
pair_coeff 8 24 1.000000 0.710000 0.796948
pair_coeff 8 25 1.000000 0.720000 0.808173
pair_coeff 8 26 1.000000 0.730000 0.819397
pair_coeff 8 27 1.000000 0.740000 0.830622
pair_coeff 8 28 1.000000 0.750000 0.841847
pair_coeff 8 29 1.000000 0.760000 0.853071
pair_coeff 8 30 1.000000 0.770000 0.864296
pair_coeff 8 31 1.000000 0.780000 0.875520
pair_coeff 8 32 1.000000 0.790000 0.886745
pair_coeff 8 33 1.000000 0.800000 0.897970
pair_coeff 8 34 1.000000 0.810000 0.909194
pair_coeff 8 35 1.000000 0.820000 0.920419
pair_coeff 8 36 1.000000 0.830000 0.931644
pair_coeff 8 37 1.000000 0.840000 0.942868
pair_coeff 8 38 1.000000 0.850000 0.954093
pair_coeff 8 39 1.000000 0.860000 0.965317
pair_coeff 8 40 1.000000 0.870000 0.976542
pair_coeff 8 41 1.000000 0.880000 0.987767
pair_coeff 8 42 1.000000 0.890000 0.998991
pair_coeff 8 43 1.000000 0.900000 1.010216
pair_coeff 8 44 1.000000 0.910000 1.021440
pair_coeff 8 45 1.000000 0.920000 1.032665
pair_coeff 8 46 1.000000 0.930000 1.043890
pair_coeff 8 47 1.000000 0.940000 1.055114
pair_coeff 8 48 1.000000 0.950000 1.066339
pair_coeff 8 49 1.000000 0.960000 1.077564
pair_coeff 8 50 1.000000 0.970000 1.088788
pair_coeff 8 51 1.000000 0.980000 1.100013
pair_coeff 8 52 1.000000 0.990000 1.111237
pair_coeff 8 53 1.000000 1.000000 1.122462
pair_coeff 8 54 1.000000 1.010000 1.133687
pair_coeff 8 55 1.000000 1.020000 1.144911
pair_coeff 8 56 1.000000 1.030000 1.156136
pair_coeff 8 57 1.000000 1.040000 1.167361
pair_coeff 8 58 1.000000 1.050000 1.178585
pair_coeff 8 59 1.000000 1.060000 1.189810
pair_coeff 8 60 1.000000 1.070000 1.201034
pair_coeff 9 9 1.000000 0.570000 0.639803
pair_coeff 9 10 1.000000 0.580000 0.651028
pair_coeff 9 11 1.000000 0.590000 0.662253
pair_coeff 9 12 1.000000 0.600000 0.673477
pair_coeff 9 13 1.000000 0.610000 0.684702
pair_coeff 9 14 1.000000 0.620000 0.695926
pair_coeff 9 15 1.000000 0.630000 0.707151
pair_coeff 9 16 1.000000 0.640000 0.718376
pair_coeff 9 17 1.000000 0.650000 0.729600
pair_coeff 9 18 1.000000 0.660000 0.740825
pair_coeff 9 19 1.000000 0.670000 0.752050
pair_coeff 9 20 1.000000 0.680000 0.763274
pair_coeff 9 21 1.000000 0.690000 0.774499
pair_coeff 9 22 1.000000 0.700000 0.785723
pair_coeff 9 23 1.000000 0.710000 0.796948
pair_coeff 9 24 1.000000 0.720000 0.808173
pair_coeff 9 25 1.000000 0.730000 0.819397
pair_coeff 9 26 1.000000 0.740000 0.830622
pair_coeff 9 27 1.000000 0.750000 0.841847
pair_coeff 9 28 1.000000 0.760000 0.853071
pair_coeff 9 29 1.000000 0.770000 0.864296
pair_coeff 9 30 1.000000 0.780000 0.875520
pair_coeff 9 31 1.000000 0.790000 0.886745
pair_coeff 9 32 1.000000 0.800000 0.897970
pair_coeff 9 33 1.000000 0.810000 0.909194
pair_coeff 9 34 1.000000 0.820000 0.920419
pair_coeff 9 35 1.000000 0.830000 0.931644
pair_coeff 9 36 1.000000 0.840000 0.942868
pair_coeff 9 37 1.000000 0.850000 0.954093
pair_coeff 9 38 1.000000 0.860000 0.965317
pair_coeff 9 39 1.000000 0.870000 0.976542
pair_coeff 9 40 1.000000 0.880000 0.987767
pair_coeff 9 41 1.000000 0.890000 0.998991
pair_coeff 9 42 1.000000 0.900000 1.010216
pair_coeff 9 43 1.000000 0.910000 1.021440
pair_coeff 9 44 1.000000 0.920000 1.032665
pair_coeff 9 45 1.000000 0.930000 1.043890
pair_coeff 9 46 1.000000 0.940000 1.055114
pair_coeff 9 47 1.000000 0.950000 1.066339
pair_coeff 9 48 1.000000 0.960000 1.077564
pair_coeff 9 49 1.000000 0.970000 1.088788
pair_coeff 9 50 1.000000 0.980000 1.100013
pair_coeff 9 51 1.000000 0.990000 1.111237
pair_coeff 9 52 1.000000 1.000000 1.122462
pair_coeff 9 53 1.000000 1.010000 1.133687
pair_coeff 9 54 1.000000 1.020000 1.144911
pair_coeff 9 55 1.000000 1.030000 1.156136
pair_coeff 9 56 1.000000 1.040000 1.167361
pair_coeff 9 57 1.000000 1.050000 1.178585
pair_coeff 9 58 1.000000 1.060000 1.189810
pair_coeff 9 59 1.000000 1.070000 1.201034
pair_coeff 9 60 1.000000 1.080000 1.212259
pair_coeff 10 10 1.000000 0.590000 0.662253
pair_coeff 10 11 1.000000 0.600000 0.673477
pair_coeff 10 12 1.000000 0.610000 0.684702
pair_coeff 10 13 1.000000 0.620000 0.695926
pair_coeff 10 14 1.000000 0.630000 0.707151
pair_coeff 10 15 1.000000 0.640000 0.718376
pair_coeff 10 16 1.000000 0.650000 0.729600
pair_coeff 10 17 1.000000 0.660000 0.740825
pair_coeff 10 18 1.000000 0.670000 0.752050
pair_coeff 10 19 1.000000 0.680000 0.763274
pair_coeff 10 20 1.000000 0.690000 0.774499
pair_coeff 10 21 1.000000 0.700000 0.785723
pair_coeff 10 22 1.000000 0.710000 0.796948
pair_coeff 10 23 1.000000 0.720000 0.808173
pair_coeff 10 24 1.000000 0.730000 0.819397
pair_coeff 10 25 1.000000 0.740000 0.830622
pair_coeff 10 26 1.000000 0.750000 0.841847
pair_coeff 10 27 1.000000 0.760000 0.853071
pair_coeff 10 28 1.000000 0.770000 0.864296
pair_coeff 10 29 1.000000 0.780000 0.875520
pair_coeff 10 30 1.000000 0.790000 0.886745
pair_coeff 10 31 1.000000 0.800000 0.897970
pair_coeff 10 32 1.000000 0.810000 0.909194
pair_coeff 10 33 1.000000 0.820000 0.920419
pair_coeff 10 34 1.000000 0.830000 0.931644
pair_coeff 10 35 1.000000 0.840000 0.942868
pair_coeff 10 36 1.000000 0.850000 0.954093
pair_coeff 10 37 1.000000 0.860000 0.965317
pair_coeff 10 38 1.000000 0.870000 0.976542
pair_coeff 10 39 1.000000 0.880000 0.987767
pair_coeff 10 40 1.000000 0.890000 0.998991
pair_coeff 10 41 1.000000 0.900000 1.010216
pair_coeff 10 42 1.000000 0.910000 1.021440
pair_coeff 10 43 1.000000 0.920000 1.032665
pair_coeff 10 44 1.000000 0.930000 1.043890
pair_coeff 10 45 1.000000 0.940000 1.055114
pair_coeff 10 46 1.000000 0.950000 1.066339
pair_coeff 10 47 1.000000 0.960000 1.077564
pair_coeff 10 48 1.000000 0.970000 1.088788
pair_coeff 10 49 1.000000 0.980000 1.100013
pair_coeff 10 50 1.000000 0.990000 1.111237
pair_coeff 10 51 1.000000 1.000000 1.122462
pair_coeff 10 52 1.000000 1.010000 1.133687
pair_coeff 10 53 1.000000 1.020000 1.144911
pair_coeff 10 54 1.000000 1.030000 1.156136
pair_coeff 10 55 1.000000 1.040000 1.167361
pair_coeff 10 56 1.000000 1.050000 1.178585
pair_coeff 10 57 1.000000 1.060000 1.189810
pair_coeff 10 58 1.000000 1.070000 1.201034
pair_coeff 10 59 1.000000 1.080000 1.212259
pair_coeff 10 60 1.000000 1.090000 1.223484
pair_coeff 11 11 1.000000 0.610000 0.684702
pair_coeff 11 12 1.000000 0.620000 0.695926
pair_coeff 11 13 1.000000 0.630000 0.707151
pair_coeff 11 14 1.000000 0.640000 0.718376
pair_coeff 11 15 1.000000 0.650000 0.729600
pair_coeff 11 16 1.000000 0.660000 0.740825
pair_coeff 11 17 1.000000 0.670000 0.752050
pair_coeff 11 18 1.000000 0.680000 0.763274
pair_coeff 11 19 1.000000 0.690000 0.774499
pair_coeff 11 20 1.000000 0.700000 0.785723
pair_coeff 11 21 1.000000 0.710000 0.796948
pair_coeff 11 22 1.000000 0.720000 0.808173
pair_coeff 11 23 1.000000 0.730000 0.819397
pair_coeff 11 24 1.000000 0.740000 0.830622
pair_coeff 11 25 1.000000 0.750000 0.841847
pair_coeff 11 26 1.000000 0.760000 0.853071
pair_coeff 11 27 1.000000 0.770000 0.864296
pair_coeff 11 28 1.000000 0.780000 0.875520
pair_coeff 11 29 1.000000 0.790000 0.886745
pair_coeff 11 30 1.000000 0.800000 0.897970
pair_coeff 11 31 1.000000 0.810000 0.909194
pair_coeff 11 32 1.000000 0.820000 0.920419
pair_coeff 11 33 1.000000 0.830000 0.931644
pair_coeff 11 34 1.000000 0.840000 0.942868
pair_coeff 11 35 1.000000 0.850000 0.954093
pair_coeff 11 36 1.000000 0.860000 0.965317
pair_coeff 11 37 1.000000 0.870000 0.976542
pair_coeff 11 38 1.000000 0.880000 0.987767
pair_coeff 11 39 1.000000 0.890000 0.998991
pair_coeff 11 40 1.000000 0.900000 1.010216
pair_coeff 11 41 1.000000 0.910000 1.021440
pair_coeff 11 42 1.000000 0.920000 1.032665
pair_coeff 11 43 1.000000 0.930000 1.043890
pair_coeff 11 44 1.000000 0.940000 1.055114
pair_coeff 11 45 1.000000 0.950000 1.066339
pair_coeff 11 46 1.000000 0.960000 1.077564
pair_coeff 11 47 1.000000 0.970000 1.088788
pair_coeff 11 48 1.000000 0.980000 1.100013
pair_coeff 11 49 1.000000 0.990000 1.111237
pair_coeff 11 50 1.000000 1.000000 1.122462
pair_coeff 11 51 1.000000 1.010000 1.133687
pair_coeff 11 52 1.000000 1.020000 1.144911
pair_coeff 11 53 1.000000 1.030000 1.156136
pair_coeff 11 54 1.000000 1.040000 1.167361
pair_coeff 11 55 1.000000 1.050000 1.178585
pair_coeff 11 56 1.000000 1.060000 1.189810
pair_coeff 11 57 1.000000 1.070000 1.201034
pair_coeff 11 58 1.000000 1.080000 1.212259
pair_coeff 11 59 1.000000 1.090000 1.223484
pair_coeff 11 60 1.000000 1.100000 1.234708
pair_coeff 12 12 1.000000 0.630000 0.707151
pair_coeff 12 13 1.000000 0.640000 0.718376
pair_coeff 12 14 1.000000 0.650000 0.729600
pair_coeff 12 15 1.000000 0.660000 0.740825
pair_coeff 12 16 1.000000 0.670000 0.752050
pair_coeff 12 17 1.000000 0.680000 0.763274
pair_coeff 12 18 1.000000 0.690000 0.774499
pair_coeff 12 19 1.000000 0.700000 0.785723
pair_coeff 12 20 1.000000 0.710000 0.796948
pair_coeff 12 21 1.000000 0.720000 0.808173
pair_coeff 12 22 1.000000 0.730000 0.819397
pair_coeff 12 23 1.000000 0.740000 0.830622
pair_coeff 12 24 1.000000 0.750000 0.841847
pair_coeff 12 25 1.000000 0.760000 0.853071
pair_coeff 12 26 1.000000 0.770000 0.864296
pair_coeff 12 27 1.000000 0.780000 0.875520
pair_coeff 12 28 1.000000 0.790000 0.886745
pair_coeff 12 29 1.000000 0.800000 0.897970
pair_coeff 12 30 1.000000 0.810000 0.909194
pair_coeff 12 31 1.000000 0.820000 0.920419
pair_coeff 12 32 1.000000 0.830000 0.931644
pair_coeff 12 33 1.000000 0.840000 0.942868
pair_coeff 12 34 1.000000 0.850000 0.954093
pair_coeff 12 35 1.000000 0.860000 0.965317
pair_coeff 12 36 1.000000 0.870000 0.976542
pair_coeff 12 37 1.000000 0.880000 0.987767
pair_coeff 12 38 1.000000 0.890000 0.998991
pair_coeff 12 39 1.000000 0.900000 1.010216
pair_coeff 12 40 1.000000 0.910000 1.021440
pair_coeff 12 41 1.000000 0.920000 1.032665
pair_coeff 12 42 1.000000 0.930000 1.043890
pair_coeff 12 43 1.000000 0.940000 1.055114
pair_coeff 12 44 1.000000 0.950000 1.066339
pair_coeff 12 45 1.000000 0.960000 1.077564
pair_coeff 12 46 1.000000 0.970000 1.088788
pair_coeff 12 47 1.000000 0.980000 1.100013
pair_coeff 12 48 1.000000 0.990000 1.111237
pair_coeff 12 49 1.000000 1.000000 1.122462
pair_coeff 12 50 1.000000 1.010000 1.133687
pair_coeff 12 51 1.000000 1.020000 1.144911
pair_coeff 12 52 1.000000 1.030000 1.156136
pair_coeff 12 53 1.000000 1.040000 1.167361
pair_coeff 12 54 1.000000 1.050000 1.178585
pair_coeff 12 55 1.000000 1.060000 1.189810
pair_coeff 12 56 1.000000 1.070000 1.201034
pair_coeff 12 57 1.000000 1.080000 1.212259
pair_coeff 12 58 1.000000 1.090000 1.223484
pair_coeff 12 59 1.000000 1.100000 1.234708
pair_coeff 12 60 1.000000 1.110000 1.245933
pair_coeff 13 13 1.000000 0.650000 0.729600
pair_coeff 13 14 1.000000 0.660000 0.740825
pair_coeff 13 15 1.000000 0.670000 0.752050
pair_coeff 13 16 1.000000 0.680000 0.763274
pair_coeff 13 17 1.000000 0.690000 0.774499
pair_coeff 13 18 1.000000 0.700000 0.785723
pair_coeff 13 19 1.000000 0.710000 0.796948
pair_coeff 13 20 1.000000 0.720000 0.808173
pair_coeff 13 21 1.000000 0.730000 0.819397
pair_coeff 13 22 1.000000 0.740000 0.830622
pair_coeff 13 23 1.000000 0.750000 0.841847
pair_coeff 13 24 1.000000 0.760000 0.853071
pair_coeff 13 25 1.000000 0.770000 0.864296
pair_coeff 13 26 1.000000 0.780000 0.875520
pair_coeff 13 27 1.000000 0.790000 0.886745
pair_coeff 13 28 1.000000 0.800000 0.897970
pair_coeff 13 29 1.000000 0.810000 0.909194
pair_coeff 13 30 1.000000 0.820000 0.920419
pair_coeff 13 31 1.000000 0.830000 0.931644
pair_coeff 13 32 1.000000 0.840000 0.942868
pair_coeff 13 33 1.000000 0.850000 0.954093
pair_coeff 13 34 1.000000 0.860000 0.965317
pair_coeff 13 35 1.000000 0.870000 0.976542
pair_coeff 13 36 1.000000 0.880000 0.987767
pair_coeff 13 37 1.000000 0.890000 0.998991
pair_coeff 13 38 1.000000 0.900000 1.010216
pair_coeff 13 39 1.000000 0.910000 1.021440
pair_coeff 13 40 1.000000 0.920000 1.032665
pair_coeff 13 41 1.000000 0.930000 1.043890
pair_coeff 13 42 1.000000 0.940000 1.055114
pair_coeff 13 43 1.000000 0.950000 1.066339
pair_coeff 13 44 1.000000 0.960000 1.077564
pair_coeff 13 45 1.000000 0.970000 1.088788
pair_coeff 13 46 1.000000 0.980000 1.100013
pair_coeff 13 47 1.000000 0.990000 1.111237
pair_coeff 13 48 1.000000 1.000000 1.122462
pair_coeff 13 49 1.000000 1.010000 1.133687
pair_coeff 13 50 1.000000 1.020000 1.144911
pair_coeff 13 51 1.000000 1.030000 1.156136
pair_coeff 13 52 1.000000 1.040000 1.167361
pair_coeff 13 53 1.000000 1.050000 1.178585
pair_coeff 13 54 1.000000 1.060000 1.189810
pair_coeff 13 55 1.000000 1.070000 1.201034
pair_coeff 13 56 1.000000 1.080000 1.212259
pair_coeff 13 57 1.000000 1.090000 1.223484
pair_coeff 13 58 1.000000 1.100000 1.234708
pair_coeff 13 59 1.000000 1.110000 1.245933
pair_coeff 13 60 1.000000 1.120000 1.257157
pair_coeff 14 14 1.000000 0.670000 0.752050
pair_coeff 14 15 1.000000 0.680000 0.763274
pair_coeff 14 16 1.000000 0.690000 0.774499
pair_coeff 14 17 1.000000 0.700000 0.785723
pair_coeff 14 18 1.000000 0.710000 0.796948
pair_coeff 14 19 1.000000 0.720000 0.808173
pair_coeff 14 20 1.000000 0.730000 0.819397
pair_coeff 14 21 1.000000 0.740000 0.830622
pair_coeff 14 22 1.000000 0.750000 0.841847
pair_coeff 14 23 1.000000 0.760000 0.853071
pair_coeff 14 24 1.000000 0.770000 0.864296
pair_coeff 14 25 1.000000 0.780000 0.875520
pair_coeff 14 26 1.000000 0.790000 0.886745
pair_coeff 14 27 1.000000 0.800000 0.897970
pair_coeff 14 28 1.000000 0.810000 0.909194
pair_coeff 14 29 1.000000 0.820000 0.920419
pair_coeff 14 30 1.000000 0.830000 0.931644
pair_coeff 14 31 1.000000 0.840000 0.942868
pair_coeff 14 32 1.000000 0.850000 0.954093
pair_coeff 14 33 1.000000 0.860000 0.965317
pair_coeff 14 34 1.000000 0.870000 0.976542
pair_coeff 14 35 1.000000 0.880000 0.987767
pair_coeff 14 36 1.000000 0.890000 0.998991
pair_coeff 14 37 1.000000 0.900000 1.010216
pair_coeff 14 38 1.000000 0.910000 1.021440
pair_coeff 14 39 1.000000 0.920000 1.032665
pair_coeff 14 40 1.000000 0.930000 1.043890
pair_coeff 14 41 1.000000 0.940000 1.055114
pair_coeff 14 42 1.000000 0.950000 1.066339
pair_coeff 14 43 1.000000 0.960000 1.077564
pair_coeff 14 44 1.000000 0.970000 1.088788
pair_coeff 14 45 1.000000 0.980000 1.100013
pair_coeff 14 46 1.000000 0.990000 1.111237
pair_coeff 14 47 1.000000 1.000000 1.122462
pair_coeff 14 48 1.000000 1.010000 1.133687
pair_coeff 14 49 1.000000 1.020000 1.144911
pair_coeff 14 50 1.000000 1.030000 1.156136
pair_coeff 14 51 1.000000 1.040000 1.167361
pair_coeff 14 52 1.000000 1.050000 1.178585
pair_coeff 14 53 1.000000 1.060000 1.189810
pair_coeff 14 54 1.000000 1.070000 1.201034
pair_coeff 14 55 1.000000 1.080000 1.212259
pair_coeff 14 56 1.000000 1.090000 1.223484
pair_coeff 14 57 1.000000 1.100000 1.234708
pair_coeff 14 58 1.000000 1.110000 1.245933
pair_coeff 14 59 1.000000 1.120000 1.257157
pair_coeff 14 60 1.000000 1.130000 1.268382
pair_coeff 15 15 1.000000 0.690000 0.774499
pair_coeff 15 16 1.000000 0.700000 0.785723
pair_coeff 15 17 1.000000 0.710000 0.796948
pair_coeff 15 18 1.000000 0.720000 0.808173
pair_coeff 15 19 1.000000 0.730000 0.819397
pair_coeff 15 20 1.000000 0.740000 0.830622
pair_coeff 15 21 1.000000 0.750000 0.841847
pair_coeff 15 22 1.000000 0.760000 0.853071
pair_coeff 15 23 1.000000 0.770000 0.864296
pair_coeff 15 24 1.000000 0.780000 0.875520
pair_coeff 15 25 1.000000 0.790000 0.886745
pair_coeff 15 26 1.000000 0.800000 0.897970
pair_coeff 15 27 1.000000 0.810000 0.909194
pair_coeff 15 28 1.000000 0.820000 0.920419
pair_coeff 15 29 1.000000 0.830000 0.931644
pair_coeff 15 30 1.000000 0.840000 0.942868
pair_coeff 15 31 1.000000 0.850000 0.954093
pair_coeff 15 32 1.000000 0.860000 0.965317
pair_coeff 15 33 1.000000 0.870000 0.976542
pair_coeff 15 34 1.000000 0.880000 0.987767
pair_coeff 15 35 1.000000 0.890000 0.998991
pair_coeff 15 36 1.000000 0.900000 1.010216
pair_coeff 15 37 1.000000 0.910000 1.021440
pair_coeff 15 38 1.000000 0.920000 1.032665
pair_coeff 15 39 1.000000 0.930000 1.043890
pair_coeff 15 40 1.000000 0.940000 1.055114
pair_coeff 15 41 1.000000 0.950000 1.066339
pair_coeff 15 42 1.000000 0.960000 1.077564
pair_coeff 15 43 1.000000 0.970000 1.088788
pair_coeff 15 44 1.000000 0.980000 1.100013
pair_coeff 15 45 1.000000 0.990000 1.111237
pair_coeff 15 46 1.000000 1.000000 1.122462
pair_coeff 15 47 1.000000 1.010000 1.133687
pair_coeff 15 48 1.000000 1.020000 1.144911
pair_coeff 15 49 1.000000 1.030000 1.156136
pair_coeff 15 50 1.000000 1.040000 1.167361
pair_coeff 15 51 1.000000 1.050000 1.178585
pair_coeff 15 52 1.000000 1.060000 1.189810
pair_coeff 15 53 1.000000 1.070000 1.201034
pair_coeff 15 54 1.000000 1.080000 1.212259
pair_coeff 15 55 1.000000 1.090000 1.223484
pair_coeff 15 56 1.000000 1.100000 1.234708
pair_coeff 15 57 1.000000 1.110000 1.245933
pair_coeff 15 58 1.000000 1.120000 1.257157
pair_coeff 15 59 1.000000 1.130000 1.268382
pair_coeff 15 60 1.000000 1.140000 1.279607
pair_coeff 16 16 1.000000 0.710000 0.796948
pair_coeff 16 17 1.000000 0.720000 0.808173
pair_coeff 16 18 1.000000 0.730000 0.819397
pair_coeff 16 19 1.000000 0.740000 0.830622
pair_coeff 16 20 1.000000 0.750000 0.841847
pair_coeff 16 21 1.000000 0.760000 0.853071
pair_coeff 16 22 1.000000 0.770000 0.864296
pair_coeff 16 23 1.000000 0.780000 0.875520
pair_coeff 16 24 1.000000 0.790000 0.886745
pair_coeff 16 25 1.000000 0.800000 0.897970
pair_coeff 16 26 1.000000 0.810000 0.909194
pair_coeff 16 27 1.000000 0.820000 0.920419
pair_coeff 16 28 1.000000 0.830000 0.931644
pair_coeff 16 29 1.000000 0.840000 0.942868
pair_coeff 16 30 1.000000 0.850000 0.954093
pair_coeff 16 31 1.000000 0.860000 0.965317
pair_coeff 16 32 1.000000 0.870000 0.976542
pair_coeff 16 33 1.000000 0.880000 0.987767
pair_coeff 16 34 1.000000 0.890000 0.998991
pair_coeff 16 35 1.000000 0.900000 1.010216
pair_coeff 16 36 1.000000 0.910000 1.021440
pair_coeff 16 37 1.000000 0.920000 1.032665
pair_coeff 16 38 1.000000 0.930000 1.043890
pair_coeff 16 39 1.000000 0.940000 1.055114
pair_coeff 16 40 1.000000 0.950000 1.066339
pair_coeff 16 41 1.000000 0.960000 1.077564
pair_coeff 16 42 1.000000 0.970000 1.088788
pair_coeff 16 43 1.000000 0.980000 1.100013
pair_coeff 16 44 1.000000 0.990000 1.111237
pair_coeff 16 45 1.000000 1.000000 1.122462
pair_coeff 16 46 1.000000 1.010000 1.133687
pair_coeff 16 47 1.000000 1.020000 1.144911
pair_coeff 16 48 1.000000 1.030000 1.156136
pair_coeff 16 49 1.000000 1.040000 1.167361
pair_coeff 16 50 1.000000 1.050000 1.178585
pair_coeff 16 51 1.000000 1.060000 1.189810
pair_coeff 16 52 1.000000 1.070000 1.201034
pair_coeff 16 53 1.000000 1.080000 1.212259
pair_coeff 16 54 1.000000 1.090000 1.223484
pair_coeff 16 55 1.000000 1.100000 1.234708
pair_coeff 16 56 1.000000 1.110000 1.245933
pair_coeff 16 57 1.000000 1.120000 1.257157
pair_coeff 16 58 1.000000 1.130000 1.268382
pair_coeff 16 59 1.000000 1.140000 1.279607
pair_coeff 16 60 1.000000 1.150000 1.290831
pair_coeff 17 17 1.000000 0.730000 0.819397
pair_coeff 17 18 1.000000 0.740000 0.830622
pair_coeff 17 19 1.000000 0.750000 0.841847
pair_coeff 17 20 1.000000 0.760000 0.853071
pair_coeff 17 21 1.000000 0.770000 0.864296
pair_coeff 17 22 1.000000 0.780000 0.875520
pair_coeff 17 23 1.000000 0.790000 0.886745
pair_coeff 17 24 1.000000 0.800000 0.897970
pair_coeff 17 25 1.000000 0.810000 0.909194
pair_coeff 17 26 1.000000 0.820000 0.920419
pair_coeff 17 27 1.000000 0.830000 0.931644
pair_coeff 17 28 1.000000 0.840000 0.942868
pair_coeff 17 29 1.000000 0.850000 0.954093
pair_coeff 17 30 1.000000 0.860000 0.965317
pair_coeff 17 31 1.000000 0.870000 0.976542
pair_coeff 17 32 1.000000 0.880000 0.987767
pair_coeff 17 33 1.000000 0.890000 0.998991
pair_coeff 17 34 1.000000 0.900000 1.010216
pair_coeff 17 35 1.000000 0.910000 1.021440
pair_coeff 17 36 1.000000 0.920000 1.032665
pair_coeff 17 37 1.000000 0.930000 1.043890
pair_coeff 17 38 1.000000 0.940000 1.055114
pair_coeff 17 39 1.000000 0.950000 1.066339
pair_coeff 17 40 1.000000 0.960000 1.077564
pair_coeff 17 41 1.000000 0.970000 1.088788
pair_coeff 17 42 1.000000 0.980000 1.100013
pair_coeff 17 43 1.000000 0.990000 1.111237
pair_coeff 17 44 1.000000 1.000000 1.122462
pair_coeff 17 45 1.000000 1.010000 1.133687
pair_coeff 17 46 1.000000 1.020000 1.144911
pair_coeff 17 47 1.000000 1.030000 1.156136
pair_coeff 17 48 1.000000 1.040000 1.167361
pair_coeff 17 49 1.000000 1.050000 1.178585
pair_coeff 17 50 1.000000 1.060000 1.189810
pair_coeff 17 51 1.000000 1.070000 1.201034
pair_coeff 17 52 1.000000 1.080000 1.212259
pair_coeff 17 53 1.000000 1.090000 1.223484
pair_coeff 17 54 1.000000 1.100000 1.234708
pair_coeff 17 55 1.000000 1.110000 1.245933
pair_coeff 17 56 1.000000 1.120000 1.257157
pair_coeff 17 57 1.000000 1.130000 1.268382
pair_coeff 17 58 1.000000 1.140000 1.279607
pair_coeff 17 59 1.000000 1.150000 1.290831
pair_coeff 17 60 1.000000 1.160000 1.302056
pair_coeff 18 18 1.000000 0.750000 0.841847
pair_coeff 18 19 1.000000 0.760000 0.853071
pair_coeff 18 20 1.000000 0.770000 0.864296
pair_coeff 18 21 1.000000 0.780000 0.875520
pair_coeff 18 22 1.000000 0.790000 0.886745
pair_coeff 18 23 1.000000 0.800000 0.897970
pair_coeff 18 24 1.000000 0.810000 0.909194
pair_coeff 18 25 1.000000 0.820000 0.920419
pair_coeff 18 26 1.000000 0.830000 0.931644
pair_coeff 18 27 1.000000 0.840000 0.942868
pair_coeff 18 28 1.000000 0.850000 0.954093
pair_coeff 18 29 1.000000 0.860000 0.965317
pair_coeff 18 30 1.000000 0.870000 0.976542
pair_coeff 18 31 1.000000 0.880000 0.987767
pair_coeff 18 32 1.000000 0.890000 0.998991
pair_coeff 18 33 1.000000 0.900000 1.010216
pair_coeff 18 34 1.000000 0.910000 1.021440
pair_coeff 18 35 1.000000 0.920000 1.032665
pair_coeff 18 36 1.000000 0.930000 1.043890
pair_coeff 18 37 1.000000 0.940000 1.055114
pair_coeff 18 38 1.000000 0.950000 1.066339
pair_coeff 18 39 1.000000 0.960000 1.077564
pair_coeff 18 40 1.000000 0.970000 1.088788
pair_coeff 18 41 1.000000 0.980000 1.100013
pair_coeff 18 42 1.000000 0.990000 1.111237
pair_coeff 18 43 1.000000 1.000000 1.122462
pair_coeff 18 44 1.000000 1.010000 1.133687
pair_coeff 18 45 1.000000 1.020000 1.144911
pair_coeff 18 46 1.000000 1.030000 1.156136
pair_coeff 18 47 1.000000 1.040000 1.167361
pair_coeff 18 48 1.000000 1.050000 1.178585
pair_coeff 18 49 1.000000 1.060000 1.189810
pair_coeff 18 50 1.000000 1.070000 1.201034
pair_coeff 18 51 1.000000 1.080000 1.212259
pair_coeff 18 52 1.000000 1.090000 1.223484
pair_coeff 18 53 1.000000 1.100000 1.234708
pair_coeff 18 54 1.000000 1.110000 1.245933
pair_coeff 18 55 1.000000 1.120000 1.257157
pair_coeff 18 56 1.000000 1.130000 1.268382
pair_coeff 18 57 1.000000 1.140000 1.279607
pair_coeff 18 58 1.000000 1.150000 1.290831
pair_coeff 18 59 1.000000 1.160000 1.302056
pair_coeff 18 60 1.000000 1.170000 1.313281
pair_coeff 19 19 1.000000 0.770000 0.864296
pair_coeff 19 20 1.000000 0.780000 0.875520
pair_coeff 19 21 1.000000 0.790000 0.886745
pair_coeff 19 22 1.000000 0.800000 0.897970
pair_coeff 19 23 1.000000 0.810000 0.909194
pair_coeff 19 24 1.000000 0.820000 0.920419
pair_coeff 19 25 1.000000 0.830000 0.931644
pair_coeff 19 26 1.000000 0.840000 0.942868
pair_coeff 19 27 1.000000 0.850000 0.954093
pair_coeff 19 28 1.000000 0.860000 0.965317
pair_coeff 19 29 1.000000 0.870000 0.976542
pair_coeff 19 30 1.000000 0.880000 0.987767
pair_coeff 19 31 1.000000 0.890000 0.998991
pair_coeff 19 32 1.000000 0.900000 1.010216
pair_coeff 19 33 1.000000 0.910000 1.021440
pair_coeff 19 34 1.000000 0.920000 1.032665
pair_coeff 19 35 1.000000 0.930000 1.043890
pair_coeff 19 36 1.000000 0.940000 1.055114
pair_coeff 19 37 1.000000 0.950000 1.066339
pair_coeff 19 38 1.000000 0.960000 1.077564
pair_coeff 19 39 1.000000 0.970000 1.088788
pair_coeff 19 40 1.000000 0.980000 1.100013
pair_coeff 19 41 1.000000 0.990000 1.111237
pair_coeff 19 42 1.000000 1.000000 1.122462
pair_coeff 19 43 1.000000 1.010000 1.133687
pair_coeff 19 44 1.000000 1.020000 1.144911
pair_coeff 19 45 1.000000 1.030000 1.156136
pair_coeff 19 46 1.000000 1.040000 1.167361
pair_coeff 19 47 1.000000 1.050000 1.178585
pair_coeff 19 48 1.000000 1.060000 1.189810
pair_coeff 19 49 1.000000 1.070000 1.201034
pair_coeff 19 50 1.000000 1.080000 1.212259
pair_coeff 19 51 1.000000 1.090000 1.223484
pair_coeff 19 52 1.000000 1.100000 1.234708
pair_coeff 19 53 1.000000 1.110000 1.245933
pair_coeff 19 54 1.000000 1.120000 1.257157
pair_coeff 19 55 1.000000 1.130000 1.268382
pair_coeff 19 56 1.000000 1.140000 1.279607
pair_coeff 19 57 1.000000 1.150000 1.290831
pair_coeff 19 58 1.000000 1.160000 1.302056
pair_coeff 19 59 1.000000 1.170000 1.313281
pair_coeff 19 60 1.000000 1.180000 1.324505
pair_coeff 20 20 1.000000 0.790000 0.886745
pair_coeff 20 21 1.000000 0.800000 0.897970
pair_coeff 20 22 1.000000 0.810000 0.909194
pair_coeff 20 23 1.000000 0.820000 0.920419
pair_coeff 20 24 1.000000 0.830000 0.931644
pair_coeff 20 25 1.000000 0.840000 0.942868
pair_coeff 20 26 1.000000 0.850000 0.954093
pair_coeff 20 27 1.000000 0.860000 0.965317
pair_coeff 20 28 1.000000 0.870000 0.976542
pair_coeff 20 29 1.000000 0.880000 0.987767
pair_coeff 20 30 1.000000 0.890000 0.998991
pair_coeff 20 31 1.000000 0.900000 1.010216
pair_coeff 20 32 1.000000 0.910000 1.021440
pair_coeff 20 33 1.000000 0.920000 1.032665
pair_coeff 20 34 1.000000 0.930000 1.043890
pair_coeff 20 35 1.000000 0.940000 1.055114
pair_coeff 20 36 1.000000 0.950000 1.066339
pair_coeff 20 37 1.000000 0.960000 1.077564
pair_coeff 20 38 1.000000 0.970000 1.088788
pair_coeff 20 39 1.000000 0.980000 1.100013
pair_coeff 20 40 1.000000 0.990000 1.111237
pair_coeff 20 41 1.000000 1.000000 1.122462
pair_coeff 20 42 1.000000 1.010000 1.133687
pair_coeff 20 43 1.000000 1.020000 1.144911
pair_coeff 20 44 1.000000 1.030000 1.156136
pair_coeff 20 45 1.000000 1.040000 1.167361
pair_coeff 20 46 1.000000 1.050000 1.178585
pair_coeff 20 47 1.000000 1.060000 1.189810
pair_coeff 20 48 1.000000 1.070000 1.201034
pair_coeff 20 49 1.000000 1.080000 1.212259
pair_coeff 20 50 1.000000 1.090000 1.223484
pair_coeff 20 51 1.000000 1.100000 1.234708
pair_coeff 20 52 1.000000 1.110000 1.245933
pair_coeff 20 53 1.000000 1.120000 1.257157
pair_coeff 20 54 1.000000 1.130000 1.268382
pair_coeff 20 55 1.000000 1.140000 1.279607
pair_coeff 20 56 1.000000 1.150000 1.290831
pair_coeff 20 57 1.000000 1.160000 1.302056
pair_coeff 20 58 1.000000 1.170000 1.313281
pair_coeff 20 59 1.000000 1.180000 1.324505
pair_coeff 20 60 1.000000 1.190000 1.335730
pair_coeff 21 21 1.000000 0.810000 0.909194
pair_coeff 21 22 1.000000 0.820000 0.920419
pair_coeff 21 23 1.000000 0.830000 0.931644
pair_coeff 21 24 1.000000 0.840000 0.942868
pair_coeff 21 25 1.000000 0.850000 0.954093
pair_coeff 21 26 1.000000 0.860000 0.965317
pair_coeff 21 27 1.000000 0.870000 0.976542
pair_coeff 21 28 1.000000 0.880000 0.987767
pair_coeff 21 29 1.000000 0.890000 0.998991
pair_coeff 21 30 1.000000 0.900000 1.010216
pair_coeff 21 31 1.000000 0.910000 1.021440
pair_coeff 21 32 1.000000 0.920000 1.032665
pair_coeff 21 33 1.000000 0.930000 1.043890
pair_coeff 21 34 1.000000 0.940000 1.055114
pair_coeff 21 35 1.000000 0.950000 1.066339
pair_coeff 21 36 1.000000 0.960000 1.077564
pair_coeff 21 37 1.000000 0.970000 1.088788
pair_coeff 21 38 1.000000 0.980000 1.100013
pair_coeff 21 39 1.000000 0.990000 1.111237
pair_coeff 21 40 1.000000 1.000000 1.122462
pair_coeff 21 41 1.000000 1.010000 1.133687
pair_coeff 21 42 1.000000 1.020000 1.144911
pair_coeff 21 43 1.000000 1.030000 1.156136
pair_coeff 21 44 1.000000 1.040000 1.167361
pair_coeff 21 45 1.000000 1.050000 1.178585
pair_coeff 21 46 1.000000 1.060000 1.189810
pair_coeff 21 47 1.000000 1.070000 1.201034
pair_coeff 21 48 1.000000 1.080000 1.212259
pair_coeff 21 49 1.000000 1.090000 1.223484
pair_coeff 21 50 1.000000 1.100000 1.234708
pair_coeff 21 51 1.000000 1.110000 1.245933
pair_coeff 21 52 1.000000 1.120000 1.257157
pair_coeff 21 53 1.000000 1.130000 1.268382
pair_coeff 21 54 1.000000 1.140000 1.279607
pair_coeff 21 55 1.000000 1.150000 1.290831
pair_coeff 21 56 1.000000 1.160000 1.302056
pair_coeff 21 57 1.000000 1.170000 1.313281
pair_coeff 21 58 1.000000 1.180000 1.324505
pair_coeff 21 59 1.000000 1.190000 1.335730
pair_coeff 21 60 1.000000 1.200000 1.346954
pair_coeff 22 22 1.000000 0.830000 0.931644
pair_coeff 22 23 1.000000 0.840000 0.942868
pair_coeff 22 24 1.000000 0.850000 0.954093
pair_coeff 22 25 1.000000 0.860000 0.965317
pair_coeff 22 26 1.000000 0.870000 0.976542
pair_coeff 22 27 1.000000 0.880000 0.987767
pair_coeff 22 28 1.000000 0.890000 0.998991
pair_coeff 22 29 1.000000 0.900000 1.010216
pair_coeff 22 30 1.000000 0.910000 1.021440
pair_coeff 22 31 1.000000 0.920000 1.032665
pair_coeff 22 32 1.000000 0.930000 1.043890
pair_coeff 22 33 1.000000 0.940000 1.055114
pair_coeff 22 34 1.000000 0.950000 1.066339
pair_coeff 22 35 1.000000 0.960000 1.077564
pair_coeff 22 36 1.000000 0.970000 1.088788
pair_coeff 22 37 1.000000 0.980000 1.100013
pair_coeff 22 38 1.000000 0.990000 1.111237
pair_coeff 22 39 1.000000 1.000000 1.122462
pair_coeff 22 40 1.000000 1.010000 1.133687
pair_coeff 22 41 1.000000 1.020000 1.144911
pair_coeff 22 42 1.000000 1.030000 1.156136
pair_coeff 22 43 1.000000 1.040000 1.167361
pair_coeff 22 44 1.000000 1.050000 1.178585
pair_coeff 22 45 1.000000 1.060000 1.189810
pair_coeff 22 46 1.000000 1.070000 1.201034
pair_coeff 22 47 1.000000 1.080000 1.212259
pair_coeff 22 48 1.000000 1.090000 1.223484
pair_coeff 22 49 1.000000 1.100000 1.234708
pair_coeff 22 50 1.000000 1.110000 1.245933
pair_coeff 22 51 1.000000 1.120000 1.257157
pair_coeff 22 52 1.000000 1.130000 1.268382
pair_coeff 22 53 1.000000 1.140000 1.279607
pair_coeff 22 54 1.000000 1.150000 1.290831
pair_coeff 22 55 1.000000 1.160000 1.302056
pair_coeff 22 56 1.000000 1.170000 1.313281
pair_coeff 22 57 1.000000 1.180000 1.324505
pair_coeff 22 58 1.000000 1.190000 1.335730
pair_coeff 22 59 1.000000 1.200000 1.346954
pair_coeff 22 60 1.000000 1.210000 1.358179
pair_coeff 23 23 1.000000 0.850000 0.954093
pair_coeff 23 24 1.000000 0.860000 0.965317
pair_coeff 23 25 1.000000 0.870000 0.976542
pair_coeff 23 26 1.000000 0.880000 0.987767
pair_coeff 23 27 1.000000 0.890000 0.998991
pair_coeff 23 28 1.000000 0.900000 1.010216
pair_coeff 23 29 1.000000 0.910000 1.021440
pair_coeff 23 30 1.000000 0.920000 1.032665
pair_coeff 23 31 1.000000 0.930000 1.043890
pair_coeff 23 32 1.000000 0.940000 1.055114
pair_coeff 23 33 1.000000 0.950000 1.066339
pair_coeff 23 34 1.000000 0.960000 1.077564
pair_coeff 23 35 1.000000 0.970000 1.088788
pair_coeff 23 36 1.000000 0.980000 1.100013
pair_coeff 23 37 1.000000 0.990000 1.111237
pair_coeff 23 38 1.000000 1.000000 1.122462
pair_coeff 23 39 1.000000 1.010000 1.133687
pair_coeff 23 40 1.000000 1.020000 1.144911
pair_coeff 23 41 1.000000 1.030000 1.156136
pair_coeff 23 42 1.000000 1.040000 1.167361
pair_coeff 23 43 1.000000 1.050000 1.178585
pair_coeff 23 44 1.000000 1.060000 1.189810
pair_coeff 23 45 1.000000 1.070000 1.201034
pair_coeff 23 46 1.000000 1.080000 1.212259
pair_coeff 23 47 1.000000 1.090000 1.223484
pair_coeff 23 48 1.000000 1.100000 1.234708
pair_coeff 23 49 1.000000 1.110000 1.245933
pair_coeff 23 50 1.000000 1.120000 1.257157
pair_coeff 23 51 1.000000 1.130000 1.268382
pair_coeff 23 52 1.000000 1.140000 1.279607
pair_coeff 23 53 1.000000 1.150000 1.290831
pair_coeff 23 54 1.000000 1.160000 1.302056
pair_coeff 23 55 1.000000 1.170000 1.313281
pair_coeff 23 56 1.000000 1.180000 1.324505
pair_coeff 23 57 1.000000 1.190000 1.335730
pair_coeff 23 58 1.000000 1.200000 1.346954
pair_coeff 23 59 1.000000 1.210000 1.358179
pair_coeff 23 60 1.000000 1.220000 1.369404
pair_coeff 24 24 1.000000 0.870000 0.976542
pair_coeff 24 25 1.000000 0.880000 0.987767
pair_coeff 24 26 1.000000 0.890000 0.998991
pair_coeff 24 27 1.000000 0.900000 1.010216
pair_coeff 24 28 1.000000 0.910000 1.021440
pair_coeff 24 29 1.000000 0.920000 1.032665
pair_coeff 24 30 1.000000 0.930000 1.043890
pair_coeff 24 31 1.000000 0.940000 1.055114
pair_coeff 24 32 1.000000 0.950000 1.066339
pair_coeff 24 33 1.000000 0.960000 1.077564
pair_coeff 24 34 1.000000 0.970000 1.088788
pair_coeff 24 35 1.000000 0.980000 1.100013
pair_coeff 24 36 1.000000 0.990000 1.111237
pair_coeff 24 37 1.000000 1.000000 1.122462
pair_coeff 24 38 1.000000 1.010000 1.133687
pair_coeff 24 39 1.000000 1.020000 1.144911
pair_coeff 24 40 1.000000 1.030000 1.156136
pair_coeff 24 41 1.000000 1.040000 1.167361
pair_coeff 24 42 1.000000 1.050000 1.178585
pair_coeff 24 43 1.000000 1.060000 1.189810
pair_coeff 24 44 1.000000 1.070000 1.201034
pair_coeff 24 45 1.000000 1.080000 1.212259
pair_coeff 24 46 1.000000 1.090000 1.223484
pair_coeff 24 47 1.000000 1.100000 1.234708
pair_coeff 24 48 1.000000 1.110000 1.245933
pair_coeff 24 49 1.000000 1.120000 1.257157
pair_coeff 24 50 1.000000 1.130000 1.268382
pair_coeff 24 51 1.000000 1.140000 1.279607
pair_coeff 24 52 1.000000 1.150000 1.290831
pair_coeff 24 53 1.000000 1.160000 1.302056
pair_coeff 24 54 1.000000 1.170000 1.313281
pair_coeff 24 55 1.000000 1.180000 1.324505
pair_coeff 24 56 1.000000 1.190000 1.335730
pair_coeff 24 57 1.000000 1.200000 1.346954
pair_coeff 24 58 1.000000 1.210000 1.358179
pair_coeff 24 59 1.000000 1.220000 1.369404
pair_coeff 24 60 1.000000 1.230000 1.380628
pair_coeff 25 25 1.000000 0.890000 0.998991
pair_coeff 25 26 1.000000 0.900000 1.010216
pair_coeff 25 27 1.000000 0.910000 1.021440
pair_coeff 25 28 1.000000 0.920000 1.032665
pair_coeff 25 29 1.000000 0.930000 1.043890
pair_coeff 25 30 1.000000 0.940000 1.055114
pair_coeff 25 31 1.000000 0.950000 1.066339
pair_coeff 25 32 1.000000 0.960000 1.077564
pair_coeff 25 33 1.000000 0.970000 1.088788
pair_coeff 25 34 1.000000 0.980000 1.100013
pair_coeff 25 35 1.000000 0.990000 1.111237
pair_coeff 25 36 1.000000 1.000000 1.122462
pair_coeff 25 37 1.000000 1.010000 1.133687
pair_coeff 25 38 1.000000 1.020000 1.144911
pair_coeff 25 39 1.000000 1.030000 1.156136
pair_coeff 25 40 1.000000 1.040000 1.167361
pair_coeff 25 41 1.000000 1.050000 1.178585
pair_coeff 25 42 1.000000 1.060000 1.189810
pair_coeff 25 43 1.000000 1.070000 1.201034
pair_coeff 25 44 1.000000 1.080000 1.212259
pair_coeff 25 45 1.000000 1.090000 1.223484
pair_coeff 25 46 1.000000 1.100000 1.234708
pair_coeff 25 47 1.000000 1.110000 1.245933
pair_coeff 25 48 1.000000 1.120000 1.257157
pair_coeff 25 49 1.000000 1.130000 1.268382
pair_coeff 25 50 1.000000 1.140000 1.279607
pair_coeff 25 51 1.000000 1.150000 1.290831
pair_coeff 25 52 1.000000 1.160000 1.302056
pair_coeff 25 53 1.000000 1.170000 1.313281
pair_coeff 25 54 1.000000 1.180000 1.324505
pair_coeff 25 55 1.000000 1.190000 1.335730
pair_coeff 25 56 1.000000 1.200000 1.346954
pair_coeff 25 57 1.000000 1.210000 1.358179
pair_coeff 25 58 1.000000 1.220000 1.369404
pair_coeff 25 59 1.000000 1.230000 1.380628
pair_coeff 25 60 1.000000 1.240000 1.391853
pair_coeff 26 26 1.000000 0.910000 1.021440
pair_coeff 26 27 1.000000 0.920000 1.032665
pair_coeff 26 28 1.000000 0.930000 1.043890
pair_coeff 26 29 1.000000 0.940000 1.055114
pair_coeff 26 30 1.000000 0.950000 1.066339
pair_coeff 26 31 1.000000 0.960000 1.077564
pair_coeff 26 32 1.000000 0.970000 1.088788
pair_coeff 26 33 1.000000 0.980000 1.100013
pair_coeff 26 34 1.000000 0.990000 1.111237
pair_coeff 26 35 1.000000 1.000000 1.122462
pair_coeff 26 36 1.000000 1.010000 1.133687
pair_coeff 26 37 1.000000 1.020000 1.144911
pair_coeff 26 38 1.000000 1.030000 1.156136
pair_coeff 26 39 1.000000 1.040000 1.167361
pair_coeff 26 40 1.000000 1.050000 1.178585
pair_coeff 26 41 1.000000 1.060000 1.189810
pair_coeff 26 42 1.000000 1.070000 1.201034
pair_coeff 26 43 1.000000 1.080000 1.212259
pair_coeff 26 44 1.000000 1.090000 1.223484
pair_coeff 26 45 1.000000 1.100000 1.234708
pair_coeff 26 46 1.000000 1.110000 1.245933
pair_coeff 26 47 1.000000 1.120000 1.257157
pair_coeff 26 48 1.000000 1.130000 1.268382
pair_coeff 26 49 1.000000 1.140000 1.279607
pair_coeff 26 50 1.000000 1.150000 1.290831
pair_coeff 26 51 1.000000 1.160000 1.302056
pair_coeff 26 52 1.000000 1.170000 1.313281
pair_coeff 26 53 1.000000 1.180000 1.324505
pair_coeff 26 54 1.000000 1.190000 1.335730
pair_coeff 26 55 1.000000 1.200000 1.346954
pair_coeff 26 56 1.000000 1.210000 1.358179
pair_coeff 26 57 1.000000 1.220000 1.369404
pair_coeff 26 58 1.000000 1.230000 1.380628
pair_coeff 26 59 1.000000 1.240000 1.391853
pair_coeff 26 60 1.000000 1.250000 1.403078
pair_coeff 27 27 1.000000 0.930000 1.043890
pair_coeff 27 28 1.000000 0.940000 1.055114
pair_coeff 27 29 1.000000 0.950000 1.066339
pair_coeff 27 30 1.000000 0.960000 1.077564
pair_coeff 27 31 1.000000 0.970000 1.088788
pair_coeff 27 32 1.000000 0.980000 1.100013
pair_coeff 27 33 1.000000 0.990000 1.111237
pair_coeff 27 34 1.000000 1.000000 1.122462
pair_coeff 27 35 1.000000 1.010000 1.133687
pair_coeff 27 36 1.000000 1.020000 1.144911
pair_coeff 27 37 1.000000 1.030000 1.156136
pair_coeff 27 38 1.000000 1.040000 1.167361
pair_coeff 27 39 1.000000 1.050000 1.178585
pair_coeff 27 40 1.000000 1.060000 1.189810
pair_coeff 27 41 1.000000 1.070000 1.201034
pair_coeff 27 42 1.000000 1.080000 1.212259
pair_coeff 27 43 1.000000 1.090000 1.223484
pair_coeff 27 44 1.000000 1.100000 1.234708
pair_coeff 27 45 1.000000 1.110000 1.245933
pair_coeff 27 46 1.000000 1.120000 1.257157
pair_coeff 27 47 1.000000 1.130000 1.268382
pair_coeff 27 48 1.000000 1.140000 1.279607
pair_coeff 27 49 1.000000 1.150000 1.290831
pair_coeff 27 50 1.000000 1.160000 1.302056
pair_coeff 27 51 1.000000 1.170000 1.313281
pair_coeff 27 52 1.000000 1.180000 1.324505
pair_coeff 27 53 1.000000 1.190000 1.335730
pair_coeff 27 54 1.000000 1.200000 1.346954
pair_coeff 27 55 1.000000 1.210000 1.358179
pair_coeff 27 56 1.000000 1.220000 1.369404
pair_coeff 27 57 1.000000 1.230000 1.380628
pair_coeff 27 58 1.000000 1.240000 1.391853
pair_coeff 27 59 1.000000 1.250000 1.403078
pair_coeff 27 60 1.000000 1.260000 1.414302
pair_coeff 28 28 1.000000 0.950000 1.066339
pair_coeff 28 29 1.000000 0.960000 1.077564
pair_coeff 28 30 1.000000 0.970000 1.088788
pair_coeff 28 31 1.000000 0.980000 1.100013
pair_coeff 28 32 1.000000 0.990000 1.111237
pair_coeff 28 33 1.000000 1.000000 1.122462
pair_coeff 28 34 1.000000 1.010000 1.133687
pair_coeff 28 35 1.000000 1.020000 1.144911
pair_coeff 28 36 1.000000 1.030000 1.156136
pair_coeff 28 37 1.000000 1.040000 1.167361
pair_coeff 28 38 1.000000 1.050000 1.178585
pair_coeff 28 39 1.000000 1.060000 1.189810
pair_coeff 28 40 1.000000 1.070000 1.201034
pair_coeff 28 41 1.000000 1.080000 1.212259
pair_coeff 28 42 1.000000 1.090000 1.223484
pair_coeff 28 43 1.000000 1.100000 1.234708
pair_coeff 28 44 1.000000 1.110000 1.245933
pair_coeff 28 45 1.000000 1.120000 1.257157
pair_coeff 28 46 1.000000 1.130000 1.268382
pair_coeff 28 47 1.000000 1.140000 1.279607
pair_coeff 28 48 1.000000 1.150000 1.290831
pair_coeff 28 49 1.000000 1.160000 1.302056
pair_coeff 28 50 1.000000 1.170000 1.313281
pair_coeff 28 51 1.000000 1.180000 1.324505
pair_coeff 28 52 1.000000 1.190000 1.335730
pair_coeff 28 53 1.000000 1.200000 1.346954
pair_coeff 28 54 1.000000 1.210000 1.358179
pair_coeff 28 55 1.000000 1.220000 1.369404
pair_coeff 28 56 1.000000 1.230000 1.380628
pair_coeff 28 57 1.000000 1.240000 1.391853
pair_coeff 28 58 1.000000 1.250000 1.403078
pair_coeff 28 59 1.000000 1.260000 1.414302
pair_coeff 28 60 1.000000 1.270000 1.425527
pair_coeff 29 29 1.000000 0.970000 1.088788
pair_coeff 29 30 1.000000 0.980000 1.100013
pair_coeff 29 31 1.000000 0.990000 1.111237
pair_coeff 29 32 1.000000 1.000000 1.122462
pair_coeff 29 33 1.000000 1.010000 1.133687
pair_coeff 29 34 1.000000 1.020000 1.144911
pair_coeff 29 35 1.000000 1.030000 1.156136
pair_coeff 29 36 1.000000 1.040000 1.167361
pair_coeff 29 37 1.000000 1.050000 1.178585
pair_coeff 29 38 1.000000 1.060000 1.189810
pair_coeff 29 39 1.000000 1.070000 1.201034
pair_coeff 29 40 1.000000 1.080000 1.212259
pair_coeff 29 41 1.000000 1.090000 1.223484
pair_coeff 29 42 1.000000 1.100000 1.234708
pair_coeff 29 43 1.000000 1.110000 1.245933
pair_coeff 29 44 1.000000 1.120000 1.257157
pair_coeff 29 45 1.000000 1.130000 1.268382
pair_coeff 29 46 1.000000 1.140000 1.279607
pair_coeff 29 47 1.000000 1.150000 1.290831
pair_coeff 29 48 1.000000 1.160000 1.302056
pair_coeff 29 49 1.000000 1.170000 1.313281
pair_coeff 29 50 1.000000 1.180000 1.324505
pair_coeff 29 51 1.000000 1.190000 1.335730
pair_coeff 29 52 1.000000 1.200000 1.346954
pair_coeff 29 53 1.000000 1.210000 1.358179
pair_coeff 29 54 1.000000 1.220000 1.369404
pair_coeff 29 55 1.000000 1.230000 1.380628
pair_coeff 29 56 1.000000 1.240000 1.391853
pair_coeff 29 57 1.000000 1.250000 1.403078
pair_coeff 29 58 1.000000 1.260000 1.414302
pair_coeff 29 59 1.000000 1.270000 1.425527
pair_coeff 29 60 1.000000 1.280000 1.436751
pair_coeff 30 30 1.000000 0.990000 1.111237
pair_coeff 30 31 1.000000 1.000000 1.122462
pair_coeff 30 32 1.000000 1.010000 1.133687
pair_coeff 30 33 1.000000 1.020000 1.144911
pair_coeff 30 34 1.000000 1.030000 1.156136
pair_coeff 30 35 1.000000 1.040000 1.167361
pair_coeff 30 36 1.000000 1.050000 1.178585
pair_coeff 30 37 1.000000 1.060000 1.189810
pair_coeff 30 38 1.000000 1.070000 1.201034
pair_coeff 30 39 1.000000 1.080000 1.212259
pair_coeff 30 40 1.000000 1.090000 1.223484
pair_coeff 30 41 1.000000 1.100000 1.234708
pair_coeff 30 42 1.000000 1.110000 1.245933
pair_coeff 30 43 1.000000 1.120000 1.257157
pair_coeff 30 44 1.000000 1.130000 1.268382
pair_coeff 30 45 1.000000 1.140000 1.279607
pair_coeff 30 46 1.000000 1.150000 1.290831
pair_coeff 30 47 1.000000 1.160000 1.302056
pair_coeff 30 48 1.000000 1.170000 1.313281
pair_coeff 30 49 1.000000 1.180000 1.324505
pair_coeff 30 50 1.000000 1.190000 1.335730
pair_coeff 30 51 1.000000 1.200000 1.346954
pair_coeff 30 52 1.000000 1.210000 1.358179
pair_coeff 30 53 1.000000 1.220000 1.369404
pair_coeff 30 54 1.000000 1.230000 1.380628
pair_coeff 30 55 1.000000 1.240000 1.391853
pair_coeff 30 56 1.000000 1.250000 1.403078
pair_coeff 30 57 1.000000 1.260000 1.414302
pair_coeff 30 58 1.000000 1.270000 1.425527
pair_coeff 30 59 1.000000 1.280000 1.436751
pair_coeff 30 60 1.000000 1.290000 1.447976
pair_coeff 31 31 1.000000 1.010000 1.133687
pair_coeff 31 32 1.000000 1.020000 1.144911
pair_coeff 31 33 1.000000 1.030000 1.156136
pair_coeff 31 34 1.000000 1.040000 1.167361
pair_coeff 31 35 1.000000 1.050000 1.178585
pair_coeff 31 36 1.000000 1.060000 1.189810
pair_coeff 31 37 1.000000 1.070000 1.201034
pair_coeff 31 38 1.000000 1.080000 1.212259
pair_coeff 31 39 1.000000 1.090000 1.223484
pair_coeff 31 40 1.000000 1.100000 1.234708
pair_coeff 31 41 1.000000 1.110000 1.245933
pair_coeff 31 42 1.000000 1.120000 1.257157
pair_coeff 31 43 1.000000 1.130000 1.268382
pair_coeff 31 44 1.000000 1.140000 1.279607
pair_coeff 31 45 1.000000 1.150000 1.290831
pair_coeff 31 46 1.000000 1.160000 1.302056
pair_coeff 31 47 1.000000 1.170000 1.313281
pair_coeff 31 48 1.000000 1.180000 1.324505
pair_coeff 31 49 1.000000 1.190000 1.335730
pair_coeff 31 50 1.000000 1.200000 1.346954
pair_coeff 31 51 1.000000 1.210000 1.358179
pair_coeff 31 52 1.000000 1.220000 1.369404
pair_coeff 31 53 1.000000 1.230000 1.380628
pair_coeff 31 54 1.000000 1.240000 1.391853
pair_coeff 31 55 1.000000 1.250000 1.403078
pair_coeff 31 56 1.000000 1.260000 1.414302
pair_coeff 31 57 1.000000 1.270000 1.425527
pair_coeff 31 58 1.000000 1.280000 1.436751
pair_coeff 31 59 1.000000 1.290000 1.447976
pair_coeff 31 60 1.000000 1.300000 1.459201
pair_coeff 32 32 1.000000 1.030000 1.156136
pair_coeff 32 33 1.000000 1.040000 1.167361
pair_coeff 32 34 1.000000 1.050000 1.178585
pair_coeff 32 35 1.000000 1.060000 1.189810
pair_coeff 32 36 1.000000 1.070000 1.201034
pair_coeff 32 37 1.000000 1.080000 1.212259
pair_coeff 32 38 1.000000 1.090000 1.223484
pair_coeff 32 39 1.000000 1.100000 1.234708
pair_coeff 32 40 1.000000 1.110000 1.245933
pair_coeff 32 41 1.000000 1.120000 1.257157
pair_coeff 32 42 1.000000 1.130000 1.268382
pair_coeff 32 43 1.000000 1.140000 1.279607
pair_coeff 32 44 1.000000 1.150000 1.290831
pair_coeff 32 45 1.000000 1.160000 1.302056
pair_coeff 32 46 1.000000 1.170000 1.313281
pair_coeff 32 47 1.000000 1.180000 1.324505
pair_coeff 32 48 1.000000 1.190000 1.335730
pair_coeff 32 49 1.000000 1.200000 1.346954
pair_coeff 32 50 1.000000 1.210000 1.358179
pair_coeff 32 51 1.000000 1.220000 1.369404
pair_coeff 32 52 1.000000 1.230000 1.380628
pair_coeff 32 53 1.000000 1.240000 1.391853
pair_coeff 32 54 1.000000 1.250000 1.403078
pair_coeff 32 55 1.000000 1.260000 1.414302
pair_coeff 32 56 1.000000 1.270000 1.425527
pair_coeff 32 57 1.000000 1.280000 1.436751
pair_coeff 32 58 1.000000 1.290000 1.447976
pair_coeff 32 59 1.000000 1.300000 1.459201
pair_coeff 32 60 1.000000 1.310000 1.470425
pair_coeff 33 33 1.000000 1.050000 1.178585
pair_coeff 33 34 1.000000 1.060000 1.189810
pair_coeff 33 35 1.000000 1.070000 1.201034
pair_coeff 33 36 1.000000 1.080000 1.212259
pair_coeff 33 37 1.000000 1.090000 1.223484
pair_coeff 33 38 1.000000 1.100000 1.234708
pair_coeff 33 39 1.000000 1.110000 1.245933
pair_coeff 33 40 1.000000 1.120000 1.257157
pair_coeff 33 41 1.000000 1.130000 1.268382
pair_coeff 33 42 1.000000 1.140000 1.279607
pair_coeff 33 43 1.000000 1.150000 1.290831
pair_coeff 33 44 1.000000 1.160000 1.302056
pair_coeff 33 45 1.000000 1.170000 1.313281
pair_coeff 33 46 1.000000 1.180000 1.324505
pair_coeff 33 47 1.000000 1.190000 1.335730
pair_coeff 33 48 1.000000 1.200000 1.346954
pair_coeff 33 49 1.000000 1.210000 1.358179
pair_coeff 33 50 1.000000 1.220000 1.369404
pair_coeff 33 51 1.000000 1.230000 1.380628
pair_coeff 33 52 1.000000 1.240000 1.391853
pair_coeff 33 53 1.000000 1.250000 1.403078
pair_coeff 33 54 1.000000 1.260000 1.414302
pair_coeff 33 55 1.000000 1.270000 1.425527
pair_coeff 33 56 1.000000 1.280000 1.436751
pair_coeff 33 57 1.000000 1.290000 1.447976
pair_coeff 33 58 1.000000 1.300000 1.459201
pair_coeff 33 59 1.000000 1.310000 1.470425
pair_coeff 33 60 1.000000 1.320000 1.481650
pair_coeff 34 34 1.000000 1.070000 1.201034
pair_coeff 34 35 1.000000 1.080000 1.212259
pair_coeff 34 36 1.000000 1.090000 1.223484
pair_coeff 34 37 1.000000 1.100000 1.234708
pair_coeff 34 38 1.000000 1.110000 1.245933
pair_coeff 34 39 1.000000 1.120000 1.257157
pair_coeff 34 40 1.000000 1.130000 1.268382
pair_coeff 34 41 1.000000 1.140000 1.279607
pair_coeff 34 42 1.000000 1.150000 1.290831
pair_coeff 34 43 1.000000 1.160000 1.302056
pair_coeff 34 44 1.000000 1.170000 1.313281
pair_coeff 34 45 1.000000 1.180000 1.324505
pair_coeff 34 46 1.000000 1.190000 1.335730
pair_coeff 34 47 1.000000 1.200000 1.346954
pair_coeff 34 48 1.000000 1.210000 1.358179
pair_coeff 34 49 1.000000 1.220000 1.369404
pair_coeff 34 50 1.000000 1.230000 1.380628
pair_coeff 34 51 1.000000 1.240000 1.391853
pair_coeff 34 52 1.000000 1.250000 1.403078
pair_coeff 34 53 1.000000 1.260000 1.414302
pair_coeff 34 54 1.000000 1.270000 1.425527
pair_coeff 34 55 1.000000 1.280000 1.436751
pair_coeff 34 56 1.000000 1.290000 1.447976
pair_coeff 34 57 1.000000 1.300000 1.459201
pair_coeff 34 58 1.000000 1.310000 1.470425
pair_coeff 34 59 1.000000 1.320000 1.481650
pair_coeff 34 60 1.000000 1.330000 1.492875
pair_coeff 35 35 1.000000 1.090000 1.223484
pair_coeff 35 36 1.000000 1.100000 1.234708
pair_coeff 35 37 1.000000 1.110000 1.245933
pair_coeff 35 38 1.000000 1.120000 1.257157
pair_coeff 35 39 1.000000 1.130000 1.268382
pair_coeff 35 40 1.000000 1.140000 1.279607
pair_coeff 35 41 1.000000 1.150000 1.290831
pair_coeff 35 42 1.000000 1.160000 1.302056
pair_coeff 35 43 1.000000 1.170000 1.313281
pair_coeff 35 44 1.000000 1.180000 1.324505
pair_coeff 35 45 1.000000 1.190000 1.335730
pair_coeff 35 46 1.000000 1.200000 1.346954
pair_coeff 35 47 1.000000 1.210000 1.358179
pair_coeff 35 48 1.000000 1.220000 1.369404
pair_coeff 35 49 1.000000 1.230000 1.380628
pair_coeff 35 50 1.000000 1.240000 1.391853
pair_coeff 35 51 1.000000 1.250000 1.403078
pair_coeff 35 52 1.000000 1.260000 1.414302
pair_coeff 35 53 1.000000 1.270000 1.425527
pair_coeff 35 54 1.000000 1.280000 1.436751
pair_coeff 35 55 1.000000 1.290000 1.447976
pair_coeff 35 56 1.000000 1.300000 1.459201
pair_coeff 35 57 1.000000 1.310000 1.470425
pair_coeff 35 58 1.000000 1.320000 1.481650
pair_coeff 35 59 1.000000 1.330000 1.492875
pair_coeff 35 60 1.000000 1.340000 1.504099
pair_coeff 36 36 1.000000 1.110000 1.245933
pair_coeff 36 37 1.000000 1.120000 1.257157
pair_coeff 36 38 1.000000 1.130000 1.268382
pair_coeff 36 39 1.000000 1.140000 1.279607
pair_coeff 36 40 1.000000 1.150000 1.290831
pair_coeff 36 41 1.000000 1.160000 1.302056
pair_coeff 36 42 1.000000 1.170000 1.313281
pair_coeff 36 43 1.000000 1.180000 1.324505
pair_coeff 36 44 1.000000 1.190000 1.335730
pair_coeff 36 45 1.000000 1.200000 1.346954
pair_coeff 36 46 1.000000 1.210000 1.358179
pair_coeff 36 47 1.000000 1.220000 1.369404
pair_coeff 36 48 1.000000 1.230000 1.380628
pair_coeff 36 49 1.000000 1.240000 1.391853
pair_coeff 36 50 1.000000 1.250000 1.403078
pair_coeff 36 51 1.000000 1.260000 1.414302
pair_coeff 36 52 1.000000 1.270000 1.425527
pair_coeff 36 53 1.000000 1.280000 1.436751
pair_coeff 36 54 1.000000 1.290000 1.447976
pair_coeff 36 55 1.000000 1.300000 1.459201
pair_coeff 36 56 1.000000 1.310000 1.470425
pair_coeff 36 57 1.000000 1.320000 1.481650
pair_coeff 36 58 1.000000 1.330000 1.492875
pair_coeff 36 59 1.000000 1.340000 1.504099
pair_coeff 36 60 1.000000 1.350000 1.515324
pair_coeff 37 37 1.000000 1.130000 1.268382
pair_coeff 37 38 1.000000 1.140000 1.279607
pair_coeff 37 39 1.000000 1.150000 1.290831
pair_coeff 37 40 1.000000 1.160000 1.302056
pair_coeff 37 41 1.000000 1.170000 1.313281
pair_coeff 37 42 1.000000 1.180000 1.324505
pair_coeff 37 43 1.000000 1.190000 1.335730
pair_coeff 37 44 1.000000 1.200000 1.346954
pair_coeff 37 45 1.000000 1.210000 1.358179
pair_coeff 37 46 1.000000 1.220000 1.369404
pair_coeff 37 47 1.000000 1.230000 1.380628
pair_coeff 37 48 1.000000 1.240000 1.391853
pair_coeff 37 49 1.000000 1.250000 1.403078
pair_coeff 37 50 1.000000 1.260000 1.414302
pair_coeff 37 51 1.000000 1.270000 1.425527
pair_coeff 37 52 1.000000 1.280000 1.436751
pair_coeff 37 53 1.000000 1.290000 1.447976
pair_coeff 37 54 1.000000 1.300000 1.459201
pair_coeff 37 55 1.000000 1.310000 1.470425
pair_coeff 37 56 1.000000 1.320000 1.481650
pair_coeff 37 57 1.000000 1.330000 1.492875
pair_coeff 37 58 1.000000 1.340000 1.504099
pair_coeff 37 59 1.000000 1.350000 1.515324
pair_coeff 37 60 1.000000 1.360000 1.526548
pair_coeff 38 38 1.000000 1.150000 1.290831
pair_coeff 38 39 1.000000 1.160000 1.302056
pair_coeff 38 40 1.000000 1.170000 1.313281
pair_coeff 38 41 1.000000 1.180000 1.324505
pair_coeff 38 42 1.000000 1.190000 1.335730
pair_coeff 38 43 1.000000 1.200000 1.346954
pair_coeff 38 44 1.000000 1.210000 1.358179
pair_coeff 38 45 1.000000 1.220000 1.369404
pair_coeff 38 46 1.000000 1.230000 1.380628
pair_coeff 38 47 1.000000 1.240000 1.391853
pair_coeff 38 48 1.000000 1.250000 1.403078
pair_coeff 38 49 1.000000 1.260000 1.414302
pair_coeff 38 50 1.000000 1.270000 1.425527
pair_coeff 38 51 1.000000 1.280000 1.436751
pair_coeff 38 52 1.000000 1.290000 1.447976
pair_coeff 38 53 1.000000 1.300000 1.459201
pair_coeff 38 54 1.000000 1.310000 1.470425
pair_coeff 38 55 1.000000 1.320000 1.481650
pair_coeff 38 56 1.000000 1.330000 1.492875
pair_coeff 38 57 1.000000 1.340000 1.504099
pair_coeff 38 58 1.000000 1.350000 1.515324
pair_coeff 38 59 1.000000 1.360000 1.526548
pair_coeff 38 60 1.000000 1.370000 1.537773
pair_coeff 39 39 1.000000 1.170000 1.313281
pair_coeff 39 40 1.000000 1.180000 1.324505
pair_coeff 39 41 1.000000 1.190000 1.335730
pair_coeff 39 42 1.000000 1.200000 1.346954
pair_coeff 39 43 1.000000 1.210000 1.358179
pair_coeff 39 44 1.000000 1.220000 1.369404
pair_coeff 39 45 1.000000 1.230000 1.380628
pair_coeff 39 46 1.000000 1.240000 1.391853
pair_coeff 39 47 1.000000 1.250000 1.403078
pair_coeff 39 48 1.000000 1.260000 1.414302
pair_coeff 39 49 1.000000 1.270000 1.425527
pair_coeff 39 50 1.000000 1.280000 1.436751
pair_coeff 39 51 1.000000 1.290000 1.447976
pair_coeff 39 52 1.000000 1.300000 1.459201
pair_coeff 39 53 1.000000 1.310000 1.470425
pair_coeff 39 54 1.000000 1.320000 1.481650
pair_coeff 39 55 1.000000 1.330000 1.492875
pair_coeff 39 56 1.000000 1.340000 1.504099
pair_coeff 39 57 1.000000 1.350000 1.515324
pair_coeff 39 58 1.000000 1.360000 1.526548
pair_coeff 39 59 1.000000 1.370000 1.537773
pair_coeff 39 60 1.000000 1.380000 1.548998
pair_coeff 40 40 1.000000 1.190000 1.335730
pair_coeff 40 41 1.000000 1.200000 1.346954
pair_coeff 40 42 1.000000 1.210000 1.358179
pair_coeff 40 43 1.000000 1.220000 1.369404
pair_coeff 40 44 1.000000 1.230000 1.380628
pair_coeff 40 45 1.000000 1.240000 1.391853
pair_coeff 40 46 1.000000 1.250000 1.403078
pair_coeff 40 47 1.000000 1.260000 1.414302
pair_coeff 40 48 1.000000 1.270000 1.425527
pair_coeff 40 49 1.000000 1.280000 1.436751
pair_coeff 40 50 1.000000 1.290000 1.447976
pair_coeff 40 51 1.000000 1.300000 1.459201
pair_coeff 40 52 1.000000 1.310000 1.470425
pair_coeff 40 53 1.000000 1.320000 1.481650
pair_coeff 40 54 1.000000 1.330000 1.492875
pair_coeff 40 55 1.000000 1.340000 1.504099
pair_coeff 40 56 1.000000 1.350000 1.515324
pair_coeff 40 57 1.000000 1.360000 1.526548
pair_coeff 40 58 1.000000 1.370000 1.537773
pair_coeff 40 59 1.000000 1.380000 1.548998
pair_coeff 40 60 1.000000 1.390000 1.560222
pair_coeff 41 41 1.000000 1.210000 1.358179
pair_coeff 41 42 1.000000 1.220000 1.369404
pair_coeff 41 43 1.000000 1.230000 1.380628
pair_coeff 41 44 1.000000 1.240000 1.391853
pair_coeff 41 45 1.000000 1.250000 1.403078
pair_coeff 41 46 1.000000 1.260000 1.414302
pair_coeff 41 47 1.000000 1.270000 1.425527
pair_coeff 41 48 1.000000 1.280000 1.436751
pair_coeff 41 49 1.000000 1.290000 1.447976
pair_coeff 41 50 1.000000 1.300000 1.459201
pair_coeff 41 51 1.000000 1.310000 1.470425
pair_coeff 41 52 1.000000 1.320000 1.481650
pair_coeff 41 53 1.000000 1.330000 1.492875
pair_coeff 41 54 1.000000 1.340000 1.504099
pair_coeff 41 55 1.000000 1.350000 1.515324
pair_coeff 41 56 1.000000 1.360000 1.526548
pair_coeff 41 57 1.000000 1.370000 1.537773
pair_coeff 41 58 1.000000 1.380000 1.548998
pair_coeff 41 59 1.000000 1.390000 1.560222
pair_coeff 41 60 1.000000 1.400000 1.571447
pair_coeff 42 42 1.000000 1.230000 1.380628
pair_coeff 42 43 1.000000 1.240000 1.391853
pair_coeff 42 44 1.000000 1.250000 1.403078
pair_coeff 42 45 1.000000 1.260000 1.414302
pair_coeff 42 46 1.000000 1.270000 1.425527
pair_coeff 42 47 1.000000 1.280000 1.436751
pair_coeff 42 48 1.000000 1.290000 1.447976
pair_coeff 42 49 1.000000 1.300000 1.459201
pair_coeff 42 50 1.000000 1.310000 1.470425
pair_coeff 42 51 1.000000 1.320000 1.481650
pair_coeff 42 52 1.000000 1.330000 1.492875
pair_coeff 42 53 1.000000 1.340000 1.504099
pair_coeff 42 54 1.000000 1.350000 1.515324
pair_coeff 42 55 1.000000 1.360000 1.526548
pair_coeff 42 56 1.000000 1.370000 1.537773
pair_coeff 42 57 1.000000 1.380000 1.548998
pair_coeff 42 58 1.000000 1.390000 1.560222
pair_coeff 42 59 1.000000 1.400000 1.571447
pair_coeff 42 60 1.000000 1.410000 1.582671
pair_coeff 43 43 1.000000 1.250000 1.403078
pair_coeff 43 44 1.000000 1.260000 1.414302
pair_coeff 43 45 1.000000 1.270000 1.425527
pair_coeff 43 46 1.000000 1.280000 1.436751
pair_coeff 43 47 1.000000 1.290000 1.447976
pair_coeff 43 48 1.000000 1.300000 1.459201
pair_coeff 43 49 1.000000 1.310000 1.470425
pair_coeff 43 50 1.000000 1.320000 1.481650
pair_coeff 43 51 1.000000 1.330000 1.492875
pair_coeff 43 52 1.000000 1.340000 1.504099
pair_coeff 43 53 1.000000 1.350000 1.515324
pair_coeff 43 54 1.000000 1.360000 1.526548
pair_coeff 43 55 1.000000 1.370000 1.537773
pair_coeff 43 56 1.000000 1.380000 1.548998
pair_coeff 43 57 1.000000 1.390000 1.560222
pair_coeff 43 58 1.000000 1.400000 1.571447
pair_coeff 43 59 1.000000 1.410000 1.582671
pair_coeff 43 60 1.000000 1.420000 1.593896
pair_coeff 44 44 1.000000 1.270000 1.425527
pair_coeff 44 45 1.000000 1.280000 1.436751
pair_coeff 44 46 1.000000 1.290000 1.447976
pair_coeff 44 47 1.000000 1.300000 1.459201
pair_coeff 44 48 1.000000 1.310000 1.470425
pair_coeff 44 49 1.000000 1.320000 1.481650
pair_coeff 44 50 1.000000 1.330000 1.492875
pair_coeff 44 51 1.000000 1.340000 1.504099
pair_coeff 44 52 1.000000 1.350000 1.515324
pair_coeff 44 53 1.000000 1.360000 1.526548
pair_coeff 44 54 1.000000 1.370000 1.537773
pair_coeff 44 55 1.000000 1.380000 1.548998
pair_coeff 44 56 1.000000 1.390000 1.560222
pair_coeff 44 57 1.000000 1.400000 1.571447
pair_coeff 44 58 1.000000 1.410000 1.582671
pair_coeff 44 59 1.000000 1.420000 1.593896
pair_coeff 44 60 1.000000 1.430000 1.605121
pair_coeff 45 45 1.000000 1.290000 1.447976
pair_coeff 45 46 1.000000 1.300000 1.459201
pair_coeff 45 47 1.000000 1.310000 1.470425
pair_coeff 45 48 1.000000 1.320000 1.481650
pair_coeff 45 49 1.000000 1.330000 1.492875
pair_coeff 45 50 1.000000 1.340000 1.504099
pair_coeff 45 51 1.000000 1.350000 1.515324
pair_coeff 45 52 1.000000 1.360000 1.526548
pair_coeff 45 53 1.000000 1.370000 1.537773
pair_coeff 45 54 1.000000 1.380000 1.548998
pair_coeff 45 55 1.000000 1.390000 1.560222
pair_coeff 45 56 1.000000 1.400000 1.571447
pair_coeff 45 57 1.000000 1.410000 1.582671
pair_coeff 45 58 1.000000 1.420000 1.593896
pair_coeff 45 59 1.000000 1.430000 1.605121
pair_coeff 45 60 1.000000 1.440000 1.616345
pair_coeff 46 46 1.000000 1.310000 1.470425
pair_coeff 46 47 1.000000 1.320000 1.481650
pair_coeff 46 48 1.000000 1.330000 1.492875
pair_coeff 46 49 1.000000 1.340000 1.504099
pair_coeff 46 50 1.000000 1.350000 1.515324
pair_coeff 46 51 1.000000 1.360000 1.526548
pair_coeff 46 52 1.000000 1.370000 1.537773
pair_coeff 46 53 1.000000 1.380000 1.548998
pair_coeff 46 54 1.000000 1.390000 1.560222
pair_coeff 46 55 1.000000 1.400000 1.571447
pair_coeff 46 56 1.000000 1.410000 1.582671
pair_coeff 46 57 1.000000 1.420000 1.593896
pair_coeff 46 58 1.000000 1.430000 1.605121
pair_coeff 46 59 1.000000 1.440000 1.616345
pair_coeff 46 60 1.000000 1.450000 1.627570
pair_coeff 47 47 1.000000 1.330000 1.492875
pair_coeff 47 48 1.000000 1.340000 1.504099
pair_coeff 47 49 1.000000 1.350000 1.515324
pair_coeff 47 50 1.000000 1.360000 1.526548
pair_coeff 47 51 1.000000 1.370000 1.537773
pair_coeff 47 52 1.000000 1.380000 1.548998
pair_coeff 47 53 1.000000 1.390000 1.560222
pair_coeff 47 54 1.000000 1.400000 1.571447
pair_coeff 47 55 1.000000 1.410000 1.582671
pair_coeff 47 56 1.000000 1.420000 1.593896
pair_coeff 47 57 1.000000 1.430000 1.605121
pair_coeff 47 58 1.000000 1.440000 1.616345
pair_coeff 47 59 1.000000 1.450000 1.627570
pair_coeff 47 60 1.000000 1.460000 1.638795
pair_coeff 48 48 1.000000 1.350000 1.515324
pair_coeff 48 49 1.000000 1.360000 1.526548
pair_coeff 48 50 1.000000 1.370000 1.537773
pair_coeff 48 51 1.000000 1.380000 1.548998
pair_coeff 48 52 1.000000 1.390000 1.560222
pair_coeff 48 53 1.000000 1.400000 1.571447
pair_coeff 48 54 1.000000 1.410000 1.582671
pair_coeff 48 55 1.000000 1.420000 1.593896
pair_coeff 48 56 1.000000 1.430000 1.605121
pair_coeff 48 57 1.000000 1.440000 1.616345
pair_coeff 48 58 1.000000 1.450000 1.627570
pair_coeff 48 59 1.000000 1.460000 1.638795
pair_coeff 48 60 1.000000 1.470000 1.650019
pair_coeff 49 49 1.000000 1.370000 1.537773
pair_coeff 49 50 1.000000 1.380000 1.548998
pair_coeff 49 51 1.000000 1.390000 1.560222
pair_coeff 49 52 1.000000 1.400000 1.571447
pair_coeff 49 53 1.000000 1.410000 1.582671
pair_coeff 49 54 1.000000 1.420000 1.593896
pair_coeff 49 55 1.000000 1.430000 1.605121
pair_coeff 49 56 1.000000 1.440000 1.616345
pair_coeff 49 57 1.000000 1.450000 1.627570
pair_coeff 49 58 1.000000 1.460000 1.638795
pair_coeff 49 59 1.000000 1.470000 1.650019
pair_coeff 49 60 1.000000 1.480000 1.661244
pair_coeff 50 50 1.000000 1.390000 1.560222
pair_coeff 50 51 1.000000 1.400000 1.571447
pair_coeff 50 52 1.000000 1.410000 1.582671
pair_coeff 50 53 1.000000 1.420000 1.593896
pair_coeff 50 54 1.000000 1.430000 1.605121
pair_coeff 50 55 1.000000 1.440000 1.616345
pair_coeff 50 56 1.000000 1.450000 1.627570
pair_coeff 50 57 1.000000 1.460000 1.638795
pair_coeff 50 58 1.000000 1.470000 1.650019
pair_coeff 50 59 1.000000 1.480000 1.661244
pair_coeff 50 60 1.000000 1.490000 1.672468
pair_coeff 51 51 1.000000 1.410000 1.582671
pair_coeff 51 52 1.000000 1.420000 1.593896
pair_coeff 51 53 1.000000 1.430000 1.605121
pair_coeff 51 54 1.000000 1.440000 1.616345
pair_coeff 51 55 1.000000 1.450000 1.627570
pair_coeff 51 56 1.000000 1.460000 1.638795
pair_coeff 51 57 1.000000 1.470000 1.650019
pair_coeff 51 58 1.000000 1.480000 1.661244
pair_coeff 51 59 1.000000 1.490000 1.672468
pair_coeff 51 60 1.000000 1.500000 1.683693
pair_coeff 52 52 1.000000 1.430000 1.605121
pair_coeff 52 53 1.000000 1.440000 1.616345
pair_coeff 52 54 1.000000 1.450000 1.627570
pair_coeff 52 55 1.000000 1.460000 1.638795
pair_coeff 52 56 1.000000 1.470000 1.650019
pair_coeff 52 57 1.000000 1.480000 1.661244
pair_coeff 52 58 1.000000 1.490000 1.672468
pair_coeff 52 59 1.000000 1.500000 1.683693
pair_coeff 52 60 1.000000 1.510000 1.694918
pair_coeff 53 53 1.000000 1.450000 1.627570
pair_coeff 53 54 1.000000 1.460000 1.638795
pair_coeff 53 55 1.000000 1.470000 1.650019
pair_coeff 53 56 1.000000 1.480000 1.661244
pair_coeff 53 57 1.000000 1.490000 1.672468
pair_coeff 53 58 1.000000 1.500000 1.683693
pair_coeff 53 59 1.000000 1.510000 1.694918
pair_coeff 53 60 1.000000 1.520000 1.706142
pair_coeff 54 54 1.000000 1.470000 1.650019
pair_coeff 54 55 1.000000 1.480000 1.661244
pair_coeff 54 56 1.000000 1.490000 1.672468
pair_coeff 54 57 1.000000 1.500000 1.683693
pair_coeff 54 58 1.000000 1.510000 1.694918
pair_coeff 54 59 1.000000 1.520000 1.706142
pair_coeff 54 60 1.000000 1.530000 1.717367
pair_coeff 55 55 1.000000 1.490000 1.672468
pair_coeff 55 56 1.000000 1.500000 1.683693
pair_coeff 55 57 1.000000 1.510000 1.694918
pair_coeff 55 58 1.000000 1.520000 1.706142
pair_coeff 55 59 1.000000 1.530000 1.717367
pair_coeff 55 60 1.000000 1.540000 1.728592
pair_coeff 56 56 1.000000 1.510000 1.694918
pair_coeff 56 57 1.000000 1.520000 1.706142
pair_coeff 56 58 1.000000 1.530000 1.717367
pair_coeff 56 59 1.000000 1.540000 1.728592
pair_coeff 56 60 1.000000 1.550000 1.739816
pair_coeff 57 57 1.000000 1.530000 1.717367
pair_coeff 57 58 1.000000 1.540000 1.728592
pair_coeff 57 59 1.000000 1.550000 1.739816
pair_coeff 57 60 1.000000 1.560000 1.751041
pair_coeff 58 58 1.000000 1.550000 1.739816
pair_coeff 58 59 1.000000 1.560000 1.751041
pair_coeff 58 60 1.000000 1.570000 1.762265
pair_coeff 59 59 1.000000 1.570000 1.762265
pair_coeff 59 60 1.000000 1.580000 1.773490
pair_coeff 60 60 1.000000 1.590000 1.784715

thermo 10000
thermo_style custom step temp epair press pxx pyy vol

timestep 0.01
run 2000000   # production run
Neighbor list info ...
  update every 1 steps, delay 1 steps, check yes
  max neighbors/atom: 2000, page size: 100000
  master list distance cutoff = 3.68471
  ghost atom cutoff = 3.68471
  binsize = 1.84236, bins = 17 17 1
  1 neighbor lists, perpetual/occasional/extra = 1 0 0
  (1) pair lj/cut, perpetual
      attributes: half, newton on
      pair build: half/bin/atomonly/newton
      stencil: half/bin/2d/newton
      bin: standard
Per MPI rank memory allocation (min/avg/max) = 3.989 | 3.989 | 3.989 Mbytes
Step Temp E_pair Press Pxx Pyy Volume 
  250000   0.99368974    3.7849419     43.77676    44.000099    43.553422    900.50755 
  260000   0.95814669    3.6478622    43.447732    44.068908    42.826555    900.50755 
  270000   0.95849581    3.6808328     43.82317    43.119258    44.527083    900.50755 
  280000   0.96918294    3.5901192    43.045146    42.683011    43.407281    900.50755 
  290000    1.0401631    3.6591324    43.696979    44.031769    43.362189    900.50755 
  300000    1.0239189    3.5700238    42.971971    42.845204    43.098738    900.50755 
  310000    1.0050206    3.5575263    42.772007    42.703594    42.840421    900.50755 
  320000   0.98031479     3.566635    42.883891    43.111489    42.656294    900.50755 
  330000   0.98320952    3.5914865     43.07693    43.005638    43.148222    900.50755 
  340000    1.0131633    3.6343541    43.442394    43.493278     43.39151    900.50755 
  350000    1.0034701    3.5563468    42.842795    43.314294    42.371296    900.50755 
  360000    1.0424214    3.6159444    43.341319    42.564873    44.117765    900.50755 
  370000    1.0111136    3.6362875    43.418959    43.320845    43.517074    900.50755 
  380000    1.0557189    3.6559563    43.633467    43.207805    44.059128    900.50755 
  390000   0.99044919    3.5672943    42.929353    43.139717    42.718988    900.50755 
  400000    1.0088419    3.6131248    43.228471     43.00682    43.450121    900.50755 
  410000    1.0356658    3.6087833     43.24837     43.93769     42.55905    900.50755 
  420000   0.95488099      3.55885    42.736091    42.977174    42.495008    900.50755 
  430000   0.98549772    3.6064428    43.154548    43.240298    43.068797    900.50755 
  440000    1.0270597    3.6287221    43.383371    43.453987    43.312755    900.50755 
  450000    1.0000016    3.5933476    43.104184    42.767845    43.440523    900.50755 
  460000    1.0303027    3.5980221    43.216966    43.390806    43.043126    900.50755 
  470000     1.016058    3.5997886     43.19205    43.500335    42.883765    900.50755 
  480000   0.99276411    3.5948439    43.086538    43.329174    42.843902    900.50755 
  490000   0.96842046    3.5744203     42.84265    42.856805    42.828495    900.50755 
  500000   0.96061716    3.6072385    43.165395    43.732701     42.59809    900.50755 
  510000   0.95118862    3.6165303    43.219573    43.654475    42.784671    900.50755 
  520000    1.0286145    3.6402655      43.5785    43.698216    43.458785    900.50755 
  530000   0.99144178    3.6050234    43.187946    43.187714    43.188179    900.50755 
  540000   0.98766588    3.5858338    42.996731    43.000015    42.993447    900.50755 
  550000    1.0400514    3.6199728    43.291419     43.25624    43.326598    900.50755 
  560000      1.01528    3.5376176    42.668205    43.397085    41.939324    900.50755 
  570000   0.98731422    3.5949572    43.072333    43.063757    43.080909    900.50755 
  580000    0.9963278    3.4800136    42.180684    42.680768    41.680599    900.50755 
  590000    1.0077557    3.5639204    42.903776    43.089877    42.717675    900.50755 
  600000   0.97300153    3.5708066    42.892317    43.787899    41.996735    900.50755 
  610000    1.0178719    3.5892583    43.019952    43.149027    42.890877    900.50755 
  620000    1.0330123    3.5200869     42.50997    43.182149    41.837791    900.50755 
  630000    1.0318441    3.5464928    42.746042    43.659489    41.832594    900.50755 
  640000    1.0127306    3.5451894    42.635972    43.471971    41.799974    900.50755 
  650000   0.96751051    3.5763273    42.863858    43.829278    41.898438    900.50755 
  660000   0.98763983    3.5788556    42.921868     43.36336    42.480375    900.50755 
  670000   0.96247513    3.5367598    42.536516    43.531122     41.54191    900.50755 
  680000   0.98896214    3.5367113    42.619124     43.01681    42.221438    900.50755 
  690000    1.0791093    3.5288229    42.679999    43.059659     42.30034    900.50755 
  700000    1.0213495     3.558428    42.794869    42.986672    42.603066    900.50755 
  710000   0.99468799    3.5782926    42.914607    43.555148    42.274066    900.50755 
  720000   0.98646077    3.5848073    42.992916    43.944987    42.040845    900.50755 
  730000    1.0094614    3.5836853    42.944422     43.63938    42.249464    900.50755 
  740000   0.99386001    3.5423895    42.676862    43.236625    42.117099    900.50755 
  750000     1.005886    3.5522386    42.654565     43.95449     41.35464    900.50755 
  760000    1.0554399    3.5674535    42.920422    43.794753    42.046091    900.50755 
  770000     1.022821    3.5078586    42.360557    43.203833    41.517281    900.50755 
  780000    1.0031234     3.538555    42.597372    43.738688    41.456056    900.50755 
  790000   0.97642096     3.573176    42.951557     44.32922    41.573895    900.50755 
  800000   0.96774503    3.6135612    43.222535    43.393171    43.051899    900.50755 
  810000    1.0429339    3.5653336    42.894975    43.418453    42.371497    900.50755 
  820000    1.0497187    3.5341636    42.617198    43.560766    41.673631    900.50755 
  830000     1.011366    3.5711594    42.862449    43.781452    41.943446    900.50755 
  840000    0.9959387      3.54719    42.675559    43.099082    42.252036    900.50755 
  850000    1.0004612     3.537161    42.520955    42.957425    42.084485    900.50755 
  860000   0.94909683    3.5734269    42.782259    42.844179    42.720339    900.50755 
  870000   0.99957968    3.5115966    42.357739    42.678703    42.036775    900.50755 
  880000    1.0174537    3.5533937    42.722574    42.510833    42.934316    900.50755 
  890000    1.0059864    3.5470255    42.617058    42.728039    42.506077    900.50755 
  900000   0.97578527     3.515395    42.396156    42.488582     42.30373    900.50755 
  910000   0.98331585    3.5600421    42.738436    43.117397    42.359476    900.50755 
  920000    1.0277977    3.5836843    43.013241    43.112266    42.914216    900.50755 
  930000    1.0135017    3.5656998    42.803981     42.64199    42.965971    900.50755 
  940000    1.0307455    3.5154898    42.507397    42.949436    42.065359    900.50755 
  950000    1.0410259    3.5645022    42.842571    43.190943    42.494198    900.50755 
  960000    1.0105534    3.5900104    42.972425    43.194745    42.750105    900.50755 
  970000    1.0166515    3.5515722    42.702065    43.434401    41.969729    900.50755 
  980000   0.95951413    3.5622384    42.711486    43.043947    42.379024    900.50755 
  990000    0.9974487    3.5119692    42.417775    42.194355    42.641195    900.50755 
 1000000    1.0333658    3.5871929    42.999164    43.895725    42.102603    900.50755 
 1010000   0.95885404    3.5108208    42.266209     42.65829    41.874127    900.50755 
 1020000    0.9686538    3.5242989    42.343174    42.186012    42.500336    900.50755 
 1030000   0.96643369    3.5194016     42.34049    42.447819    42.233162    900.50755 
 1040000   0.94504632    3.5865993    42.875302    43.022484    42.728121    900.50755 
 1050000    1.0188041    3.5552909    42.729984    42.931771    42.528198    900.50755 
 1060000   0.98959425    3.6102435    43.162147     43.04368    43.280614    900.50755 
 1070000    1.0025161     3.557692    42.766458    43.100503    42.432412    900.50755 
 1080000   0.97955845    3.5403574    42.598354     42.86814    42.328569    900.50755 
 1090000   0.98126145    3.5424207    42.542974    43.225837    41.860111    900.50755 
 1100000   0.98796826    3.5140055    42.369634    42.376011    42.363257    900.50755 
 1110000   0.98431294    3.5174447    42.349319    42.600032    42.098606    900.50755 
 1120000    1.0241629    3.5043424     42.32959    42.829038    41.830142    900.50755 
 1130000    1.0127856    3.4877173    42.145201    41.985824    42.304579    900.50755 
 1140000   0.98599487    3.5473244    42.631076    42.652922     42.60923    900.50755 
 1150000    1.0480272    3.5687644    42.851061     43.02183    42.680291    900.50755 
 1160000   0.98898457    3.5577795    42.655315    42.361845    42.948784    900.50755 
 1170000   0.96055145    3.5030617    42.233076    42.744243    41.721909    900.50755 
 1180000   0.97449386    3.5369004    42.596265    42.890657    42.301873    900.50755 
 1190000   0.98372459    3.5991022    43.030881    43.615406    42.446355    900.50755 
 1200000    1.0481763    3.5861603    43.024866    43.198733    42.850999    900.50755 
 1210000   0.97695694    3.5158711    42.332766    42.514467    42.151066    900.50755 
 1220000    1.0314593    3.5153533    42.490121    42.735337    42.244906    900.50755 
 1230000    1.0184273    3.5582272    42.729034    43.307726    42.150343    900.50755 
 1240000   0.97032712    3.5980508    43.025014    43.039632    43.010397    900.50755 
 1250000   0.96983719    3.5753944    42.852083    44.057205    41.646962    900.50755 
 1260000    1.0211835    3.5719659    42.829634    43.570122    42.089146    900.50755 
 1270000    1.0661132    3.5095486    42.370142    42.488139    42.252145    900.50755 
 1280000    1.0196975    3.5475502    42.654739    43.019681    42.289797    900.50755 
 1290000    1.0011801     3.558683    42.697609    43.139888    42.255329    900.50755 
 1300000   0.93947257    3.5419082    42.472736    42.612602     42.33287    900.50755 
 1310000    0.9684251    3.4376249    41.768614    41.905891    41.631337    900.50755 
 1320000    1.0202396    3.5194154    42.390026    42.361851    42.418202    900.50755 
 1330000   0.97639132    3.5241625    42.443208    42.697219    42.189197    900.50755 
 1340000   0.98964046    3.5229584    42.423375    42.395167    42.451583    900.50755 
 1350000   0.97098508    3.5307153    42.471591    42.599086    42.344095    900.50755 
 1360000    1.0229881    3.5466525    42.698222    42.846422    42.550022    900.50755 
 1370000     1.042918    3.5211126    42.441729    42.522211    42.361247    900.50755 
 1380000    1.0356236    3.5505797    42.700783    43.892338    41.509229    900.50755 
 1390000    1.0189957    3.5310115    42.520682    43.219843    41.821521    900.50755 
 1400000   0.95197932    3.4976602    42.197438    42.150314    42.244561    900.50755 
 1410000   0.99220939    3.5322004    42.432835    42.360382    42.505287    900.50755 
 1420000   0.96469989    3.5765888    42.837343    43.384059    42.290628    900.50755 
 1430000    1.0204166    3.5299099    42.490897    42.571828    42.409966    900.50755 
 1440000    1.0094807    3.4959742    42.269378    42.402409    42.136347    900.50755 
 1450000    1.0118589     3.529085    42.539984    42.530315    42.549652    900.50755 
 1460000   0.98631376    3.4975708    42.244017    42.411898    42.076135    900.50755 
 1470000    1.0293386     3.533012    42.579593    42.582075    42.577112    900.50755 
 1480000   0.98063169    3.5649488    42.782423    43.153071    42.411776    900.50755 
 1490000    0.9910222    3.5498004    42.651262    42.863953     42.43857    900.50755 
 1500000    1.0101081    3.5056124    42.335176     42.45387    42.216481    900.50755 
 1510000   0.97700247    3.4931531    42.166083    42.302096     42.03007    900.50755 
 1520000    1.0484222    3.5223693    42.525712    42.496563    42.554861    900.50755 
 1530000    1.0394525    3.5041756    42.310868    42.696585    41.925151    900.50755 
 1540000     1.020361    3.5047596     42.29003     42.39247    42.187589    900.50755 
 1550000   0.99878515    3.5209044    42.413128    42.826753    41.999504    900.50755 
 1560000   0.98519677    3.4934829    42.208249    42.918275    41.498223    900.50755 
 1570000    1.0105915    3.5404548    42.604696     43.20862    42.000772    900.50755 
 1580000    1.0507885    3.5090644    42.429179    42.689359    42.168999    900.50755 
 1590000    1.0090368    3.5490458    42.624834    42.935214    42.314454    900.50755 
 1600000    1.0384731    3.4998163    42.284795    42.796412    41.773178    900.50755 
 1610000   0.98266767     3.512543     42.34499    42.370359    42.319622    900.50755 
 1620000   0.98405512    3.5169502    42.289171    42.620245    41.958097    900.50755 
 1630000    1.0095045     3.505754    42.357581    42.611647    42.103514    900.50755 
 1640000    1.0065444    3.5842386    42.972768    42.481734    43.463802    900.50755 
 1650000    0.9800548    3.5029484    42.266744    42.499179    42.034309    900.50755 
 1660000    1.0230256     3.520018    42.505578     42.92263    42.088525    900.50755 
 1670000   0.98479471    3.5977647     43.01828    43.790516    42.246044    900.50755 
 1680000   0.96967093    3.6062406    43.082931     43.35205    42.813811    900.50755 
 1690000    1.0375545    3.5669285    42.871888    42.954058    42.789719    900.50755 
 1700000    1.0144389    3.4811358     42.10377    42.678958    41.528581    900.50755 
 1710000   0.99666697     3.542298    42.593798    42.533816    42.653781    900.50755 
 1720000   0.99458885    3.5434329    42.585877    42.941527    42.230228    900.50755 
 1730000    1.0126608     3.535777    42.578254    43.064731    42.091778    900.50755 
 1740000    1.0761104    3.5155904    42.443096    42.755235    42.130957    900.50755 
 1750000   0.96234748    3.5426768    42.565617    42.415341    42.715892    900.50755 
 1760000   0.98269318    3.5206057    42.406984     42.66455    42.149419    900.50755 
 1770000   0.91355787    3.5413828    42.518679    42.322404    42.714954    900.50755 
 1780000    0.9919638     3.527542    42.432354    42.719064    42.145643    900.50755 
 1790000    1.0303749    3.5056281    42.362712    41.850482    42.874943    900.50755 
 1800000    1.0425346    3.5421105    42.673334    42.617852    42.728815    900.50755 
 1810000     1.021733    3.5444936    42.652707    42.832645    42.472768    900.50755 
 1820000   0.98102754    3.5633134    42.825368    42.948395    42.702341    900.50755 
 1830000    1.0220727    3.5676348     42.83236    43.083592    42.581128    900.50755 
 1840000   0.99891737    3.5524571    42.697675    43.119554    42.275796    900.50755 
 1850000    1.0262369    3.5441801    42.702343    42.857556     42.54713    900.50755 
 1860000    1.0455631    3.5550322    42.709343    43.007222    42.411464    900.50755 
 1870000     1.032421    3.5451294     42.68856    42.558489    42.818632    900.50755 
 1880000    1.0225188     3.546105    42.648792     43.31065    41.986934    900.50755 
 1890000    1.0506278     3.580794    43.007369    43.288117    42.726621    900.50755 
 1900000   0.97585718    3.5669962    42.750097    43.417639    42.082555    900.50755 
 1910000   0.99913408    3.5727984    42.898696     42.63739    43.160003    900.50755 
 1920000   0.97357199    3.5608791    42.707803    43.715837    41.699769    900.50755 
 1930000    1.0315694    3.4866643    42.168888     42.15214    42.185636    900.50755 
 1940000    1.0491646    3.4472779     41.93923    42.440229     41.43823    900.50755 
 1950000    1.0232772    3.5444595    42.638709    42.727449     42.54997    900.50755 
 1960000   0.95887281    3.5771862    42.879229    43.702564    42.055894    900.50755 
 1970000    1.0540178    3.5495884    42.662344    43.216755    42.107934    900.50755 
 1980000    1.0334989    3.5277268    42.521961     42.90333    42.140593    900.50755 
 1990000    1.0230216    3.5626338    42.851838    42.800517    42.903159    900.50755 
 2000000   0.95787462    3.5854806    42.916646    42.532446    43.300847    900.50755 
 2010000   0.95001803    3.5041585    42.221733    42.612248    41.831218    900.50755 
 2020000   0.98339173    3.5045051      42.3221    42.138428    42.505772    900.50755 
 2030000    1.0247529    3.5924806    43.088081    43.381875    42.794287    900.50755 
 2040000    1.0457708    3.5249385    42.556207    42.383067    42.729347    900.50755 
 2050000   0.97099447    3.5863635    42.915125    43.659397    42.170852    900.50755 
 2060000    1.0258847    3.5935803    43.032948    43.007889    43.058007    900.50755 
 2070000    0.9772773    3.5130426    42.340537    42.881094     41.79998    900.50755 
 2080000   0.96896831    3.4949763    42.194742    42.547892    41.841592    900.50755 
 2090000    1.0608465    3.5544069    42.750023    43.085023    42.415023    900.50755 
 2100000    1.0235928    3.5005572     42.35375    42.154712    42.552787    900.50755 
 2110000     1.006896      3.51818    42.381443    43.139127    41.623759    900.50755 
 2120000   0.99654721    3.5583238     42.72785    42.932154    42.523546    900.50755 
 2130000     1.010681    3.5068788    42.346541    42.486692     42.20639    900.50755 
 2140000     1.032032    3.5653491    42.813214    43.230586    42.395842    900.50755 
 2150000    1.0260833    3.5628181    42.749426    43.501501     41.99735    900.50755 
 2160000   0.97397234    3.5113603     42.31598     42.16772     42.46424    900.50755 
 2170000    0.9801751    3.5483333    42.639941    43.280433     41.99945    900.50755 
 2180000   0.98319447    3.5543171    42.694941    43.442893    41.946988    900.50755 
 2190000    1.0343315    3.5228912    42.476565    42.561795    42.391336    900.50755 
 2200000    1.0203485    3.5116679     42.36626    42.019896    42.712624    900.50755 
 2210000    1.0281152    3.5734406    42.920219    43.345286    42.495152    900.50755 
 2220000    1.0499819    3.5533691    42.803434    43.327684    42.279184    900.50755 
 2230000    1.0687175    3.6071679    43.191563    43.389828    42.993298    900.50755 
 2240000   0.93941119    3.5268487    42.392622    42.634495    42.150749    900.50755 
 2250000   0.96181249    3.5088866    42.227643    43.048704    41.406583    900.50755 
Loop time of 429.159 on 1 procs for 2000000 steps with 1000 atoms

Performance: 4026479.123 tau/day, 4660.277 timesteps/s
99.2% CPU use with 1 MPI tasks x no OpenMP threads

MPI task timing breakdown:
Section |  min time  |  avg time  |  max time  |%varavg| %total
---------------------------------------------------------------
Pair    | 269.56     | 269.56     | 269.56     |   0.0 | 62.81
Neigh   | 0.2584     | 0.2584     | 0.2584     |   0.0 |  0.06
Comm    | 6.5063     | 6.5063     | 6.5063     |   0.0 |  1.52
Output  | 0.25036    | 0.25036    | 0.25036    |   0.0 |  0.06
Modify  | 142.22     | 142.22     | 142.22     |   0.0 | 33.14
Other   |            | 10.36      |            |       |  2.41

Nlocal:    1000 ave 1000 max 1000 min
Histogram: 1 0 0 0 0 0 0 0 0 0
Nghost:    556 ave 556 max 556 min
Histogram: 1 0 0 0 0 0 0 0 0 0
Neighs:    16041 ave 16041 max 16041 min
Histogram: 1 0 0 0 0 0 0 0 0 0

Total # of neighbors = 16041
Ave neighs/atom = 16.041
Neighbor list builds = 550
Dangerous builds = 0

###################################################################
# CAPILLARY ATTRACTION STAGE
# Mimics meniscus-induced attraction as solvent level drops
# Run AFTER production stage has equilibrated
###################################################################
#1.6 * 1.3 is the largest cut off
pair_style lj/cut 2.1
pair_modify shift no
include pair.polydisperse.attractive
pair_coeff 1 1 10.000000 0.410000 0.533000
pair_coeff 1 2 10.000000 0.420000 0.546000
pair_coeff 1 3 10.000000 0.430000 0.559000
pair_coeff 1 4 10.000000 0.440000 0.572000
pair_coeff 1 5 10.000000 0.450000 0.585000
pair_coeff 1 6 10.000000 0.460000 0.598000
pair_coeff 1 7 10.000000 0.470000 0.611000
pair_coeff 1 8 10.000000 0.480000 0.624000
pair_coeff 1 9 10.000000 0.490000 0.637000
pair_coeff 1 10 10.000000 0.500000 0.650000
pair_coeff 1 11 10.000000 0.510000 0.663000
pair_coeff 1 12 10.000000 0.520000 0.676000
pair_coeff 1 13 10.000000 0.530000 0.689000
pair_coeff 1 14 10.000000 0.540000 0.702000
pair_coeff 1 15 10.000000 0.550000 0.715000
pair_coeff 1 16 10.000000 0.560000 0.728000
pair_coeff 1 17 10.000000 0.570000 0.741000
pair_coeff 1 18 10.000000 0.580000 0.754000
pair_coeff 1 19 10.000000 0.590000 0.767000
pair_coeff 1 20 10.000000 0.600000 0.780000
pair_coeff 1 21 10.000000 0.610000 0.793000
pair_coeff 1 22 10.000000 0.620000 0.806000
pair_coeff 1 23 10.000000 0.630000 0.819000
pair_coeff 1 24 10.000000 0.640000 0.832000
pair_coeff 1 25 10.000000 0.650000 0.845000
pair_coeff 1 26 10.000000 0.660000 0.858000
pair_coeff 1 27 10.000000 0.670000 0.871000
pair_coeff 1 28 10.000000 0.680000 0.884000
pair_coeff 1 29 10.000000 0.690000 0.897000
pair_coeff 1 30 10.000000 0.700000 0.910000
pair_coeff 1 31 10.000000 0.710000 0.923000
pair_coeff 1 32 10.000000 0.720000 0.936000
pair_coeff 1 33 10.000000 0.730000 0.949000
pair_coeff 1 34 10.000000 0.740000 0.962000
pair_coeff 1 35 10.000000 0.750000 0.975000
pair_coeff 1 36 10.000000 0.760000 0.988000
pair_coeff 1 37 10.000000 0.770000 1.001000
pair_coeff 1 38 10.000000 0.780000 1.014000
pair_coeff 1 39 10.000000 0.790000 1.027000
pair_coeff 1 40 10.000000 0.800000 1.040000
pair_coeff 1 41 10.000000 0.810000 1.053000
pair_coeff 1 42 10.000000 0.820000 1.066000
pair_coeff 1 43 10.000000 0.830000 1.079000
pair_coeff 1 44 10.000000 0.840000 1.092000
pair_coeff 1 45 10.000000 0.850000 1.105000
pair_coeff 1 46 10.000000 0.860000 1.118000
pair_coeff 1 47 10.000000 0.870000 1.131000
pair_coeff 1 48 10.000000 0.880000 1.144000
pair_coeff 1 49 10.000000 0.890000 1.157000
pair_coeff 1 50 10.000000 0.900000 1.170000
pair_coeff 1 51 10.000000 0.910000 1.183000
pair_coeff 1 52 10.000000 0.920000 1.196000
pair_coeff 1 53 10.000000 0.930000 1.209000
pair_coeff 1 54 10.000000 0.940000 1.222000
pair_coeff 1 55 10.000000 0.950000 1.235000
pair_coeff 1 56 10.000000 0.960000 1.248000
pair_coeff 1 57 10.000000 0.970000 1.261000
pair_coeff 1 58 10.000000 0.980000 1.274000
pair_coeff 1 59 10.000000 0.990000 1.287000
pair_coeff 1 60 10.000000 1.000000 1.300000
pair_coeff 2 2 10.000000 0.430000 0.559000
pair_coeff 2 3 10.000000 0.440000 0.572000
pair_coeff 2 4 10.000000 0.450000 0.585000
pair_coeff 2 5 10.000000 0.460000 0.598000
pair_coeff 2 6 10.000000 0.470000 0.611000
pair_coeff 2 7 10.000000 0.480000 0.624000
pair_coeff 2 8 10.000000 0.490000 0.637000
pair_coeff 2 9 10.000000 0.500000 0.650000
pair_coeff 2 10 10.000000 0.510000 0.663000
pair_coeff 2 11 10.000000 0.520000 0.676000
pair_coeff 2 12 10.000000 0.530000 0.689000
pair_coeff 2 13 10.000000 0.540000 0.702000
pair_coeff 2 14 10.000000 0.550000 0.715000
pair_coeff 2 15 10.000000 0.560000 0.728000
pair_coeff 2 16 10.000000 0.570000 0.741000
pair_coeff 2 17 10.000000 0.580000 0.754000
pair_coeff 2 18 10.000000 0.590000 0.767000
pair_coeff 2 19 10.000000 0.600000 0.780000
pair_coeff 2 20 10.000000 0.610000 0.793000
pair_coeff 2 21 10.000000 0.620000 0.806000
pair_coeff 2 22 10.000000 0.630000 0.819000
pair_coeff 2 23 10.000000 0.640000 0.832000
pair_coeff 2 24 10.000000 0.650000 0.845000
pair_coeff 2 25 10.000000 0.660000 0.858000
pair_coeff 2 26 10.000000 0.670000 0.871000
pair_coeff 2 27 10.000000 0.680000 0.884000
pair_coeff 2 28 10.000000 0.690000 0.897000
pair_coeff 2 29 10.000000 0.700000 0.910000
pair_coeff 2 30 10.000000 0.710000 0.923000
pair_coeff 2 31 10.000000 0.720000 0.936000
pair_coeff 2 32 10.000000 0.730000 0.949000
pair_coeff 2 33 10.000000 0.740000 0.962000
pair_coeff 2 34 10.000000 0.750000 0.975000
pair_coeff 2 35 10.000000 0.760000 0.988000
pair_coeff 2 36 10.000000 0.770000 1.001000
pair_coeff 2 37 10.000000 0.780000 1.014000
pair_coeff 2 38 10.000000 0.790000 1.027000
pair_coeff 2 39 10.000000 0.800000 1.040000
pair_coeff 2 40 10.000000 0.810000 1.053000
pair_coeff 2 41 10.000000 0.820000 1.066000
pair_coeff 2 42 10.000000 0.830000 1.079000
pair_coeff 2 43 10.000000 0.840000 1.092000
pair_coeff 2 44 10.000000 0.850000 1.105000
pair_coeff 2 45 10.000000 0.860000 1.118000
pair_coeff 2 46 10.000000 0.870000 1.131000
pair_coeff 2 47 10.000000 0.880000 1.144000
pair_coeff 2 48 10.000000 0.890000 1.157000
pair_coeff 2 49 10.000000 0.900000 1.170000
pair_coeff 2 50 10.000000 0.910000 1.183000
pair_coeff 2 51 10.000000 0.920000 1.196000
pair_coeff 2 52 10.000000 0.930000 1.209000
pair_coeff 2 53 10.000000 0.940000 1.222000
pair_coeff 2 54 10.000000 0.950000 1.235000
pair_coeff 2 55 10.000000 0.960000 1.248000
pair_coeff 2 56 10.000000 0.970000 1.261000
pair_coeff 2 57 10.000000 0.980000 1.274000
pair_coeff 2 58 10.000000 0.990000 1.287000
pair_coeff 2 59 10.000000 1.000000 1.300000
pair_coeff 2 60 10.000000 1.010000 1.313000
pair_coeff 3 3 10.000000 0.450000 0.585000
pair_coeff 3 4 10.000000 0.460000 0.598000
pair_coeff 3 5 10.000000 0.470000 0.611000
pair_coeff 3 6 10.000000 0.480000 0.624000
pair_coeff 3 7 10.000000 0.490000 0.637000
pair_coeff 3 8 10.000000 0.500000 0.650000
pair_coeff 3 9 10.000000 0.510000 0.663000
pair_coeff 3 10 10.000000 0.520000 0.676000
pair_coeff 3 11 10.000000 0.530000 0.689000
pair_coeff 3 12 10.000000 0.540000 0.702000
pair_coeff 3 13 10.000000 0.550000 0.715000
pair_coeff 3 14 10.000000 0.560000 0.728000
pair_coeff 3 15 10.000000 0.570000 0.741000
pair_coeff 3 16 10.000000 0.580000 0.754000
pair_coeff 3 17 10.000000 0.590000 0.767000
pair_coeff 3 18 10.000000 0.600000 0.780000
pair_coeff 3 19 10.000000 0.610000 0.793000
pair_coeff 3 20 10.000000 0.620000 0.806000
pair_coeff 3 21 10.000000 0.630000 0.819000
pair_coeff 3 22 10.000000 0.640000 0.832000
pair_coeff 3 23 10.000000 0.650000 0.845000
pair_coeff 3 24 10.000000 0.660000 0.858000
pair_coeff 3 25 10.000000 0.670000 0.871000
pair_coeff 3 26 10.000000 0.680000 0.884000
pair_coeff 3 27 10.000000 0.690000 0.897000
pair_coeff 3 28 10.000000 0.700000 0.910000
pair_coeff 3 29 10.000000 0.710000 0.923000
pair_coeff 3 30 10.000000 0.720000 0.936000
pair_coeff 3 31 10.000000 0.730000 0.949000
pair_coeff 3 32 10.000000 0.740000 0.962000
pair_coeff 3 33 10.000000 0.750000 0.975000
pair_coeff 3 34 10.000000 0.760000 0.988000
pair_coeff 3 35 10.000000 0.770000 1.001000
pair_coeff 3 36 10.000000 0.780000 1.014000
pair_coeff 3 37 10.000000 0.790000 1.027000
pair_coeff 3 38 10.000000 0.800000 1.040000
pair_coeff 3 39 10.000000 0.810000 1.053000
pair_coeff 3 40 10.000000 0.820000 1.066000
pair_coeff 3 41 10.000000 0.830000 1.079000
pair_coeff 3 42 10.000000 0.840000 1.092000
pair_coeff 3 43 10.000000 0.850000 1.105000
pair_coeff 3 44 10.000000 0.860000 1.118000
pair_coeff 3 45 10.000000 0.870000 1.131000
pair_coeff 3 46 10.000000 0.880000 1.144000
pair_coeff 3 47 10.000000 0.890000 1.157000
pair_coeff 3 48 10.000000 0.900000 1.170000
pair_coeff 3 49 10.000000 0.910000 1.183000
pair_coeff 3 50 10.000000 0.920000 1.196000
pair_coeff 3 51 10.000000 0.930000 1.209000
pair_coeff 3 52 10.000000 0.940000 1.222000
pair_coeff 3 53 10.000000 0.950000 1.235000
pair_coeff 3 54 10.000000 0.960000 1.248000
pair_coeff 3 55 10.000000 0.970000 1.261000
pair_coeff 3 56 10.000000 0.980000 1.274000
pair_coeff 3 57 10.000000 0.990000 1.287000
pair_coeff 3 58 10.000000 1.000000 1.300000
pair_coeff 3 59 10.000000 1.010000 1.313000
pair_coeff 3 60 10.000000 1.020000 1.326000
pair_coeff 4 4 10.000000 0.470000 0.611000
pair_coeff 4 5 10.000000 0.480000 0.624000
pair_coeff 4 6 10.000000 0.490000 0.637000
pair_coeff 4 7 10.000000 0.500000 0.650000
pair_coeff 4 8 10.000000 0.510000 0.663000
pair_coeff 4 9 10.000000 0.520000 0.676000
pair_coeff 4 10 10.000000 0.530000 0.689000
pair_coeff 4 11 10.000000 0.540000 0.702000
pair_coeff 4 12 10.000000 0.550000 0.715000
pair_coeff 4 13 10.000000 0.560000 0.728000
pair_coeff 4 14 10.000000 0.570000 0.741000
pair_coeff 4 15 10.000000 0.580000 0.754000
pair_coeff 4 16 10.000000 0.590000 0.767000
pair_coeff 4 17 10.000000 0.600000 0.780000
pair_coeff 4 18 10.000000 0.610000 0.793000
pair_coeff 4 19 10.000000 0.620000 0.806000
pair_coeff 4 20 10.000000 0.630000 0.819000
pair_coeff 4 21 10.000000 0.640000 0.832000
pair_coeff 4 22 10.000000 0.650000 0.845000
pair_coeff 4 23 10.000000 0.660000 0.858000
pair_coeff 4 24 10.000000 0.670000 0.871000
pair_coeff 4 25 10.000000 0.680000 0.884000
pair_coeff 4 26 10.000000 0.690000 0.897000
pair_coeff 4 27 10.000000 0.700000 0.910000
pair_coeff 4 28 10.000000 0.710000 0.923000
pair_coeff 4 29 10.000000 0.720000 0.936000
pair_coeff 4 30 10.000000 0.730000 0.949000
pair_coeff 4 31 10.000000 0.740000 0.962000
pair_coeff 4 32 10.000000 0.750000 0.975000
pair_coeff 4 33 10.000000 0.760000 0.988000
pair_coeff 4 34 10.000000 0.770000 1.001000
pair_coeff 4 35 10.000000 0.780000 1.014000
pair_coeff 4 36 10.000000 0.790000 1.027000
pair_coeff 4 37 10.000000 0.800000 1.040000
pair_coeff 4 38 10.000000 0.810000 1.053000
pair_coeff 4 39 10.000000 0.820000 1.066000
pair_coeff 4 40 10.000000 0.830000 1.079000
pair_coeff 4 41 10.000000 0.840000 1.092000
pair_coeff 4 42 10.000000 0.850000 1.105000
pair_coeff 4 43 10.000000 0.860000 1.118000
pair_coeff 4 44 10.000000 0.870000 1.131000
pair_coeff 4 45 10.000000 0.880000 1.144000
pair_coeff 4 46 10.000000 0.890000 1.157000
pair_coeff 4 47 10.000000 0.900000 1.170000
pair_coeff 4 48 10.000000 0.910000 1.183000
pair_coeff 4 49 10.000000 0.920000 1.196000
pair_coeff 4 50 10.000000 0.930000 1.209000
pair_coeff 4 51 10.000000 0.940000 1.222000
pair_coeff 4 52 10.000000 0.950000 1.235000
pair_coeff 4 53 10.000000 0.960000 1.248000
pair_coeff 4 54 10.000000 0.970000 1.261000
pair_coeff 4 55 10.000000 0.980000 1.274000
pair_coeff 4 56 10.000000 0.990000 1.287000
pair_coeff 4 57 10.000000 1.000000 1.300000
pair_coeff 4 58 10.000000 1.010000 1.313000
pair_coeff 4 59 10.000000 1.020000 1.326000
pair_coeff 4 60 10.000000 1.030000 1.339000
pair_coeff 5 5 10.000000 0.490000 0.637000
pair_coeff 5 6 10.000000 0.500000 0.650000
pair_coeff 5 7 10.000000 0.510000 0.663000
pair_coeff 5 8 10.000000 0.520000 0.676000
pair_coeff 5 9 10.000000 0.530000 0.689000
pair_coeff 5 10 10.000000 0.540000 0.702000
pair_coeff 5 11 10.000000 0.550000 0.715000
pair_coeff 5 12 10.000000 0.560000 0.728000
pair_coeff 5 13 10.000000 0.570000 0.741000
pair_coeff 5 14 10.000000 0.580000 0.754000
pair_coeff 5 15 10.000000 0.590000 0.767000
pair_coeff 5 16 10.000000 0.600000 0.780000
pair_coeff 5 17 10.000000 0.610000 0.793000
pair_coeff 5 18 10.000000 0.620000 0.806000
pair_coeff 5 19 10.000000 0.630000 0.819000
pair_coeff 5 20 10.000000 0.640000 0.832000
pair_coeff 5 21 10.000000 0.650000 0.845000
pair_coeff 5 22 10.000000 0.660000 0.858000
pair_coeff 5 23 10.000000 0.670000 0.871000
pair_coeff 5 24 10.000000 0.680000 0.884000
pair_coeff 5 25 10.000000 0.690000 0.897000
pair_coeff 5 26 10.000000 0.700000 0.910000
pair_coeff 5 27 10.000000 0.710000 0.923000
pair_coeff 5 28 10.000000 0.720000 0.936000
pair_coeff 5 29 10.000000 0.730000 0.949000
pair_coeff 5 30 10.000000 0.740000 0.962000
pair_coeff 5 31 10.000000 0.750000 0.975000
pair_coeff 5 32 10.000000 0.760000 0.988000
pair_coeff 5 33 10.000000 0.770000 1.001000
pair_coeff 5 34 10.000000 0.780000 1.014000
pair_coeff 5 35 10.000000 0.790000 1.027000
pair_coeff 5 36 10.000000 0.800000 1.040000
pair_coeff 5 37 10.000000 0.810000 1.053000
pair_coeff 5 38 10.000000 0.820000 1.066000
pair_coeff 5 39 10.000000 0.830000 1.079000
pair_coeff 5 40 10.000000 0.840000 1.092000
pair_coeff 5 41 10.000000 0.850000 1.105000
pair_coeff 5 42 10.000000 0.860000 1.118000
pair_coeff 5 43 10.000000 0.870000 1.131000
pair_coeff 5 44 10.000000 0.880000 1.144000
pair_coeff 5 45 10.000000 0.890000 1.157000
pair_coeff 5 46 10.000000 0.900000 1.170000
pair_coeff 5 47 10.000000 0.910000 1.183000
pair_coeff 5 48 10.000000 0.920000 1.196000
pair_coeff 5 49 10.000000 0.930000 1.209000
pair_coeff 5 50 10.000000 0.940000 1.222000
pair_coeff 5 51 10.000000 0.950000 1.235000
pair_coeff 5 52 10.000000 0.960000 1.248000
pair_coeff 5 53 10.000000 0.970000 1.261000
pair_coeff 5 54 10.000000 0.980000 1.274000
pair_coeff 5 55 10.000000 0.990000 1.287000
pair_coeff 5 56 10.000000 1.000000 1.300000
pair_coeff 5 57 10.000000 1.010000 1.313000
pair_coeff 5 58 10.000000 1.020000 1.326000
pair_coeff 5 59 10.000000 1.030000 1.339000
pair_coeff 5 60 10.000000 1.040000 1.352000
pair_coeff 6 6 10.000000 0.510000 0.663000
pair_coeff 6 7 10.000000 0.520000 0.676000
pair_coeff 6 8 10.000000 0.530000 0.689000
pair_coeff 6 9 10.000000 0.540000 0.702000
pair_coeff 6 10 10.000000 0.550000 0.715000
pair_coeff 6 11 10.000000 0.560000 0.728000
pair_coeff 6 12 10.000000 0.570000 0.741000
pair_coeff 6 13 10.000000 0.580000 0.754000
pair_coeff 6 14 10.000000 0.590000 0.767000
pair_coeff 6 15 10.000000 0.600000 0.780000
pair_coeff 6 16 10.000000 0.610000 0.793000
pair_coeff 6 17 10.000000 0.620000 0.806000
pair_coeff 6 18 10.000000 0.630000 0.819000
pair_coeff 6 19 10.000000 0.640000 0.832000
pair_coeff 6 20 10.000000 0.650000 0.845000
pair_coeff 6 21 10.000000 0.660000 0.858000
pair_coeff 6 22 10.000000 0.670000 0.871000
pair_coeff 6 23 10.000000 0.680000 0.884000
pair_coeff 6 24 10.000000 0.690000 0.897000
pair_coeff 6 25 10.000000 0.700000 0.910000
pair_coeff 6 26 10.000000 0.710000 0.923000
pair_coeff 6 27 10.000000 0.720000 0.936000
pair_coeff 6 28 10.000000 0.730000 0.949000
pair_coeff 6 29 10.000000 0.740000 0.962000
pair_coeff 6 30 10.000000 0.750000 0.975000
pair_coeff 6 31 10.000000 0.760000 0.988000
pair_coeff 6 32 10.000000 0.770000 1.001000
pair_coeff 6 33 10.000000 0.780000 1.014000
pair_coeff 6 34 10.000000 0.790000 1.027000
pair_coeff 6 35 10.000000 0.800000 1.040000
pair_coeff 6 36 10.000000 0.810000 1.053000
pair_coeff 6 37 10.000000 0.820000 1.066000
pair_coeff 6 38 10.000000 0.830000 1.079000
pair_coeff 6 39 10.000000 0.840000 1.092000
pair_coeff 6 40 10.000000 0.850000 1.105000
pair_coeff 6 41 10.000000 0.860000 1.118000
pair_coeff 6 42 10.000000 0.870000 1.131000
pair_coeff 6 43 10.000000 0.880000 1.144000
pair_coeff 6 44 10.000000 0.890000 1.157000
pair_coeff 6 45 10.000000 0.900000 1.170000
pair_coeff 6 46 10.000000 0.910000 1.183000
pair_coeff 6 47 10.000000 0.920000 1.196000
pair_coeff 6 48 10.000000 0.930000 1.209000
pair_coeff 6 49 10.000000 0.940000 1.222000
pair_coeff 6 50 10.000000 0.950000 1.235000
pair_coeff 6 51 10.000000 0.960000 1.248000
pair_coeff 6 52 10.000000 0.970000 1.261000
pair_coeff 6 53 10.000000 0.980000 1.274000
pair_coeff 6 54 10.000000 0.990000 1.287000
pair_coeff 6 55 10.000000 1.000000 1.300000
pair_coeff 6 56 10.000000 1.010000 1.313000
pair_coeff 6 57 10.000000 1.020000 1.326000
pair_coeff 6 58 10.000000 1.030000 1.339000
pair_coeff 6 59 10.000000 1.040000 1.352000
pair_coeff 6 60 10.000000 1.050000 1.365000
pair_coeff 7 7 10.000000 0.530000 0.689000
pair_coeff 7 8 10.000000 0.540000 0.702000
pair_coeff 7 9 10.000000 0.550000 0.715000
pair_coeff 7 10 10.000000 0.560000 0.728000
pair_coeff 7 11 10.000000 0.570000 0.741000
pair_coeff 7 12 10.000000 0.580000 0.754000
pair_coeff 7 13 10.000000 0.590000 0.767000
pair_coeff 7 14 10.000000 0.600000 0.780000
pair_coeff 7 15 10.000000 0.610000 0.793000
pair_coeff 7 16 10.000000 0.620000 0.806000
pair_coeff 7 17 10.000000 0.630000 0.819000
pair_coeff 7 18 10.000000 0.640000 0.832000
pair_coeff 7 19 10.000000 0.650000 0.845000
pair_coeff 7 20 10.000000 0.660000 0.858000
pair_coeff 7 21 10.000000 0.670000 0.871000
pair_coeff 7 22 10.000000 0.680000 0.884000
pair_coeff 7 23 10.000000 0.690000 0.897000
pair_coeff 7 24 10.000000 0.700000 0.910000
pair_coeff 7 25 10.000000 0.710000 0.923000
pair_coeff 7 26 10.000000 0.720000 0.936000
pair_coeff 7 27 10.000000 0.730000 0.949000
pair_coeff 7 28 10.000000 0.740000 0.962000
pair_coeff 7 29 10.000000 0.750000 0.975000
pair_coeff 7 30 10.000000 0.760000 0.988000
pair_coeff 7 31 10.000000 0.770000 1.001000
pair_coeff 7 32 10.000000 0.780000 1.014000
pair_coeff 7 33 10.000000 0.790000 1.027000
pair_coeff 7 34 10.000000 0.800000 1.040000
pair_coeff 7 35 10.000000 0.810000 1.053000
pair_coeff 7 36 10.000000 0.820000 1.066000
pair_coeff 7 37 10.000000 0.830000 1.079000
pair_coeff 7 38 10.000000 0.840000 1.092000
pair_coeff 7 39 10.000000 0.850000 1.105000
pair_coeff 7 40 10.000000 0.860000 1.118000
pair_coeff 7 41 10.000000 0.870000 1.131000
pair_coeff 7 42 10.000000 0.880000 1.144000
pair_coeff 7 43 10.000000 0.890000 1.157000
pair_coeff 7 44 10.000000 0.900000 1.170000
pair_coeff 7 45 10.000000 0.910000 1.183000
pair_coeff 7 46 10.000000 0.920000 1.196000
pair_coeff 7 47 10.000000 0.930000 1.209000
pair_coeff 7 48 10.000000 0.940000 1.222000
pair_coeff 7 49 10.000000 0.950000 1.235000
pair_coeff 7 50 10.000000 0.960000 1.248000
pair_coeff 7 51 10.000000 0.970000 1.261000
pair_coeff 7 52 10.000000 0.980000 1.274000
pair_coeff 7 53 10.000000 0.990000 1.287000
pair_coeff 7 54 10.000000 1.000000 1.300000
pair_coeff 7 55 10.000000 1.010000 1.313000
pair_coeff 7 56 10.000000 1.020000 1.326000
pair_coeff 7 57 10.000000 1.030000 1.339000
pair_coeff 7 58 10.000000 1.040000 1.352000
pair_coeff 7 59 10.000000 1.050000 1.365000
pair_coeff 7 60 10.000000 1.060000 1.378000
pair_coeff 8 8 10.000000 0.550000 0.715000
pair_coeff 8 9 10.000000 0.560000 0.728000
pair_coeff 8 10 10.000000 0.570000 0.741000
pair_coeff 8 11 10.000000 0.580000 0.754000
pair_coeff 8 12 10.000000 0.590000 0.767000
pair_coeff 8 13 10.000000 0.600000 0.780000
pair_coeff 8 14 10.000000 0.610000 0.793000
pair_coeff 8 15 10.000000 0.620000 0.806000
pair_coeff 8 16 10.000000 0.630000 0.819000
pair_coeff 8 17 10.000000 0.640000 0.832000
pair_coeff 8 18 10.000000 0.650000 0.845000
pair_coeff 8 19 10.000000 0.660000 0.858000
pair_coeff 8 20 10.000000 0.670000 0.871000
pair_coeff 8 21 10.000000 0.680000 0.884000
pair_coeff 8 22 10.000000 0.690000 0.897000
pair_coeff 8 23 10.000000 0.700000 0.910000
pair_coeff 8 24 10.000000 0.710000 0.923000
pair_coeff 8 25 10.000000 0.720000 0.936000
pair_coeff 8 26 10.000000 0.730000 0.949000
pair_coeff 8 27 10.000000 0.740000 0.962000
pair_coeff 8 28 10.000000 0.750000 0.975000
pair_coeff 8 29 10.000000 0.760000 0.988000
pair_coeff 8 30 10.000000 0.770000 1.001000
pair_coeff 8 31 10.000000 0.780000 1.014000
pair_coeff 8 32 10.000000 0.790000 1.027000
pair_coeff 8 33 10.000000 0.800000 1.040000
pair_coeff 8 34 10.000000 0.810000 1.053000
pair_coeff 8 35 10.000000 0.820000 1.066000
pair_coeff 8 36 10.000000 0.830000 1.079000
pair_coeff 8 37 10.000000 0.840000 1.092000
pair_coeff 8 38 10.000000 0.850000 1.105000
pair_coeff 8 39 10.000000 0.860000 1.118000
pair_coeff 8 40 10.000000 0.870000 1.131000
pair_coeff 8 41 10.000000 0.880000 1.144000
pair_coeff 8 42 10.000000 0.890000 1.157000
pair_coeff 8 43 10.000000 0.900000 1.170000
pair_coeff 8 44 10.000000 0.910000 1.183000
pair_coeff 8 45 10.000000 0.920000 1.196000
pair_coeff 8 46 10.000000 0.930000 1.209000
pair_coeff 8 47 10.000000 0.940000 1.222000
pair_coeff 8 48 10.000000 0.950000 1.235000
pair_coeff 8 49 10.000000 0.960000 1.248000
pair_coeff 8 50 10.000000 0.970000 1.261000
pair_coeff 8 51 10.000000 0.980000 1.274000
pair_coeff 8 52 10.000000 0.990000 1.287000
pair_coeff 8 53 10.000000 1.000000 1.300000
pair_coeff 8 54 10.000000 1.010000 1.313000
pair_coeff 8 55 10.000000 1.020000 1.326000
pair_coeff 8 56 10.000000 1.030000 1.339000
pair_coeff 8 57 10.000000 1.040000 1.352000
pair_coeff 8 58 10.000000 1.050000 1.365000
pair_coeff 8 59 10.000000 1.060000 1.378000
pair_coeff 8 60 10.000000 1.070000 1.391000
pair_coeff 9 9 10.000000 0.570000 0.741000
pair_coeff 9 10 10.000000 0.580000 0.754000
pair_coeff 9 11 10.000000 0.590000 0.767000
pair_coeff 9 12 10.000000 0.600000 0.780000
pair_coeff 9 13 10.000000 0.610000 0.793000
pair_coeff 9 14 10.000000 0.620000 0.806000
pair_coeff 9 15 10.000000 0.630000 0.819000
pair_coeff 9 16 10.000000 0.640000 0.832000
pair_coeff 9 17 10.000000 0.650000 0.845000
pair_coeff 9 18 10.000000 0.660000 0.858000
pair_coeff 9 19 10.000000 0.670000 0.871000
pair_coeff 9 20 10.000000 0.680000 0.884000
pair_coeff 9 21 10.000000 0.690000 0.897000
pair_coeff 9 22 10.000000 0.700000 0.910000
pair_coeff 9 23 10.000000 0.710000 0.923000
pair_coeff 9 24 10.000000 0.720000 0.936000
pair_coeff 9 25 10.000000 0.730000 0.949000
pair_coeff 9 26 10.000000 0.740000 0.962000
pair_coeff 9 27 10.000000 0.750000 0.975000
pair_coeff 9 28 10.000000 0.760000 0.988000
pair_coeff 9 29 10.000000 0.770000 1.001000
pair_coeff 9 30 10.000000 0.780000 1.014000
pair_coeff 9 31 10.000000 0.790000 1.027000
pair_coeff 9 32 10.000000 0.800000 1.040000
pair_coeff 9 33 10.000000 0.810000 1.053000
pair_coeff 9 34 10.000000 0.820000 1.066000
pair_coeff 9 35 10.000000 0.830000 1.079000
pair_coeff 9 36 10.000000 0.840000 1.092000
pair_coeff 9 37 10.000000 0.850000 1.105000
pair_coeff 9 38 10.000000 0.860000 1.118000
pair_coeff 9 39 10.000000 0.870000 1.131000
pair_coeff 9 40 10.000000 0.880000 1.144000
pair_coeff 9 41 10.000000 0.890000 1.157000
pair_coeff 9 42 10.000000 0.900000 1.170000
pair_coeff 9 43 10.000000 0.910000 1.183000
pair_coeff 9 44 10.000000 0.920000 1.196000
pair_coeff 9 45 10.000000 0.930000 1.209000
pair_coeff 9 46 10.000000 0.940000 1.222000
pair_coeff 9 47 10.000000 0.950000 1.235000
pair_coeff 9 48 10.000000 0.960000 1.248000
pair_coeff 9 49 10.000000 0.970000 1.261000
pair_coeff 9 50 10.000000 0.980000 1.274000
pair_coeff 9 51 10.000000 0.990000 1.287000
pair_coeff 9 52 10.000000 1.000000 1.300000
pair_coeff 9 53 10.000000 1.010000 1.313000
pair_coeff 9 54 10.000000 1.020000 1.326000
pair_coeff 9 55 10.000000 1.030000 1.339000
pair_coeff 9 56 10.000000 1.040000 1.352000
pair_coeff 9 57 10.000000 1.050000 1.365000
pair_coeff 9 58 10.000000 1.060000 1.378000
pair_coeff 9 59 10.000000 1.070000 1.391000
pair_coeff 9 60 10.000000 1.080000 1.404000
pair_coeff 10 10 10.000000 0.590000 0.767000
pair_coeff 10 11 10.000000 0.600000 0.780000
pair_coeff 10 12 10.000000 0.610000 0.793000
pair_coeff 10 13 10.000000 0.620000 0.806000
pair_coeff 10 14 10.000000 0.630000 0.819000
pair_coeff 10 15 10.000000 0.640000 0.832000
pair_coeff 10 16 10.000000 0.650000 0.845000
pair_coeff 10 17 10.000000 0.660000 0.858000
pair_coeff 10 18 10.000000 0.670000 0.871000
pair_coeff 10 19 10.000000 0.680000 0.884000
pair_coeff 10 20 10.000000 0.690000 0.897000
pair_coeff 10 21 10.000000 0.700000 0.910000
pair_coeff 10 22 10.000000 0.710000 0.923000
pair_coeff 10 23 10.000000 0.720000 0.936000
pair_coeff 10 24 10.000000 0.730000 0.949000
pair_coeff 10 25 10.000000 0.740000 0.962000
pair_coeff 10 26 10.000000 0.750000 0.975000
pair_coeff 10 27 10.000000 0.760000 0.988000
pair_coeff 10 28 10.000000 0.770000 1.001000
pair_coeff 10 29 10.000000 0.780000 1.014000
pair_coeff 10 30 10.000000 0.790000 1.027000
pair_coeff 10 31 10.000000 0.800000 1.040000
pair_coeff 10 32 10.000000 0.810000 1.053000
pair_coeff 10 33 10.000000 0.820000 1.066000
pair_coeff 10 34 10.000000 0.830000 1.079000
pair_coeff 10 35 10.000000 0.840000 1.092000
pair_coeff 10 36 10.000000 0.850000 1.105000
pair_coeff 10 37 10.000000 0.860000 1.118000
pair_coeff 10 38 10.000000 0.870000 1.131000
pair_coeff 10 39 10.000000 0.880000 1.144000
pair_coeff 10 40 10.000000 0.890000 1.157000
pair_coeff 10 41 10.000000 0.900000 1.170000
pair_coeff 10 42 10.000000 0.910000 1.183000
pair_coeff 10 43 10.000000 0.920000 1.196000
pair_coeff 10 44 10.000000 0.930000 1.209000
pair_coeff 10 45 10.000000 0.940000 1.222000
pair_coeff 10 46 10.000000 0.950000 1.235000
pair_coeff 10 47 10.000000 0.960000 1.248000
pair_coeff 10 48 10.000000 0.970000 1.261000
pair_coeff 10 49 10.000000 0.980000 1.274000
pair_coeff 10 50 10.000000 0.990000 1.287000
pair_coeff 10 51 10.000000 1.000000 1.300000
pair_coeff 10 52 10.000000 1.010000 1.313000
pair_coeff 10 53 10.000000 1.020000 1.326000
pair_coeff 10 54 10.000000 1.030000 1.339000
pair_coeff 10 55 10.000000 1.040000 1.352000
pair_coeff 10 56 10.000000 1.050000 1.365000
pair_coeff 10 57 10.000000 1.060000 1.378000
pair_coeff 10 58 10.000000 1.070000 1.391000
pair_coeff 10 59 10.000000 1.080000 1.404000
pair_coeff 10 60 10.000000 1.090000 1.417000
pair_coeff 11 11 10.000000 0.610000 0.793000
pair_coeff 11 12 10.000000 0.620000 0.806000
pair_coeff 11 13 10.000000 0.630000 0.819000
pair_coeff 11 14 10.000000 0.640000 0.832000
pair_coeff 11 15 10.000000 0.650000 0.845000
pair_coeff 11 16 10.000000 0.660000 0.858000
pair_coeff 11 17 10.000000 0.670000 0.871000
pair_coeff 11 18 10.000000 0.680000 0.884000
pair_coeff 11 19 10.000000 0.690000 0.897000
pair_coeff 11 20 10.000000 0.700000 0.910000
pair_coeff 11 21 10.000000 0.710000 0.923000
pair_coeff 11 22 10.000000 0.720000 0.936000
pair_coeff 11 23 10.000000 0.730000 0.949000
pair_coeff 11 24 10.000000 0.740000 0.962000
pair_coeff 11 25 10.000000 0.750000 0.975000
pair_coeff 11 26 10.000000 0.760000 0.988000
pair_coeff 11 27 10.000000 0.770000 1.001000
pair_coeff 11 28 10.000000 0.780000 1.014000
pair_coeff 11 29 10.000000 0.790000 1.027000
pair_coeff 11 30 10.000000 0.800000 1.040000
pair_coeff 11 31 10.000000 0.810000 1.053000
pair_coeff 11 32 10.000000 0.820000 1.066000
pair_coeff 11 33 10.000000 0.830000 1.079000
pair_coeff 11 34 10.000000 0.840000 1.092000
pair_coeff 11 35 10.000000 0.850000 1.105000
pair_coeff 11 36 10.000000 0.860000 1.118000
pair_coeff 11 37 10.000000 0.870000 1.131000
pair_coeff 11 38 10.000000 0.880000 1.144000
pair_coeff 11 39 10.000000 0.890000 1.157000
pair_coeff 11 40 10.000000 0.900000 1.170000
pair_coeff 11 41 10.000000 0.910000 1.183000
pair_coeff 11 42 10.000000 0.920000 1.196000
pair_coeff 11 43 10.000000 0.930000 1.209000
pair_coeff 11 44 10.000000 0.940000 1.222000
pair_coeff 11 45 10.000000 0.950000 1.235000
pair_coeff 11 46 10.000000 0.960000 1.248000
pair_coeff 11 47 10.000000 0.970000 1.261000
pair_coeff 11 48 10.000000 0.980000 1.274000
pair_coeff 11 49 10.000000 0.990000 1.287000
pair_coeff 11 50 10.000000 1.000000 1.300000
pair_coeff 11 51 10.000000 1.010000 1.313000
pair_coeff 11 52 10.000000 1.020000 1.326000
pair_coeff 11 53 10.000000 1.030000 1.339000
pair_coeff 11 54 10.000000 1.040000 1.352000
pair_coeff 11 55 10.000000 1.050000 1.365000
pair_coeff 11 56 10.000000 1.060000 1.378000
pair_coeff 11 57 10.000000 1.070000 1.391000
pair_coeff 11 58 10.000000 1.080000 1.404000
pair_coeff 11 59 10.000000 1.090000 1.417000
pair_coeff 11 60 10.000000 1.100000 1.430000
pair_coeff 12 12 10.000000 0.630000 0.819000
pair_coeff 12 13 10.000000 0.640000 0.832000
pair_coeff 12 14 10.000000 0.650000 0.845000
pair_coeff 12 15 10.000000 0.660000 0.858000
pair_coeff 12 16 10.000000 0.670000 0.871000
pair_coeff 12 17 10.000000 0.680000 0.884000
pair_coeff 12 18 10.000000 0.690000 0.897000
pair_coeff 12 19 10.000000 0.700000 0.910000
pair_coeff 12 20 10.000000 0.710000 0.923000
pair_coeff 12 21 10.000000 0.720000 0.936000
pair_coeff 12 22 10.000000 0.730000 0.949000
pair_coeff 12 23 10.000000 0.740000 0.962000
pair_coeff 12 24 10.000000 0.750000 0.975000
pair_coeff 12 25 10.000000 0.760000 0.988000
pair_coeff 12 26 10.000000 0.770000 1.001000
pair_coeff 12 27 10.000000 0.780000 1.014000
pair_coeff 12 28 10.000000 0.790000 1.027000
pair_coeff 12 29 10.000000 0.800000 1.040000
pair_coeff 12 30 10.000000 0.810000 1.053000
pair_coeff 12 31 10.000000 0.820000 1.066000
pair_coeff 12 32 10.000000 0.830000 1.079000
pair_coeff 12 33 10.000000 0.840000 1.092000
pair_coeff 12 34 10.000000 0.850000 1.105000
pair_coeff 12 35 10.000000 0.860000 1.118000
pair_coeff 12 36 10.000000 0.870000 1.131000
pair_coeff 12 37 10.000000 0.880000 1.144000
pair_coeff 12 38 10.000000 0.890000 1.157000
pair_coeff 12 39 10.000000 0.900000 1.170000
pair_coeff 12 40 10.000000 0.910000 1.183000
pair_coeff 12 41 10.000000 0.920000 1.196000
pair_coeff 12 42 10.000000 0.930000 1.209000
pair_coeff 12 43 10.000000 0.940000 1.222000
pair_coeff 12 44 10.000000 0.950000 1.235000
pair_coeff 12 45 10.000000 0.960000 1.248000
pair_coeff 12 46 10.000000 0.970000 1.261000
pair_coeff 12 47 10.000000 0.980000 1.274000
pair_coeff 12 48 10.000000 0.990000 1.287000
pair_coeff 12 49 10.000000 1.000000 1.300000
pair_coeff 12 50 10.000000 1.010000 1.313000
pair_coeff 12 51 10.000000 1.020000 1.326000
pair_coeff 12 52 10.000000 1.030000 1.339000
pair_coeff 12 53 10.000000 1.040000 1.352000
pair_coeff 12 54 10.000000 1.050000 1.365000
pair_coeff 12 55 10.000000 1.060000 1.378000
pair_coeff 12 56 10.000000 1.070000 1.391000
pair_coeff 12 57 10.000000 1.080000 1.404000
pair_coeff 12 58 10.000000 1.090000 1.417000
pair_coeff 12 59 10.000000 1.100000 1.430000
pair_coeff 12 60 10.000000 1.110000 1.443000
pair_coeff 13 13 10.000000 0.650000 0.845000
pair_coeff 13 14 10.000000 0.660000 0.858000
pair_coeff 13 15 10.000000 0.670000 0.871000
pair_coeff 13 16 10.000000 0.680000 0.884000
pair_coeff 13 17 10.000000 0.690000 0.897000
pair_coeff 13 18 10.000000 0.700000 0.910000
pair_coeff 13 19 10.000000 0.710000 0.923000
pair_coeff 13 20 10.000000 0.720000 0.936000
pair_coeff 13 21 10.000000 0.730000 0.949000
pair_coeff 13 22 10.000000 0.740000 0.962000
pair_coeff 13 23 10.000000 0.750000 0.975000
pair_coeff 13 24 10.000000 0.760000 0.988000
pair_coeff 13 25 10.000000 0.770000 1.001000
pair_coeff 13 26 10.000000 0.780000 1.014000
pair_coeff 13 27 10.000000 0.790000 1.027000
pair_coeff 13 28 10.000000 0.800000 1.040000
pair_coeff 13 29 10.000000 0.810000 1.053000
pair_coeff 13 30 10.000000 0.820000 1.066000
pair_coeff 13 31 10.000000 0.830000 1.079000
pair_coeff 13 32 10.000000 0.840000 1.092000
pair_coeff 13 33 10.000000 0.850000 1.105000
pair_coeff 13 34 10.000000 0.860000 1.118000
pair_coeff 13 35 10.000000 0.870000 1.131000
pair_coeff 13 36 10.000000 0.880000 1.144000
pair_coeff 13 37 10.000000 0.890000 1.157000
pair_coeff 13 38 10.000000 0.900000 1.170000
pair_coeff 13 39 10.000000 0.910000 1.183000
pair_coeff 13 40 10.000000 0.920000 1.196000
pair_coeff 13 41 10.000000 0.930000 1.209000
pair_coeff 13 42 10.000000 0.940000 1.222000
pair_coeff 13 43 10.000000 0.950000 1.235000
pair_coeff 13 44 10.000000 0.960000 1.248000
pair_coeff 13 45 10.000000 0.970000 1.261000
pair_coeff 13 46 10.000000 0.980000 1.274000
pair_coeff 13 47 10.000000 0.990000 1.287000
pair_coeff 13 48 10.000000 1.000000 1.300000
pair_coeff 13 49 10.000000 1.010000 1.313000
pair_coeff 13 50 10.000000 1.020000 1.326000
pair_coeff 13 51 10.000000 1.030000 1.339000
pair_coeff 13 52 10.000000 1.040000 1.352000
pair_coeff 13 53 10.000000 1.050000 1.365000
pair_coeff 13 54 10.000000 1.060000 1.378000
pair_coeff 13 55 10.000000 1.070000 1.391000
pair_coeff 13 56 10.000000 1.080000 1.404000
pair_coeff 13 57 10.000000 1.090000 1.417000
pair_coeff 13 58 10.000000 1.100000 1.430000
pair_coeff 13 59 10.000000 1.110000 1.443000
pair_coeff 13 60 10.000000 1.120000 1.456000
pair_coeff 14 14 10.000000 0.670000 0.871000
pair_coeff 14 15 10.000000 0.680000 0.884000
pair_coeff 14 16 10.000000 0.690000 0.897000
pair_coeff 14 17 10.000000 0.700000 0.910000
pair_coeff 14 18 10.000000 0.710000 0.923000
pair_coeff 14 19 10.000000 0.720000 0.936000
pair_coeff 14 20 10.000000 0.730000 0.949000
pair_coeff 14 21 10.000000 0.740000 0.962000
pair_coeff 14 22 10.000000 0.750000 0.975000
pair_coeff 14 23 10.000000 0.760000 0.988000
pair_coeff 14 24 10.000000 0.770000 1.001000
pair_coeff 14 25 10.000000 0.780000 1.014000
pair_coeff 14 26 10.000000 0.790000 1.027000
pair_coeff 14 27 10.000000 0.800000 1.040000
pair_coeff 14 28 10.000000 0.810000 1.053000
pair_coeff 14 29 10.000000 0.820000 1.066000
pair_coeff 14 30 10.000000 0.830000 1.079000
pair_coeff 14 31 10.000000 0.840000 1.092000
pair_coeff 14 32 10.000000 0.850000 1.105000
pair_coeff 14 33 10.000000 0.860000 1.118000
pair_coeff 14 34 10.000000 0.870000 1.131000
pair_coeff 14 35 10.000000 0.880000 1.144000
pair_coeff 14 36 10.000000 0.890000 1.157000
pair_coeff 14 37 10.000000 0.900000 1.170000
pair_coeff 14 38 10.000000 0.910000 1.183000
pair_coeff 14 39 10.000000 0.920000 1.196000
pair_coeff 14 40 10.000000 0.930000 1.209000
pair_coeff 14 41 10.000000 0.940000 1.222000
pair_coeff 14 42 10.000000 0.950000 1.235000
pair_coeff 14 43 10.000000 0.960000 1.248000
pair_coeff 14 44 10.000000 0.970000 1.261000
pair_coeff 14 45 10.000000 0.980000 1.274000
pair_coeff 14 46 10.000000 0.990000 1.287000
pair_coeff 14 47 10.000000 1.000000 1.300000
pair_coeff 14 48 10.000000 1.010000 1.313000
pair_coeff 14 49 10.000000 1.020000 1.326000
pair_coeff 14 50 10.000000 1.030000 1.339000
pair_coeff 14 51 10.000000 1.040000 1.352000
pair_coeff 14 52 10.000000 1.050000 1.365000
pair_coeff 14 53 10.000000 1.060000 1.378000
pair_coeff 14 54 10.000000 1.070000 1.391000
pair_coeff 14 55 10.000000 1.080000 1.404000
pair_coeff 14 56 10.000000 1.090000 1.417000
pair_coeff 14 57 10.000000 1.100000 1.430000
pair_coeff 14 58 10.000000 1.110000 1.443000
pair_coeff 14 59 10.000000 1.120000 1.456000
pair_coeff 14 60 10.000000 1.130000 1.469000
pair_coeff 15 15 10.000000 0.690000 0.897000
pair_coeff 15 16 10.000000 0.700000 0.910000
pair_coeff 15 17 10.000000 0.710000 0.923000
pair_coeff 15 18 10.000000 0.720000 0.936000
pair_coeff 15 19 10.000000 0.730000 0.949000
pair_coeff 15 20 10.000000 0.740000 0.962000
pair_coeff 15 21 10.000000 0.750000 0.975000
pair_coeff 15 22 10.000000 0.760000 0.988000
pair_coeff 15 23 10.000000 0.770000 1.001000
pair_coeff 15 24 10.000000 0.780000 1.014000
pair_coeff 15 25 10.000000 0.790000 1.027000
pair_coeff 15 26 10.000000 0.800000 1.040000
pair_coeff 15 27 10.000000 0.810000 1.053000
pair_coeff 15 28 10.000000 0.820000 1.066000
pair_coeff 15 29 10.000000 0.830000 1.079000
pair_coeff 15 30 10.000000 0.840000 1.092000
pair_coeff 15 31 10.000000 0.850000 1.105000
pair_coeff 15 32 10.000000 0.860000 1.118000
pair_coeff 15 33 10.000000 0.870000 1.131000
pair_coeff 15 34 10.000000 0.880000 1.144000
pair_coeff 15 35 10.000000 0.890000 1.157000
pair_coeff 15 36 10.000000 0.900000 1.170000
pair_coeff 15 37 10.000000 0.910000 1.183000
pair_coeff 15 38 10.000000 0.920000 1.196000
pair_coeff 15 39 10.000000 0.930000 1.209000
pair_coeff 15 40 10.000000 0.940000 1.222000
pair_coeff 15 41 10.000000 0.950000 1.235000
pair_coeff 15 42 10.000000 0.960000 1.248000
pair_coeff 15 43 10.000000 0.970000 1.261000
pair_coeff 15 44 10.000000 0.980000 1.274000
pair_coeff 15 45 10.000000 0.990000 1.287000
pair_coeff 15 46 10.000000 1.000000 1.300000
pair_coeff 15 47 10.000000 1.010000 1.313000
pair_coeff 15 48 10.000000 1.020000 1.326000
pair_coeff 15 49 10.000000 1.030000 1.339000
pair_coeff 15 50 10.000000 1.040000 1.352000
pair_coeff 15 51 10.000000 1.050000 1.365000
pair_coeff 15 52 10.000000 1.060000 1.378000
pair_coeff 15 53 10.000000 1.070000 1.391000
pair_coeff 15 54 10.000000 1.080000 1.404000
pair_coeff 15 55 10.000000 1.090000 1.417000
pair_coeff 15 56 10.000000 1.100000 1.430000
pair_coeff 15 57 10.000000 1.110000 1.443000
pair_coeff 15 58 10.000000 1.120000 1.456000
pair_coeff 15 59 10.000000 1.130000 1.469000
pair_coeff 15 60 10.000000 1.140000 1.482000
pair_coeff 16 16 10.000000 0.710000 0.923000
pair_coeff 16 17 10.000000 0.720000 0.936000
pair_coeff 16 18 10.000000 0.730000 0.949000
pair_coeff 16 19 10.000000 0.740000 0.962000
pair_coeff 16 20 10.000000 0.750000 0.975000
pair_coeff 16 21 10.000000 0.760000 0.988000
pair_coeff 16 22 10.000000 0.770000 1.001000
pair_coeff 16 23 10.000000 0.780000 1.014000
pair_coeff 16 24 10.000000 0.790000 1.027000
pair_coeff 16 25 10.000000 0.800000 1.040000
pair_coeff 16 26 10.000000 0.810000 1.053000
pair_coeff 16 27 10.000000 0.820000 1.066000
pair_coeff 16 28 10.000000 0.830000 1.079000
pair_coeff 16 29 10.000000 0.840000 1.092000
pair_coeff 16 30 10.000000 0.850000 1.105000
pair_coeff 16 31 10.000000 0.860000 1.118000
pair_coeff 16 32 10.000000 0.870000 1.131000
pair_coeff 16 33 10.000000 0.880000 1.144000
pair_coeff 16 34 10.000000 0.890000 1.157000
pair_coeff 16 35 10.000000 0.900000 1.170000
pair_coeff 16 36 10.000000 0.910000 1.183000
pair_coeff 16 37 10.000000 0.920000 1.196000
pair_coeff 16 38 10.000000 0.930000 1.209000
pair_coeff 16 39 10.000000 0.940000 1.222000
pair_coeff 16 40 10.000000 0.950000 1.235000
pair_coeff 16 41 10.000000 0.960000 1.248000
pair_coeff 16 42 10.000000 0.970000 1.261000
pair_coeff 16 43 10.000000 0.980000 1.274000
pair_coeff 16 44 10.000000 0.990000 1.287000
pair_coeff 16 45 10.000000 1.000000 1.300000
pair_coeff 16 46 10.000000 1.010000 1.313000
pair_coeff 16 47 10.000000 1.020000 1.326000
pair_coeff 16 48 10.000000 1.030000 1.339000
pair_coeff 16 49 10.000000 1.040000 1.352000
pair_coeff 16 50 10.000000 1.050000 1.365000
pair_coeff 16 51 10.000000 1.060000 1.378000
pair_coeff 16 52 10.000000 1.070000 1.391000
pair_coeff 16 53 10.000000 1.080000 1.404000
pair_coeff 16 54 10.000000 1.090000 1.417000
pair_coeff 16 55 10.000000 1.100000 1.430000
pair_coeff 16 56 10.000000 1.110000 1.443000
pair_coeff 16 57 10.000000 1.120000 1.456000
pair_coeff 16 58 10.000000 1.130000 1.469000
pair_coeff 16 59 10.000000 1.140000 1.482000
pair_coeff 16 60 10.000000 1.150000 1.495000
pair_coeff 17 17 10.000000 0.730000 0.949000
pair_coeff 17 18 10.000000 0.740000 0.962000
pair_coeff 17 19 10.000000 0.750000 0.975000
pair_coeff 17 20 10.000000 0.760000 0.988000
pair_coeff 17 21 10.000000 0.770000 1.001000
pair_coeff 17 22 10.000000 0.780000 1.014000
pair_coeff 17 23 10.000000 0.790000 1.027000
pair_coeff 17 24 10.000000 0.800000 1.040000
pair_coeff 17 25 10.000000 0.810000 1.053000
pair_coeff 17 26 10.000000 0.820000 1.066000
pair_coeff 17 27 10.000000 0.830000 1.079000
pair_coeff 17 28 10.000000 0.840000 1.092000
pair_coeff 17 29 10.000000 0.850000 1.105000
pair_coeff 17 30 10.000000 0.860000 1.118000
pair_coeff 17 31 10.000000 0.870000 1.131000
pair_coeff 17 32 10.000000 0.880000 1.144000
pair_coeff 17 33 10.000000 0.890000 1.157000
pair_coeff 17 34 10.000000 0.900000 1.170000
pair_coeff 17 35 10.000000 0.910000 1.183000
pair_coeff 17 36 10.000000 0.920000 1.196000
pair_coeff 17 37 10.000000 0.930000 1.209000
pair_coeff 17 38 10.000000 0.940000 1.222000
pair_coeff 17 39 10.000000 0.950000 1.235000
pair_coeff 17 40 10.000000 0.960000 1.248000
pair_coeff 17 41 10.000000 0.970000 1.261000
pair_coeff 17 42 10.000000 0.980000 1.274000
pair_coeff 17 43 10.000000 0.990000 1.287000
pair_coeff 17 44 10.000000 1.000000 1.300000
pair_coeff 17 45 10.000000 1.010000 1.313000
pair_coeff 17 46 10.000000 1.020000 1.326000
pair_coeff 17 47 10.000000 1.030000 1.339000
pair_coeff 17 48 10.000000 1.040000 1.352000
pair_coeff 17 49 10.000000 1.050000 1.365000
pair_coeff 17 50 10.000000 1.060000 1.378000
pair_coeff 17 51 10.000000 1.070000 1.391000
pair_coeff 17 52 10.000000 1.080000 1.404000
pair_coeff 17 53 10.000000 1.090000 1.417000
pair_coeff 17 54 10.000000 1.100000 1.430000
pair_coeff 17 55 10.000000 1.110000 1.443000
pair_coeff 17 56 10.000000 1.120000 1.456000
pair_coeff 17 57 10.000000 1.130000 1.469000
pair_coeff 17 58 10.000000 1.140000 1.482000
pair_coeff 17 59 10.000000 1.150000 1.495000
pair_coeff 17 60 10.000000 1.160000 1.508000
pair_coeff 18 18 10.000000 0.750000 0.975000
pair_coeff 18 19 10.000000 0.760000 0.988000
pair_coeff 18 20 10.000000 0.770000 1.001000
pair_coeff 18 21 10.000000 0.780000 1.014000
pair_coeff 18 22 10.000000 0.790000 1.027000
pair_coeff 18 23 10.000000 0.800000 1.040000
pair_coeff 18 24 10.000000 0.810000 1.053000
pair_coeff 18 25 10.000000 0.820000 1.066000
pair_coeff 18 26 10.000000 0.830000 1.079000
pair_coeff 18 27 10.000000 0.840000 1.092000
pair_coeff 18 28 10.000000 0.850000 1.105000
pair_coeff 18 29 10.000000 0.860000 1.118000
pair_coeff 18 30 10.000000 0.870000 1.131000
pair_coeff 18 31 10.000000 0.880000 1.144000
pair_coeff 18 32 10.000000 0.890000 1.157000
pair_coeff 18 33 10.000000 0.900000 1.170000
pair_coeff 18 34 10.000000 0.910000 1.183000
pair_coeff 18 35 10.000000 0.920000 1.196000
pair_coeff 18 36 10.000000 0.930000 1.209000
pair_coeff 18 37 10.000000 0.940000 1.222000
pair_coeff 18 38 10.000000 0.950000 1.235000
pair_coeff 18 39 10.000000 0.960000 1.248000
pair_coeff 18 40 10.000000 0.970000 1.261000
pair_coeff 18 41 10.000000 0.980000 1.274000
pair_coeff 18 42 10.000000 0.990000 1.287000
pair_coeff 18 43 10.000000 1.000000 1.300000
pair_coeff 18 44 10.000000 1.010000 1.313000
pair_coeff 18 45 10.000000 1.020000 1.326000
pair_coeff 18 46 10.000000 1.030000 1.339000
pair_coeff 18 47 10.000000 1.040000 1.352000
pair_coeff 18 48 10.000000 1.050000 1.365000
pair_coeff 18 49 10.000000 1.060000 1.378000
pair_coeff 18 50 10.000000 1.070000 1.391000
pair_coeff 18 51 10.000000 1.080000 1.404000
pair_coeff 18 52 10.000000 1.090000 1.417000
pair_coeff 18 53 10.000000 1.100000 1.430000
pair_coeff 18 54 10.000000 1.110000 1.443000
pair_coeff 18 55 10.000000 1.120000 1.456000
pair_coeff 18 56 10.000000 1.130000 1.469000
pair_coeff 18 57 10.000000 1.140000 1.482000
pair_coeff 18 58 10.000000 1.150000 1.495000
pair_coeff 18 59 10.000000 1.160000 1.508000
pair_coeff 18 60 10.000000 1.170000 1.521000
pair_coeff 19 19 10.000000 0.770000 1.001000
pair_coeff 19 20 10.000000 0.780000 1.014000
pair_coeff 19 21 10.000000 0.790000 1.027000
pair_coeff 19 22 10.000000 0.800000 1.040000
pair_coeff 19 23 10.000000 0.810000 1.053000
pair_coeff 19 24 10.000000 0.820000 1.066000
pair_coeff 19 25 10.000000 0.830000 1.079000
pair_coeff 19 26 10.000000 0.840000 1.092000
pair_coeff 19 27 10.000000 0.850000 1.105000
pair_coeff 19 28 10.000000 0.860000 1.118000
pair_coeff 19 29 10.000000 0.870000 1.131000
pair_coeff 19 30 10.000000 0.880000 1.144000
pair_coeff 19 31 10.000000 0.890000 1.157000
pair_coeff 19 32 10.000000 0.900000 1.170000
pair_coeff 19 33 10.000000 0.910000 1.183000
pair_coeff 19 34 10.000000 0.920000 1.196000
pair_coeff 19 35 10.000000 0.930000 1.209000
pair_coeff 19 36 10.000000 0.940000 1.222000
pair_coeff 19 37 10.000000 0.950000 1.235000
pair_coeff 19 38 10.000000 0.960000 1.248000
pair_coeff 19 39 10.000000 0.970000 1.261000
pair_coeff 19 40 10.000000 0.980000 1.274000
pair_coeff 19 41 10.000000 0.990000 1.287000
pair_coeff 19 42 10.000000 1.000000 1.300000
pair_coeff 19 43 10.000000 1.010000 1.313000
pair_coeff 19 44 10.000000 1.020000 1.326000
pair_coeff 19 45 10.000000 1.030000 1.339000
pair_coeff 19 46 10.000000 1.040000 1.352000
pair_coeff 19 47 10.000000 1.050000 1.365000
pair_coeff 19 48 10.000000 1.060000 1.378000
pair_coeff 19 49 10.000000 1.070000 1.391000
pair_coeff 19 50 10.000000 1.080000 1.404000
pair_coeff 19 51 10.000000 1.090000 1.417000
pair_coeff 19 52 10.000000 1.100000 1.430000
pair_coeff 19 53 10.000000 1.110000 1.443000
pair_coeff 19 54 10.000000 1.120000 1.456000
pair_coeff 19 55 10.000000 1.130000 1.469000
pair_coeff 19 56 10.000000 1.140000 1.482000
pair_coeff 19 57 10.000000 1.150000 1.495000
pair_coeff 19 58 10.000000 1.160000 1.508000
pair_coeff 19 59 10.000000 1.170000 1.521000
pair_coeff 19 60 10.000000 1.180000 1.534000
pair_coeff 20 20 10.000000 0.790000 1.027000
pair_coeff 20 21 10.000000 0.800000 1.040000
pair_coeff 20 22 10.000000 0.810000 1.053000
pair_coeff 20 23 10.000000 0.820000 1.066000
pair_coeff 20 24 10.000000 0.830000 1.079000
pair_coeff 20 25 10.000000 0.840000 1.092000
pair_coeff 20 26 10.000000 0.850000 1.105000
pair_coeff 20 27 10.000000 0.860000 1.118000
pair_coeff 20 28 10.000000 0.870000 1.131000
pair_coeff 20 29 10.000000 0.880000 1.144000
pair_coeff 20 30 10.000000 0.890000 1.157000
pair_coeff 20 31 10.000000 0.900000 1.170000
pair_coeff 20 32 10.000000 0.910000 1.183000
pair_coeff 20 33 10.000000 0.920000 1.196000
pair_coeff 20 34 10.000000 0.930000 1.209000
pair_coeff 20 35 10.000000 0.940000 1.222000
pair_coeff 20 36 10.000000 0.950000 1.235000
pair_coeff 20 37 10.000000 0.960000 1.248000
pair_coeff 20 38 10.000000 0.970000 1.261000
pair_coeff 20 39 10.000000 0.980000 1.274000
pair_coeff 20 40 10.000000 0.990000 1.287000
pair_coeff 20 41 10.000000 1.000000 1.300000
pair_coeff 20 42 10.000000 1.010000 1.313000
pair_coeff 20 43 10.000000 1.020000 1.326000
pair_coeff 20 44 10.000000 1.030000 1.339000
pair_coeff 20 45 10.000000 1.040000 1.352000
pair_coeff 20 46 10.000000 1.050000 1.365000
pair_coeff 20 47 10.000000 1.060000 1.378000
pair_coeff 20 48 10.000000 1.070000 1.391000
pair_coeff 20 49 10.000000 1.080000 1.404000
pair_coeff 20 50 10.000000 1.090000 1.417000
pair_coeff 20 51 10.000000 1.100000 1.430000
pair_coeff 20 52 10.000000 1.110000 1.443000
pair_coeff 20 53 10.000000 1.120000 1.456000
pair_coeff 20 54 10.000000 1.130000 1.469000
pair_coeff 20 55 10.000000 1.140000 1.482000
pair_coeff 20 56 10.000000 1.150000 1.495000
pair_coeff 20 57 10.000000 1.160000 1.508000
pair_coeff 20 58 10.000000 1.170000 1.521000
pair_coeff 20 59 10.000000 1.180000 1.534000
pair_coeff 20 60 10.000000 1.190000 1.547000
pair_coeff 21 21 10.000000 0.810000 1.053000
pair_coeff 21 22 10.000000 0.820000 1.066000
pair_coeff 21 23 10.000000 0.830000 1.079000
pair_coeff 21 24 10.000000 0.840000 1.092000
pair_coeff 21 25 10.000000 0.850000 1.105000
pair_coeff 21 26 10.000000 0.860000 1.118000
pair_coeff 21 27 10.000000 0.870000 1.131000
pair_coeff 21 28 10.000000 0.880000 1.144000
pair_coeff 21 29 10.000000 0.890000 1.157000
pair_coeff 21 30 10.000000 0.900000 1.170000
pair_coeff 21 31 10.000000 0.910000 1.183000
pair_coeff 21 32 10.000000 0.920000 1.196000
pair_coeff 21 33 10.000000 0.930000 1.209000
pair_coeff 21 34 10.000000 0.940000 1.222000
pair_coeff 21 35 10.000000 0.950000 1.235000
pair_coeff 21 36 10.000000 0.960000 1.248000
pair_coeff 21 37 10.000000 0.970000 1.261000
pair_coeff 21 38 10.000000 0.980000 1.274000
pair_coeff 21 39 10.000000 0.990000 1.287000
pair_coeff 21 40 10.000000 1.000000 1.300000
pair_coeff 21 41 10.000000 1.010000 1.313000
pair_coeff 21 42 10.000000 1.020000 1.326000
pair_coeff 21 43 10.000000 1.030000 1.339000
pair_coeff 21 44 10.000000 1.040000 1.352000
pair_coeff 21 45 10.000000 1.050000 1.365000
pair_coeff 21 46 10.000000 1.060000 1.378000
pair_coeff 21 47 10.000000 1.070000 1.391000
pair_coeff 21 48 10.000000 1.080000 1.404000
pair_coeff 21 49 10.000000 1.090000 1.417000
pair_coeff 21 50 10.000000 1.100000 1.430000
pair_coeff 21 51 10.000000 1.110000 1.443000
pair_coeff 21 52 10.000000 1.120000 1.456000
pair_coeff 21 53 10.000000 1.130000 1.469000
pair_coeff 21 54 10.000000 1.140000 1.482000
pair_coeff 21 55 10.000000 1.150000 1.495000
pair_coeff 21 56 10.000000 1.160000 1.508000
pair_coeff 21 57 10.000000 1.170000 1.521000
pair_coeff 21 58 10.000000 1.180000 1.534000
pair_coeff 21 59 10.000000 1.190000 1.547000
pair_coeff 21 60 10.000000 1.200000 1.560000
pair_coeff 22 22 10.000000 0.830000 1.079000
pair_coeff 22 23 10.000000 0.840000 1.092000
pair_coeff 22 24 10.000000 0.850000 1.105000
pair_coeff 22 25 10.000000 0.860000 1.118000
pair_coeff 22 26 10.000000 0.870000 1.131000
pair_coeff 22 27 10.000000 0.880000 1.144000
pair_coeff 22 28 10.000000 0.890000 1.157000
pair_coeff 22 29 10.000000 0.900000 1.170000
pair_coeff 22 30 10.000000 0.910000 1.183000
pair_coeff 22 31 10.000000 0.920000 1.196000
pair_coeff 22 32 10.000000 0.930000 1.209000
pair_coeff 22 33 10.000000 0.940000 1.222000
pair_coeff 22 34 10.000000 0.950000 1.235000
pair_coeff 22 35 10.000000 0.960000 1.248000
pair_coeff 22 36 10.000000 0.970000 1.261000
pair_coeff 22 37 10.000000 0.980000 1.274000
pair_coeff 22 38 10.000000 0.990000 1.287000
pair_coeff 22 39 10.000000 1.000000 1.300000
pair_coeff 22 40 10.000000 1.010000 1.313000
pair_coeff 22 41 10.000000 1.020000 1.326000
pair_coeff 22 42 10.000000 1.030000 1.339000
pair_coeff 22 43 10.000000 1.040000 1.352000
pair_coeff 22 44 10.000000 1.050000 1.365000
pair_coeff 22 45 10.000000 1.060000 1.378000
pair_coeff 22 46 10.000000 1.070000 1.391000
pair_coeff 22 47 10.000000 1.080000 1.404000
pair_coeff 22 48 10.000000 1.090000 1.417000
pair_coeff 22 49 10.000000 1.100000 1.430000
pair_coeff 22 50 10.000000 1.110000 1.443000
pair_coeff 22 51 10.000000 1.120000 1.456000
pair_coeff 22 52 10.000000 1.130000 1.469000
pair_coeff 22 53 10.000000 1.140000 1.482000
pair_coeff 22 54 10.000000 1.150000 1.495000
pair_coeff 22 55 10.000000 1.160000 1.508000
pair_coeff 22 56 10.000000 1.170000 1.521000
pair_coeff 22 57 10.000000 1.180000 1.534000
pair_coeff 22 58 10.000000 1.190000 1.547000
pair_coeff 22 59 10.000000 1.200000 1.560000
pair_coeff 22 60 10.000000 1.210000 1.573000
pair_coeff 23 23 10.000000 0.850000 1.105000
pair_coeff 23 24 10.000000 0.860000 1.118000
pair_coeff 23 25 10.000000 0.870000 1.131000
pair_coeff 23 26 10.000000 0.880000 1.144000
pair_coeff 23 27 10.000000 0.890000 1.157000
pair_coeff 23 28 10.000000 0.900000 1.170000
pair_coeff 23 29 10.000000 0.910000 1.183000
pair_coeff 23 30 10.000000 0.920000 1.196000
pair_coeff 23 31 10.000000 0.930000 1.209000
pair_coeff 23 32 10.000000 0.940000 1.222000
pair_coeff 23 33 10.000000 0.950000 1.235000
pair_coeff 23 34 10.000000 0.960000 1.248000
pair_coeff 23 35 10.000000 0.970000 1.261000
pair_coeff 23 36 10.000000 0.980000 1.274000
pair_coeff 23 37 10.000000 0.990000 1.287000
pair_coeff 23 38 10.000000 1.000000 1.300000
pair_coeff 23 39 10.000000 1.010000 1.313000
pair_coeff 23 40 10.000000 1.020000 1.326000
pair_coeff 23 41 10.000000 1.030000 1.339000
pair_coeff 23 42 10.000000 1.040000 1.352000
pair_coeff 23 43 10.000000 1.050000 1.365000
pair_coeff 23 44 10.000000 1.060000 1.378000
pair_coeff 23 45 10.000000 1.070000 1.391000
pair_coeff 23 46 10.000000 1.080000 1.404000
pair_coeff 23 47 10.000000 1.090000 1.417000
pair_coeff 23 48 10.000000 1.100000 1.430000
pair_coeff 23 49 10.000000 1.110000 1.443000
pair_coeff 23 50 10.000000 1.120000 1.456000
pair_coeff 23 51 10.000000 1.130000 1.469000
pair_coeff 23 52 10.000000 1.140000 1.482000
pair_coeff 23 53 10.000000 1.150000 1.495000
pair_coeff 23 54 10.000000 1.160000 1.508000
pair_coeff 23 55 10.000000 1.170000 1.521000
pair_coeff 23 56 10.000000 1.180000 1.534000
pair_coeff 23 57 10.000000 1.190000 1.547000
pair_coeff 23 58 10.000000 1.200000 1.560000
pair_coeff 23 59 10.000000 1.210000 1.573000
pair_coeff 23 60 10.000000 1.220000 1.586000
pair_coeff 24 24 10.000000 0.870000 1.131000
pair_coeff 24 25 10.000000 0.880000 1.144000
pair_coeff 24 26 10.000000 0.890000 1.157000
pair_coeff 24 27 10.000000 0.900000 1.170000
pair_coeff 24 28 10.000000 0.910000 1.183000
pair_coeff 24 29 10.000000 0.920000 1.196000
pair_coeff 24 30 10.000000 0.930000 1.209000
pair_coeff 24 31 10.000000 0.940000 1.222000
pair_coeff 24 32 10.000000 0.950000 1.235000
pair_coeff 24 33 10.000000 0.960000 1.248000
pair_coeff 24 34 10.000000 0.970000 1.261000
pair_coeff 24 35 10.000000 0.980000 1.274000
pair_coeff 24 36 10.000000 0.990000 1.287000
pair_coeff 24 37 10.000000 1.000000 1.300000
pair_coeff 24 38 10.000000 1.010000 1.313000
pair_coeff 24 39 10.000000 1.020000 1.326000
pair_coeff 24 40 10.000000 1.030000 1.339000
pair_coeff 24 41 10.000000 1.040000 1.352000
pair_coeff 24 42 10.000000 1.050000 1.365000
pair_coeff 24 43 10.000000 1.060000 1.378000
pair_coeff 24 44 10.000000 1.070000 1.391000
pair_coeff 24 45 10.000000 1.080000 1.404000
pair_coeff 24 46 10.000000 1.090000 1.417000
pair_coeff 24 47 10.000000 1.100000 1.430000
pair_coeff 24 48 10.000000 1.110000 1.443000
pair_coeff 24 49 10.000000 1.120000 1.456000
pair_coeff 24 50 10.000000 1.130000 1.469000
pair_coeff 24 51 10.000000 1.140000 1.482000
pair_coeff 24 52 10.000000 1.150000 1.495000
pair_coeff 24 53 10.000000 1.160000 1.508000
pair_coeff 24 54 10.000000 1.170000 1.521000
pair_coeff 24 55 10.000000 1.180000 1.534000
pair_coeff 24 56 10.000000 1.190000 1.547000
pair_coeff 24 57 10.000000 1.200000 1.560000
pair_coeff 24 58 10.000000 1.210000 1.573000
pair_coeff 24 59 10.000000 1.220000 1.586000
pair_coeff 24 60 10.000000 1.230000 1.599000
pair_coeff 25 25 10.000000 0.890000 1.157000
pair_coeff 25 26 10.000000 0.900000 1.170000
pair_coeff 25 27 10.000000 0.910000 1.183000
pair_coeff 25 28 10.000000 0.920000 1.196000
pair_coeff 25 29 10.000000 0.930000 1.209000
pair_coeff 25 30 10.000000 0.940000 1.222000
pair_coeff 25 31 10.000000 0.950000 1.235000
pair_coeff 25 32 10.000000 0.960000 1.248000
pair_coeff 25 33 10.000000 0.970000 1.261000
pair_coeff 25 34 10.000000 0.980000 1.274000
pair_coeff 25 35 10.000000 0.990000 1.287000
pair_coeff 25 36 10.000000 1.000000 1.300000
pair_coeff 25 37 10.000000 1.010000 1.313000
pair_coeff 25 38 10.000000 1.020000 1.326000
pair_coeff 25 39 10.000000 1.030000 1.339000
pair_coeff 25 40 10.000000 1.040000 1.352000
pair_coeff 25 41 10.000000 1.050000 1.365000
pair_coeff 25 42 10.000000 1.060000 1.378000
pair_coeff 25 43 10.000000 1.070000 1.391000
pair_coeff 25 44 10.000000 1.080000 1.404000
pair_coeff 25 45 10.000000 1.090000 1.417000
pair_coeff 25 46 10.000000 1.100000 1.430000
pair_coeff 25 47 10.000000 1.110000 1.443000
pair_coeff 25 48 10.000000 1.120000 1.456000
pair_coeff 25 49 10.000000 1.130000 1.469000
pair_coeff 25 50 10.000000 1.140000 1.482000
pair_coeff 25 51 10.000000 1.150000 1.495000
pair_coeff 25 52 10.000000 1.160000 1.508000
pair_coeff 25 53 10.000000 1.170000 1.521000
pair_coeff 25 54 10.000000 1.180000 1.534000
pair_coeff 25 55 10.000000 1.190000 1.547000
pair_coeff 25 56 10.000000 1.200000 1.560000
pair_coeff 25 57 10.000000 1.210000 1.573000
pair_coeff 25 58 10.000000 1.220000 1.586000
pair_coeff 25 59 10.000000 1.230000 1.599000
pair_coeff 25 60 10.000000 1.240000 1.612000
pair_coeff 26 26 10.000000 0.910000 1.183000
pair_coeff 26 27 10.000000 0.920000 1.196000
pair_coeff 26 28 10.000000 0.930000 1.209000
pair_coeff 26 29 10.000000 0.940000 1.222000
pair_coeff 26 30 10.000000 0.950000 1.235000
pair_coeff 26 31 10.000000 0.960000 1.248000
pair_coeff 26 32 10.000000 0.970000 1.261000
pair_coeff 26 33 10.000000 0.980000 1.274000
pair_coeff 26 34 10.000000 0.990000 1.287000
pair_coeff 26 35 10.000000 1.000000 1.300000
pair_coeff 26 36 10.000000 1.010000 1.313000
pair_coeff 26 37 10.000000 1.020000 1.326000
pair_coeff 26 38 10.000000 1.030000 1.339000
pair_coeff 26 39 10.000000 1.040000 1.352000
pair_coeff 26 40 10.000000 1.050000 1.365000
pair_coeff 26 41 10.000000 1.060000 1.378000
pair_coeff 26 42 10.000000 1.070000 1.391000
pair_coeff 26 43 10.000000 1.080000 1.404000
pair_coeff 26 44 10.000000 1.090000 1.417000
pair_coeff 26 45 10.000000 1.100000 1.430000
pair_coeff 26 46 10.000000 1.110000 1.443000
pair_coeff 26 47 10.000000 1.120000 1.456000
pair_coeff 26 48 10.000000 1.130000 1.469000
pair_coeff 26 49 10.000000 1.140000 1.482000
pair_coeff 26 50 10.000000 1.150000 1.495000
pair_coeff 26 51 10.000000 1.160000 1.508000
pair_coeff 26 52 10.000000 1.170000 1.521000
pair_coeff 26 53 10.000000 1.180000 1.534000
pair_coeff 26 54 10.000000 1.190000 1.547000
pair_coeff 26 55 10.000000 1.200000 1.560000
pair_coeff 26 56 10.000000 1.210000 1.573000
pair_coeff 26 57 10.000000 1.220000 1.586000
pair_coeff 26 58 10.000000 1.230000 1.599000
pair_coeff 26 59 10.000000 1.240000 1.612000
pair_coeff 26 60 10.000000 1.250000 1.625000
pair_coeff 27 27 10.000000 0.930000 1.209000
pair_coeff 27 28 10.000000 0.940000 1.222000
pair_coeff 27 29 10.000000 0.950000 1.235000
pair_coeff 27 30 10.000000 0.960000 1.248000
pair_coeff 27 31 10.000000 0.970000 1.261000
pair_coeff 27 32 10.000000 0.980000 1.274000
pair_coeff 27 33 10.000000 0.990000 1.287000
pair_coeff 27 34 10.000000 1.000000 1.300000
pair_coeff 27 35 10.000000 1.010000 1.313000
pair_coeff 27 36 10.000000 1.020000 1.326000
pair_coeff 27 37 10.000000 1.030000 1.339000
pair_coeff 27 38 10.000000 1.040000 1.352000
pair_coeff 27 39 10.000000 1.050000 1.365000
pair_coeff 27 40 10.000000 1.060000 1.378000
pair_coeff 27 41 10.000000 1.070000 1.391000
pair_coeff 27 42 10.000000 1.080000 1.404000
pair_coeff 27 43 10.000000 1.090000 1.417000
pair_coeff 27 44 10.000000 1.100000 1.430000
pair_coeff 27 45 10.000000 1.110000 1.443000
pair_coeff 27 46 10.000000 1.120000 1.456000
pair_coeff 27 47 10.000000 1.130000 1.469000
pair_coeff 27 48 10.000000 1.140000 1.482000
pair_coeff 27 49 10.000000 1.150000 1.495000
pair_coeff 27 50 10.000000 1.160000 1.508000
pair_coeff 27 51 10.000000 1.170000 1.521000
pair_coeff 27 52 10.000000 1.180000 1.534000
pair_coeff 27 53 10.000000 1.190000 1.547000
pair_coeff 27 54 10.000000 1.200000 1.560000
pair_coeff 27 55 10.000000 1.210000 1.573000
pair_coeff 27 56 10.000000 1.220000 1.586000
pair_coeff 27 57 10.000000 1.230000 1.599000
pair_coeff 27 58 10.000000 1.240000 1.612000
pair_coeff 27 59 10.000000 1.250000 1.625000
pair_coeff 27 60 10.000000 1.260000 1.638000
pair_coeff 28 28 10.000000 0.950000 1.235000
pair_coeff 28 29 10.000000 0.960000 1.248000
pair_coeff 28 30 10.000000 0.970000 1.261000
pair_coeff 28 31 10.000000 0.980000 1.274000
pair_coeff 28 32 10.000000 0.990000 1.287000
pair_coeff 28 33 10.000000 1.000000 1.300000
pair_coeff 28 34 10.000000 1.010000 1.313000
pair_coeff 28 35 10.000000 1.020000 1.326000
pair_coeff 28 36 10.000000 1.030000 1.339000
pair_coeff 28 37 10.000000 1.040000 1.352000
pair_coeff 28 38 10.000000 1.050000 1.365000
pair_coeff 28 39 10.000000 1.060000 1.378000
pair_coeff 28 40 10.000000 1.070000 1.391000
pair_coeff 28 41 10.000000 1.080000 1.404000
pair_coeff 28 42 10.000000 1.090000 1.417000
pair_coeff 28 43 10.000000 1.100000 1.430000
pair_coeff 28 44 10.000000 1.110000 1.443000
pair_coeff 28 45 10.000000 1.120000 1.456000
pair_coeff 28 46 10.000000 1.130000 1.469000
pair_coeff 28 47 10.000000 1.140000 1.482000
pair_coeff 28 48 10.000000 1.150000 1.495000
pair_coeff 28 49 10.000000 1.160000 1.508000
pair_coeff 28 50 10.000000 1.170000 1.521000
pair_coeff 28 51 10.000000 1.180000 1.534000
pair_coeff 28 52 10.000000 1.190000 1.547000
pair_coeff 28 53 10.000000 1.200000 1.560000
pair_coeff 28 54 10.000000 1.210000 1.573000
pair_coeff 28 55 10.000000 1.220000 1.586000
pair_coeff 28 56 10.000000 1.230000 1.599000
pair_coeff 28 57 10.000000 1.240000 1.612000
pair_coeff 28 58 10.000000 1.250000 1.625000
pair_coeff 28 59 10.000000 1.260000 1.638000
pair_coeff 28 60 10.000000 1.270000 1.651000
pair_coeff 29 29 10.000000 0.970000 1.261000
pair_coeff 29 30 10.000000 0.980000 1.274000
pair_coeff 29 31 10.000000 0.990000 1.287000
pair_coeff 29 32 10.000000 1.000000 1.300000
pair_coeff 29 33 10.000000 1.010000 1.313000
pair_coeff 29 34 10.000000 1.020000 1.326000
pair_coeff 29 35 10.000000 1.030000 1.339000
pair_coeff 29 36 10.000000 1.040000 1.352000
pair_coeff 29 37 10.000000 1.050000 1.365000
pair_coeff 29 38 10.000000 1.060000 1.378000
pair_coeff 29 39 10.000000 1.070000 1.391000
pair_coeff 29 40 10.000000 1.080000 1.404000
pair_coeff 29 41 10.000000 1.090000 1.417000
pair_coeff 29 42 10.000000 1.100000 1.430000
pair_coeff 29 43 10.000000 1.110000 1.443000
pair_coeff 29 44 10.000000 1.120000 1.456000
pair_coeff 29 45 10.000000 1.130000 1.469000
pair_coeff 29 46 10.000000 1.140000 1.482000
pair_coeff 29 47 10.000000 1.150000 1.495000
pair_coeff 29 48 10.000000 1.160000 1.508000
pair_coeff 29 49 10.000000 1.170000 1.521000
pair_coeff 29 50 10.000000 1.180000 1.534000
pair_coeff 29 51 10.000000 1.190000 1.547000
pair_coeff 29 52 10.000000 1.200000 1.560000
pair_coeff 29 53 10.000000 1.210000 1.573000
pair_coeff 29 54 10.000000 1.220000 1.586000
pair_coeff 29 55 10.000000 1.230000 1.599000
pair_coeff 29 56 10.000000 1.240000 1.612000
pair_coeff 29 57 10.000000 1.250000 1.625000
pair_coeff 29 58 10.000000 1.260000 1.638000
pair_coeff 29 59 10.000000 1.270000 1.651000
pair_coeff 29 60 10.000000 1.280000 1.664000
pair_coeff 30 30 10.000000 0.990000 1.287000
pair_coeff 30 31 10.000000 1.000000 1.300000
pair_coeff 30 32 10.000000 1.010000 1.313000
pair_coeff 30 33 10.000000 1.020000 1.326000
pair_coeff 30 34 10.000000 1.030000 1.339000
pair_coeff 30 35 10.000000 1.040000 1.352000
pair_coeff 30 36 10.000000 1.050000 1.365000
pair_coeff 30 37 10.000000 1.060000 1.378000
pair_coeff 30 38 10.000000 1.070000 1.391000
pair_coeff 30 39 10.000000 1.080000 1.404000
pair_coeff 30 40 10.000000 1.090000 1.417000
pair_coeff 30 41 10.000000 1.100000 1.430000
pair_coeff 30 42 10.000000 1.110000 1.443000
pair_coeff 30 43 10.000000 1.120000 1.456000
pair_coeff 30 44 10.000000 1.130000 1.469000
pair_coeff 30 45 10.000000 1.140000 1.482000
pair_coeff 30 46 10.000000 1.150000 1.495000
pair_coeff 30 47 10.000000 1.160000 1.508000
pair_coeff 30 48 10.000000 1.170000 1.521000
pair_coeff 30 49 10.000000 1.180000 1.534000
pair_coeff 30 50 10.000000 1.190000 1.547000
pair_coeff 30 51 10.000000 1.200000 1.560000
pair_coeff 30 52 10.000000 1.210000 1.573000
pair_coeff 30 53 10.000000 1.220000 1.586000
pair_coeff 30 54 10.000000 1.230000 1.599000
pair_coeff 30 55 10.000000 1.240000 1.612000
pair_coeff 30 56 10.000000 1.250000 1.625000
pair_coeff 30 57 10.000000 1.260000 1.638000
pair_coeff 30 58 10.000000 1.270000 1.651000
pair_coeff 30 59 10.000000 1.280000 1.664000
pair_coeff 30 60 10.000000 1.290000 1.677000
pair_coeff 31 31 10.000000 1.010000 1.313000
pair_coeff 31 32 10.000000 1.020000 1.326000
pair_coeff 31 33 10.000000 1.030000 1.339000
pair_coeff 31 34 10.000000 1.040000 1.352000
pair_coeff 31 35 10.000000 1.050000 1.365000
pair_coeff 31 36 10.000000 1.060000 1.378000
pair_coeff 31 37 10.000000 1.070000 1.391000
pair_coeff 31 38 10.000000 1.080000 1.404000
pair_coeff 31 39 10.000000 1.090000 1.417000
pair_coeff 31 40 10.000000 1.100000 1.430000
pair_coeff 31 41 10.000000 1.110000 1.443000
pair_coeff 31 42 10.000000 1.120000 1.456000
pair_coeff 31 43 10.000000 1.130000 1.469000
pair_coeff 31 44 10.000000 1.140000 1.482000
pair_coeff 31 45 10.000000 1.150000 1.495000
pair_coeff 31 46 10.000000 1.160000 1.508000
pair_coeff 31 47 10.000000 1.170000 1.521000
pair_coeff 31 48 10.000000 1.180000 1.534000
pair_coeff 31 49 10.000000 1.190000 1.547000
pair_coeff 31 50 10.000000 1.200000 1.560000
pair_coeff 31 51 10.000000 1.210000 1.573000
pair_coeff 31 52 10.000000 1.220000 1.586000
pair_coeff 31 53 10.000000 1.230000 1.599000
pair_coeff 31 54 10.000000 1.240000 1.612000
pair_coeff 31 55 10.000000 1.250000 1.625000
pair_coeff 31 56 10.000000 1.260000 1.638000
pair_coeff 31 57 10.000000 1.270000 1.651000
pair_coeff 31 58 10.000000 1.280000 1.664000
pair_coeff 31 59 10.000000 1.290000 1.677000
pair_coeff 31 60 10.000000 1.300000 1.690000
pair_coeff 32 32 10.000000 1.030000 1.339000
pair_coeff 32 33 10.000000 1.040000 1.352000
pair_coeff 32 34 10.000000 1.050000 1.365000
pair_coeff 32 35 10.000000 1.060000 1.378000
pair_coeff 32 36 10.000000 1.070000 1.391000
pair_coeff 32 37 10.000000 1.080000 1.404000
pair_coeff 32 38 10.000000 1.090000 1.417000
pair_coeff 32 39 10.000000 1.100000 1.430000
pair_coeff 32 40 10.000000 1.110000 1.443000
pair_coeff 32 41 10.000000 1.120000 1.456000
pair_coeff 32 42 10.000000 1.130000 1.469000
pair_coeff 32 43 10.000000 1.140000 1.482000
pair_coeff 32 44 10.000000 1.150000 1.495000
pair_coeff 32 45 10.000000 1.160000 1.508000
pair_coeff 32 46 10.000000 1.170000 1.521000
pair_coeff 32 47 10.000000 1.180000 1.534000
pair_coeff 32 48 10.000000 1.190000 1.547000
pair_coeff 32 49 10.000000 1.200000 1.560000
pair_coeff 32 50 10.000000 1.210000 1.573000
pair_coeff 32 51 10.000000 1.220000 1.586000
pair_coeff 32 52 10.000000 1.230000 1.599000
pair_coeff 32 53 10.000000 1.240000 1.612000
pair_coeff 32 54 10.000000 1.250000 1.625000
pair_coeff 32 55 10.000000 1.260000 1.638000
pair_coeff 32 56 10.000000 1.270000 1.651000
pair_coeff 32 57 10.000000 1.280000 1.664000
pair_coeff 32 58 10.000000 1.290000 1.677000
pair_coeff 32 59 10.000000 1.300000 1.690000
pair_coeff 32 60 10.000000 1.310000 1.703000
pair_coeff 33 33 10.000000 1.050000 1.365000
pair_coeff 33 34 10.000000 1.060000 1.378000
pair_coeff 33 35 10.000000 1.070000 1.391000
pair_coeff 33 36 10.000000 1.080000 1.404000
pair_coeff 33 37 10.000000 1.090000 1.417000
pair_coeff 33 38 10.000000 1.100000 1.430000
pair_coeff 33 39 10.000000 1.110000 1.443000
pair_coeff 33 40 10.000000 1.120000 1.456000
pair_coeff 33 41 10.000000 1.130000 1.469000
pair_coeff 33 42 10.000000 1.140000 1.482000
pair_coeff 33 43 10.000000 1.150000 1.495000
pair_coeff 33 44 10.000000 1.160000 1.508000
pair_coeff 33 45 10.000000 1.170000 1.521000
pair_coeff 33 46 10.000000 1.180000 1.534000
pair_coeff 33 47 10.000000 1.190000 1.547000
pair_coeff 33 48 10.000000 1.200000 1.560000
pair_coeff 33 49 10.000000 1.210000 1.573000
pair_coeff 33 50 10.000000 1.220000 1.586000
pair_coeff 33 51 10.000000 1.230000 1.599000
pair_coeff 33 52 10.000000 1.240000 1.612000
pair_coeff 33 53 10.000000 1.250000 1.625000
pair_coeff 33 54 10.000000 1.260000 1.638000
pair_coeff 33 55 10.000000 1.270000 1.651000
pair_coeff 33 56 10.000000 1.280000 1.664000
pair_coeff 33 57 10.000000 1.290000 1.677000
pair_coeff 33 58 10.000000 1.300000 1.690000
pair_coeff 33 59 10.000000 1.310000 1.703000
pair_coeff 33 60 10.000000 1.320000 1.716000
pair_coeff 34 34 10.000000 1.070000 1.391000
pair_coeff 34 35 10.000000 1.080000 1.404000
pair_coeff 34 36 10.000000 1.090000 1.417000
pair_coeff 34 37 10.000000 1.100000 1.430000
pair_coeff 34 38 10.000000 1.110000 1.443000
pair_coeff 34 39 10.000000 1.120000 1.456000
pair_coeff 34 40 10.000000 1.130000 1.469000
pair_coeff 34 41 10.000000 1.140000 1.482000
pair_coeff 34 42 10.000000 1.150000 1.495000
pair_coeff 34 43 10.000000 1.160000 1.508000
pair_coeff 34 44 10.000000 1.170000 1.521000
pair_coeff 34 45 10.000000 1.180000 1.534000
pair_coeff 34 46 10.000000 1.190000 1.547000
pair_coeff 34 47 10.000000 1.200000 1.560000
pair_coeff 34 48 10.000000 1.210000 1.573000
pair_coeff 34 49 10.000000 1.220000 1.586000
pair_coeff 34 50 10.000000 1.230000 1.599000
pair_coeff 34 51 10.000000 1.240000 1.612000
pair_coeff 34 52 10.000000 1.250000 1.625000
pair_coeff 34 53 10.000000 1.260000 1.638000
pair_coeff 34 54 10.000000 1.270000 1.651000
pair_coeff 34 55 10.000000 1.280000 1.664000
pair_coeff 34 56 10.000000 1.290000 1.677000
pair_coeff 34 57 10.000000 1.300000 1.690000
pair_coeff 34 58 10.000000 1.310000 1.703000
pair_coeff 34 59 10.000000 1.320000 1.716000
pair_coeff 34 60 10.000000 1.330000 1.729000
pair_coeff 35 35 10.000000 1.090000 1.417000
pair_coeff 35 36 10.000000 1.100000 1.430000
pair_coeff 35 37 10.000000 1.110000 1.443000
pair_coeff 35 38 10.000000 1.120000 1.456000
pair_coeff 35 39 10.000000 1.130000 1.469000
pair_coeff 35 40 10.000000 1.140000 1.482000
pair_coeff 35 41 10.000000 1.150000 1.495000
pair_coeff 35 42 10.000000 1.160000 1.508000
pair_coeff 35 43 10.000000 1.170000 1.521000
pair_coeff 35 44 10.000000 1.180000 1.534000
pair_coeff 35 45 10.000000 1.190000 1.547000
pair_coeff 35 46 10.000000 1.200000 1.560000
pair_coeff 35 47 10.000000 1.210000 1.573000
pair_coeff 35 48 10.000000 1.220000 1.586000
pair_coeff 35 49 10.000000 1.230000 1.599000
pair_coeff 35 50 10.000000 1.240000 1.612000
pair_coeff 35 51 10.000000 1.250000 1.625000
pair_coeff 35 52 10.000000 1.260000 1.638000
pair_coeff 35 53 10.000000 1.270000 1.651000
pair_coeff 35 54 10.000000 1.280000 1.664000
pair_coeff 35 55 10.000000 1.290000 1.677000
pair_coeff 35 56 10.000000 1.300000 1.690000
pair_coeff 35 57 10.000000 1.310000 1.703000
pair_coeff 35 58 10.000000 1.320000 1.716000
pair_coeff 35 59 10.000000 1.330000 1.729000
pair_coeff 35 60 10.000000 1.340000 1.742000
pair_coeff 36 36 10.000000 1.110000 1.443000
pair_coeff 36 37 10.000000 1.120000 1.456000
pair_coeff 36 38 10.000000 1.130000 1.469000
pair_coeff 36 39 10.000000 1.140000 1.482000
pair_coeff 36 40 10.000000 1.150000 1.495000
pair_coeff 36 41 10.000000 1.160000 1.508000
pair_coeff 36 42 10.000000 1.170000 1.521000
pair_coeff 36 43 10.000000 1.180000 1.534000
pair_coeff 36 44 10.000000 1.190000 1.547000
pair_coeff 36 45 10.000000 1.200000 1.560000
pair_coeff 36 46 10.000000 1.210000 1.573000
pair_coeff 36 47 10.000000 1.220000 1.586000
pair_coeff 36 48 10.000000 1.230000 1.599000
pair_coeff 36 49 10.000000 1.240000 1.612000
pair_coeff 36 50 10.000000 1.250000 1.625000
pair_coeff 36 51 10.000000 1.260000 1.638000
pair_coeff 36 52 10.000000 1.270000 1.651000
pair_coeff 36 53 10.000000 1.280000 1.664000
pair_coeff 36 54 10.000000 1.290000 1.677000
pair_coeff 36 55 10.000000 1.300000 1.690000
pair_coeff 36 56 10.000000 1.310000 1.703000
pair_coeff 36 57 10.000000 1.320000 1.716000
pair_coeff 36 58 10.000000 1.330000 1.729000
pair_coeff 36 59 10.000000 1.340000 1.742000
pair_coeff 36 60 10.000000 1.350000 1.755000
pair_coeff 37 37 10.000000 1.130000 1.469000
pair_coeff 37 38 10.000000 1.140000 1.482000
pair_coeff 37 39 10.000000 1.150000 1.495000
pair_coeff 37 40 10.000000 1.160000 1.508000
pair_coeff 37 41 10.000000 1.170000 1.521000
pair_coeff 37 42 10.000000 1.180000 1.534000
pair_coeff 37 43 10.000000 1.190000 1.547000
pair_coeff 37 44 10.000000 1.200000 1.560000
pair_coeff 37 45 10.000000 1.210000 1.573000
pair_coeff 37 46 10.000000 1.220000 1.586000
pair_coeff 37 47 10.000000 1.230000 1.599000
pair_coeff 37 48 10.000000 1.240000 1.612000
pair_coeff 37 49 10.000000 1.250000 1.625000
pair_coeff 37 50 10.000000 1.260000 1.638000
pair_coeff 37 51 10.000000 1.270000 1.651000
pair_coeff 37 52 10.000000 1.280000 1.664000
pair_coeff 37 53 10.000000 1.290000 1.677000
pair_coeff 37 54 10.000000 1.300000 1.690000
pair_coeff 37 55 10.000000 1.310000 1.703000
pair_coeff 37 56 10.000000 1.320000 1.716000
pair_coeff 37 57 10.000000 1.330000 1.729000
pair_coeff 37 58 10.000000 1.340000 1.742000
pair_coeff 37 59 10.000000 1.350000 1.755000
pair_coeff 37 60 10.000000 1.360000 1.768000
pair_coeff 38 38 10.000000 1.150000 1.495000
pair_coeff 38 39 10.000000 1.160000 1.508000
pair_coeff 38 40 10.000000 1.170000 1.521000
pair_coeff 38 41 10.000000 1.180000 1.534000
pair_coeff 38 42 10.000000 1.190000 1.547000
pair_coeff 38 43 10.000000 1.200000 1.560000
pair_coeff 38 44 10.000000 1.210000 1.573000
pair_coeff 38 45 10.000000 1.220000 1.586000
pair_coeff 38 46 10.000000 1.230000 1.599000
pair_coeff 38 47 10.000000 1.240000 1.612000
pair_coeff 38 48 10.000000 1.250000 1.625000
pair_coeff 38 49 10.000000 1.260000 1.638000
pair_coeff 38 50 10.000000 1.270000 1.651000
pair_coeff 38 51 10.000000 1.280000 1.664000
pair_coeff 38 52 10.000000 1.290000 1.677000
pair_coeff 38 53 10.000000 1.300000 1.690000
pair_coeff 38 54 10.000000 1.310000 1.703000
pair_coeff 38 55 10.000000 1.320000 1.716000
pair_coeff 38 56 10.000000 1.330000 1.729000
pair_coeff 38 57 10.000000 1.340000 1.742000
pair_coeff 38 58 10.000000 1.350000 1.755000
pair_coeff 38 59 10.000000 1.360000 1.768000
pair_coeff 38 60 10.000000 1.370000 1.781000
pair_coeff 39 39 10.000000 1.170000 1.521000
pair_coeff 39 40 10.000000 1.180000 1.534000
pair_coeff 39 41 10.000000 1.190000 1.547000
pair_coeff 39 42 10.000000 1.200000 1.560000
pair_coeff 39 43 10.000000 1.210000 1.573000
pair_coeff 39 44 10.000000 1.220000 1.586000
pair_coeff 39 45 10.000000 1.230000 1.599000
pair_coeff 39 46 10.000000 1.240000 1.612000
pair_coeff 39 47 10.000000 1.250000 1.625000
pair_coeff 39 48 10.000000 1.260000 1.638000
pair_coeff 39 49 10.000000 1.270000 1.651000
pair_coeff 39 50 10.000000 1.280000 1.664000
pair_coeff 39 51 10.000000 1.290000 1.677000
pair_coeff 39 52 10.000000 1.300000 1.690000
pair_coeff 39 53 10.000000 1.310000 1.703000
pair_coeff 39 54 10.000000 1.320000 1.716000
pair_coeff 39 55 10.000000 1.330000 1.729000
pair_coeff 39 56 10.000000 1.340000 1.742000
pair_coeff 39 57 10.000000 1.350000 1.755000
pair_coeff 39 58 10.000000 1.360000 1.768000
pair_coeff 39 59 10.000000 1.370000 1.781000
pair_coeff 39 60 10.000000 1.380000 1.794000
pair_coeff 40 40 10.000000 1.190000 1.547000
pair_coeff 40 41 10.000000 1.200000 1.560000
pair_coeff 40 42 10.000000 1.210000 1.573000
pair_coeff 40 43 10.000000 1.220000 1.586000
pair_coeff 40 44 10.000000 1.230000 1.599000
pair_coeff 40 45 10.000000 1.240000 1.612000
pair_coeff 40 46 10.000000 1.250000 1.625000
pair_coeff 40 47 10.000000 1.260000 1.638000
pair_coeff 40 48 10.000000 1.270000 1.651000
pair_coeff 40 49 10.000000 1.280000 1.664000
pair_coeff 40 50 10.000000 1.290000 1.677000
pair_coeff 40 51 10.000000 1.300000 1.690000
pair_coeff 40 52 10.000000 1.310000 1.703000
pair_coeff 40 53 10.000000 1.320000 1.716000
pair_coeff 40 54 10.000000 1.330000 1.729000
pair_coeff 40 55 10.000000 1.340000 1.742000
pair_coeff 40 56 10.000000 1.350000 1.755000
pair_coeff 40 57 10.000000 1.360000 1.768000
pair_coeff 40 58 10.000000 1.370000 1.781000
pair_coeff 40 59 10.000000 1.380000 1.794000
pair_coeff 40 60 10.000000 1.390000 1.807000
pair_coeff 41 41 10.000000 1.210000 1.573000
pair_coeff 41 42 10.000000 1.220000 1.586000
pair_coeff 41 43 10.000000 1.230000 1.599000
pair_coeff 41 44 10.000000 1.240000 1.612000
pair_coeff 41 45 10.000000 1.250000 1.625000
pair_coeff 41 46 10.000000 1.260000 1.638000
pair_coeff 41 47 10.000000 1.270000 1.651000
pair_coeff 41 48 10.000000 1.280000 1.664000
pair_coeff 41 49 10.000000 1.290000 1.677000
pair_coeff 41 50 10.000000 1.300000 1.690000
pair_coeff 41 51 10.000000 1.310000 1.703000
pair_coeff 41 52 10.000000 1.320000 1.716000
pair_coeff 41 53 10.000000 1.330000 1.729000
pair_coeff 41 54 10.000000 1.340000 1.742000
pair_coeff 41 55 10.000000 1.350000 1.755000
pair_coeff 41 56 10.000000 1.360000 1.768000
pair_coeff 41 57 10.000000 1.370000 1.781000
pair_coeff 41 58 10.000000 1.380000 1.794000
pair_coeff 41 59 10.000000 1.390000 1.807000
pair_coeff 41 60 10.000000 1.400000 1.820000
pair_coeff 42 42 10.000000 1.230000 1.599000
pair_coeff 42 43 10.000000 1.240000 1.612000
pair_coeff 42 44 10.000000 1.250000 1.625000
pair_coeff 42 45 10.000000 1.260000 1.638000
pair_coeff 42 46 10.000000 1.270000 1.651000
pair_coeff 42 47 10.000000 1.280000 1.664000
pair_coeff 42 48 10.000000 1.290000 1.677000
pair_coeff 42 49 10.000000 1.300000 1.690000
pair_coeff 42 50 10.000000 1.310000 1.703000
pair_coeff 42 51 10.000000 1.320000 1.716000
pair_coeff 42 52 10.000000 1.330000 1.729000
pair_coeff 42 53 10.000000 1.340000 1.742000
pair_coeff 42 54 10.000000 1.350000 1.755000
pair_coeff 42 55 10.000000 1.360000 1.768000
pair_coeff 42 56 10.000000 1.370000 1.781000
pair_coeff 42 57 10.000000 1.380000 1.794000
pair_coeff 42 58 10.000000 1.390000 1.807000
pair_coeff 42 59 10.000000 1.400000 1.820000
pair_coeff 42 60 10.000000 1.410000 1.833000
pair_coeff 43 43 10.000000 1.250000 1.625000
pair_coeff 43 44 10.000000 1.260000 1.638000
pair_coeff 43 45 10.000000 1.270000 1.651000
pair_coeff 43 46 10.000000 1.280000 1.664000
pair_coeff 43 47 10.000000 1.290000 1.677000
pair_coeff 43 48 10.000000 1.300000 1.690000
pair_coeff 43 49 10.000000 1.310000 1.703000
pair_coeff 43 50 10.000000 1.320000 1.716000
pair_coeff 43 51 10.000000 1.330000 1.729000
pair_coeff 43 52 10.000000 1.340000 1.742000
pair_coeff 43 53 10.000000 1.350000 1.755000
pair_coeff 43 54 10.000000 1.360000 1.768000
pair_coeff 43 55 10.000000 1.370000 1.781000
pair_coeff 43 56 10.000000 1.380000 1.794000
pair_coeff 43 57 10.000000 1.390000 1.807000
pair_coeff 43 58 10.000000 1.400000 1.820000
pair_coeff 43 59 10.000000 1.410000 1.833000
pair_coeff 43 60 10.000000 1.420000 1.846000
pair_coeff 44 44 10.000000 1.270000 1.651000
pair_coeff 44 45 10.000000 1.280000 1.664000
pair_coeff 44 46 10.000000 1.290000 1.677000
pair_coeff 44 47 10.000000 1.300000 1.690000
pair_coeff 44 48 10.000000 1.310000 1.703000
pair_coeff 44 49 10.000000 1.320000 1.716000
pair_coeff 44 50 10.000000 1.330000 1.729000
pair_coeff 44 51 10.000000 1.340000 1.742000
pair_coeff 44 52 10.000000 1.350000 1.755000
pair_coeff 44 53 10.000000 1.360000 1.768000
pair_coeff 44 54 10.000000 1.370000 1.781000
pair_coeff 44 55 10.000000 1.380000 1.794000
pair_coeff 44 56 10.000000 1.390000 1.807000
pair_coeff 44 57 10.000000 1.400000 1.820000
pair_coeff 44 58 10.000000 1.410000 1.833000
pair_coeff 44 59 10.000000 1.420000 1.846000
pair_coeff 44 60 10.000000 1.430000 1.859000
pair_coeff 45 45 10.000000 1.290000 1.677000
pair_coeff 45 46 10.000000 1.300000 1.690000
pair_coeff 45 47 10.000000 1.310000 1.703000
pair_coeff 45 48 10.000000 1.320000 1.716000
pair_coeff 45 49 10.000000 1.330000 1.729000
pair_coeff 45 50 10.000000 1.340000 1.742000
pair_coeff 45 51 10.000000 1.350000 1.755000
pair_coeff 45 52 10.000000 1.360000 1.768000
pair_coeff 45 53 10.000000 1.370000 1.781000
pair_coeff 45 54 10.000000 1.380000 1.794000
pair_coeff 45 55 10.000000 1.390000 1.807000
pair_coeff 45 56 10.000000 1.400000 1.820000
pair_coeff 45 57 10.000000 1.410000 1.833000
pair_coeff 45 58 10.000000 1.420000 1.846000
pair_coeff 45 59 10.000000 1.430000 1.859000
pair_coeff 45 60 10.000000 1.440000 1.872000
pair_coeff 46 46 10.000000 1.310000 1.703000
pair_coeff 46 47 10.000000 1.320000 1.716000
pair_coeff 46 48 10.000000 1.330000 1.729000
pair_coeff 46 49 10.000000 1.340000 1.742000
pair_coeff 46 50 10.000000 1.350000 1.755000
pair_coeff 46 51 10.000000 1.360000 1.768000
pair_coeff 46 52 10.000000 1.370000 1.781000
pair_coeff 46 53 10.000000 1.380000 1.794000
pair_coeff 46 54 10.000000 1.390000 1.807000
pair_coeff 46 55 10.000000 1.400000 1.820000
pair_coeff 46 56 10.000000 1.410000 1.833000
pair_coeff 46 57 10.000000 1.420000 1.846000
pair_coeff 46 58 10.000000 1.430000 1.859000
pair_coeff 46 59 10.000000 1.440000 1.872000
pair_coeff 46 60 10.000000 1.450000 1.885000
pair_coeff 47 47 10.000000 1.330000 1.729000
pair_coeff 47 48 10.000000 1.340000 1.742000
pair_coeff 47 49 10.000000 1.350000 1.755000
pair_coeff 47 50 10.000000 1.360000 1.768000
pair_coeff 47 51 10.000000 1.370000 1.781000
pair_coeff 47 52 10.000000 1.380000 1.794000
pair_coeff 47 53 10.000000 1.390000 1.807000
pair_coeff 47 54 10.000000 1.400000 1.820000
pair_coeff 47 55 10.000000 1.410000 1.833000
pair_coeff 47 56 10.000000 1.420000 1.846000
pair_coeff 47 57 10.000000 1.430000 1.859000
pair_coeff 47 58 10.000000 1.440000 1.872000
pair_coeff 47 59 10.000000 1.450000 1.885000
pair_coeff 47 60 10.000000 1.460000 1.898000
pair_coeff 48 48 10.000000 1.350000 1.755000
pair_coeff 48 49 10.000000 1.360000 1.768000
pair_coeff 48 50 10.000000 1.370000 1.781000
pair_coeff 48 51 10.000000 1.380000 1.794000
pair_coeff 48 52 10.000000 1.390000 1.807000
pair_coeff 48 53 10.000000 1.400000 1.820000
pair_coeff 48 54 10.000000 1.410000 1.833000
pair_coeff 48 55 10.000000 1.420000 1.846000
pair_coeff 48 56 10.000000 1.430000 1.859000
pair_coeff 48 57 10.000000 1.440000 1.872000
pair_coeff 48 58 10.000000 1.450000 1.885000
pair_coeff 48 59 10.000000 1.460000 1.898000
pair_coeff 48 60 10.000000 1.470000 1.911000
pair_coeff 49 49 10.000000 1.370000 1.781000
pair_coeff 49 50 10.000000 1.380000 1.794000
pair_coeff 49 51 10.000000 1.390000 1.807000
pair_coeff 49 52 10.000000 1.400000 1.820000
pair_coeff 49 53 10.000000 1.410000 1.833000
pair_coeff 49 54 10.000000 1.420000 1.846000
pair_coeff 49 55 10.000000 1.430000 1.859000
pair_coeff 49 56 10.000000 1.440000 1.872000
pair_coeff 49 57 10.000000 1.450000 1.885000
pair_coeff 49 58 10.000000 1.460000 1.898000
pair_coeff 49 59 10.000000 1.470000 1.911000
pair_coeff 49 60 10.000000 1.480000 1.924000
pair_coeff 50 50 10.000000 1.390000 1.807000
pair_coeff 50 51 10.000000 1.400000 1.820000
pair_coeff 50 52 10.000000 1.410000 1.833000
pair_coeff 50 53 10.000000 1.420000 1.846000
pair_coeff 50 54 10.000000 1.430000 1.859000
pair_coeff 50 55 10.000000 1.440000 1.872000
pair_coeff 50 56 10.000000 1.450000 1.885000
pair_coeff 50 57 10.000000 1.460000 1.898000
pair_coeff 50 58 10.000000 1.470000 1.911000
pair_coeff 50 59 10.000000 1.480000 1.924000
pair_coeff 50 60 10.000000 1.490000 1.937000
pair_coeff 51 51 10.000000 1.410000 1.833000
pair_coeff 51 52 10.000000 1.420000 1.846000
pair_coeff 51 53 10.000000 1.430000 1.859000
pair_coeff 51 54 10.000000 1.440000 1.872000
pair_coeff 51 55 10.000000 1.450000 1.885000
pair_coeff 51 56 10.000000 1.460000 1.898000
pair_coeff 51 57 10.000000 1.470000 1.911000
pair_coeff 51 58 10.000000 1.480000 1.924000
pair_coeff 51 59 10.000000 1.490000 1.937000
pair_coeff 51 60 10.000000 1.500000 1.950000
pair_coeff 52 52 10.000000 1.430000 1.859000
pair_coeff 52 53 10.000000 1.440000 1.872000
pair_coeff 52 54 10.000000 1.450000 1.885000
pair_coeff 52 55 10.000000 1.460000 1.898000
pair_coeff 52 56 10.000000 1.470000 1.911000
pair_coeff 52 57 10.000000 1.480000 1.924000
pair_coeff 52 58 10.000000 1.490000 1.937000
pair_coeff 52 59 10.000000 1.500000 1.950000
pair_coeff 52 60 10.000000 1.510000 1.963000
pair_coeff 53 53 10.000000 1.450000 1.885000
pair_coeff 53 54 10.000000 1.460000 1.898000
pair_coeff 53 55 10.000000 1.470000 1.911000
pair_coeff 53 56 10.000000 1.480000 1.924000
pair_coeff 53 57 10.000000 1.490000 1.937000
pair_coeff 53 58 10.000000 1.500000 1.950000
pair_coeff 53 59 10.000000 1.510000 1.963000
pair_coeff 53 60 10.000000 1.520000 1.976000
pair_coeff 54 54 10.000000 1.470000 1.911000
pair_coeff 54 55 10.000000 1.480000 1.924000
pair_coeff 54 56 10.000000 1.490000 1.937000
pair_coeff 54 57 10.000000 1.500000 1.950000
pair_coeff 54 58 10.000000 1.510000 1.963000
pair_coeff 54 59 10.000000 1.520000 1.976000
pair_coeff 54 60 10.000000 1.530000 1.989000
pair_coeff 55 55 10.000000 1.490000 1.937000
pair_coeff 55 56 10.000000 1.500000 1.950000
pair_coeff 55 57 10.000000 1.510000 1.963000
pair_coeff 55 58 10.000000 1.520000 1.976000
pair_coeff 55 59 10.000000 1.530000 1.989000
pair_coeff 55 60 10.000000 1.540000 2.002000
pair_coeff 56 56 10.000000 1.510000 1.963000
pair_coeff 56 57 10.000000 1.520000 1.976000
pair_coeff 56 58 10.000000 1.530000 1.989000
pair_coeff 56 59 10.000000 1.540000 2.002000
pair_coeff 56 60 10.000000 1.550000 2.015000
pair_coeff 57 57 10.000000 1.530000 1.989000
pair_coeff 57 58 10.000000 1.540000 2.002000
pair_coeff 57 59 10.000000 1.550000 2.015000
pair_coeff 57 60 10.000000 1.560000 2.028000
pair_coeff 58 58 10.000000 1.550000 2.015000
pair_coeff 58 59 10.000000 1.560000 2.028000
pair_coeff 58 60 10.000000 1.570000 2.041000
pair_coeff 59 59 10.000000 1.570000 2.041000
pair_coeff 59 60 10.000000 1.580000 2.054000
pair_coeff 60 60 10.000000 1.590000 2.067000

# Keep the same thermostat and integrator fixes (1, 2, 3 are still active)

thermo 10000
thermo_style custom step temp epair press pxx pyy vol
timestep 0.01
run 50000   # 500 time units
Per MPI rank memory allocation (min/avg/max) = 3.989 | 3.989 | 3.989 Mbytes
Step Temp E_pair Press Pxx Pyy Volume 
 2250000   0.96181249    5.6581311    410.23655    417.80621    402.66689    900.50755 
ERROR: Lost atoms: original 1000 current 1 (src/thermo.cpp:438)
Last command: run 50000   # 500 time units
