ITEM: TIMESTEP
1250000
ITEM: NUMBER OF ATOMS
1000
ITEM: BOX BOUNDS pp pp pp
-1.6549136000000001e+01 1.6549136000000001e+01
-1.6549136000000001e+01 1.6549136000000001e+01
-5.0000000000000000e-01 5.0000000000000000e-01
ITEM: ATOMS id type xs ys zs
933 29 0.0250799 0.0266038 0.5
998 31 0.0587008 0.0244809 0.5
155 30 0.0403032 -0.00287886 0.5
987 34 0.0434515 0.0550673 0.5
298 37 0.0930608 0.0215668 0.5
67 30 0.127199 0.0194923 0.5
290 31 0.0762258 0.0526808 0.5
488 27 0.110575 0.0521729 0.5
490 31 0.159061 0.0162919 0.5
28 28 0.1738 0.0440867 0.5
498 30 0.14212 0.0487684 0.5
511 36 0.193801 0.0159382 0.5
469 35 0.22964 0.0164319 0.5
442 34 0.210766 0.0469709 0.5
181 31 0.248918 0.0430297 0.5
487 30 0.261495 0.0116796 0.5
54 29 0.283122 0.0369372 0.5
168 36 0.29684 0.00487149 0.5
753 32 0.318855 0.0334437 0.5
227 31 0.335212 0.00199995 0.5
934 26 0.349432 0.0283166 0.5
409 30 0.391686 0.0287011 0.5
374 34 0.369692 0.00214435 0.5
280 37 0.405486 -0.00232876 0.5
763 33 0.426595 0.0265958 0.5
31 24 0.457663 0.0266841 0.5
203 38 0.474791 -0.00413598 0.5
844 32 0.490406 0.0271874 0.5
682 35 0.526418 0.0253507 0.5
715 24 0.559883 0.0240598 0.5
390 32 0.546216 -0.00470887 0.5
178 24 0.577568 -0.00190792 0.5
107 30 0.591334 0.0315443 0.5
16 31 0.54252 0.0556669 0.5
798 34 0.627173 0.0319662 0.5
250 30 0.643003 0.0021312 0.5
926 33 0.60973 0.00236369 0.5
413 27 0.660133 0.0307238 0.5
57 32 0.692536 0.035108 0.5
499 21 0.673829 0.00451613 0.5
655 29 0.703945 0.00510444 0.5
591 27 0.726282 0.0333574 0.5
895 29 0.756931 0.0244883 0.5
749 28 0.734775 0.00253766 0.5
912 37 0.748273 0.0588718 0.5
744 33 0.786994 0.0395096 0.5
356 26 0.808283 0.0138901 0.5
208 31 0.780028 0.00233955 0.5
994 29 0.82063 0.0407524 0.5
677 37 0.85793 0.0371696 0.5
838 24 0.836983 0.0102552 0.5
528 33 0.878978 0.00888523 0.5
408 28 0.892803 0.0383599 0.5
397 32 0.924382 0.031572 0.5
34 31 0.911437 -0.000536911 0.5
350 19 0.942362 0.00628108 0.5
24 30 1.00634 -0.0038543 0.5
249 33 0.992723 0.0282507 0.5
589 25 0.96095 0.0312759 0.5
332 27 0.973094 -0.000342777 0.5
448 32 0.0290882 0.0857597 0.5
80 30 0.0620151 0.0840997 0.5
210 28 0.0102506 0.0573852 0.5
964 33 0.0956653 0.082269 0.5
367 28 0.0799405 0.11114 0.5
886 28 0.112924 0.109955 0.5
215 28 0.127977 0.0807395 0.5
216 40 0.16229 0.0780863 0.5
170 33 0.145888 0.11185 0.5
851 31 0.180919 0.106744 0.5
648 26 0.197145 0.0762596 0.5
846 33 0.23327 0.0730625 0.5
813 30 0.218468 0.10477 0.5
847 36 0.269088 0.0696633 0.5
823 29 0.287984 0.096846 0.5
325 32 0.304183 0.0637121 0.5
385 31 0.250042 0.10285 0.5
403 26 0.335462 0.0620809 0.5
274 28 0.319955 0.0932349 0.5
144 33 0.352525 0.0885098 0.5
389 38 0.369353 0.0565429 0.5
835 32 0.409283 0.0572272 0.5
414 34 0.390343 0.0855942 0.5
104 26 0.471118 0.0539679 0.5
900 26 0.441624 0.0554166 0.5
953 29 0.424368 0.0885639 0.5
871 29 0.457767 0.0826645 0.5
430 33 0.506713 0.0554849 0.5
769 29 0.489398 0.0874309 0.5
701 36 0.523874 0.0847162 0.5
845 28 0.578737 0.0611337 0.5
492 38 0.561154 0.0896564 0.5
788 33 0.595244 0.0914485 0.5
358 28 0.610941 0.0623229 0.5
445 34 0.645552 0.0618178 0.5
824 31 0.628948 0.091151 0.5
580 28 0.679309 0.064573 0.5
103 32 0.664435 0.0934463 0.5
485 34 0.698775 0.0923401 0.5
241 33 0.712569 0.0622239 0.5
307 32 0.733658 0.0916185 0.5
425 32 0.767395 0.0872718 0.5
571 41 0.802812 0.0733688 0.5
737 33 0.826247 0.100591 0.5
456 31 0.793728 0.109108 0.5
855 31 0.838815 0.0675464 0.5
857 38 0.86095 0.0957898 0.5
68 31 0.878668 0.0673761 0.5
379 27 0.911551 0.0653518 0.5
115 24 0.897683 0.0926352 0.5
644 30 0.928749 0.0926725 0.5
272 35 0.943901 0.059872 0.5
920 29 0.977523 0.057446 0.5
700 27 0.997403 0.0880155 0.5
939 36 0.962182 0.0893859 0.5
766 29 0.0485001 0.115392 0.5
770 39 0.0140907 0.117967 0.5
736 26 0.0362786 0.14364 0.5
596 28 0.0666811 0.140413 0.5
705 29 0.0532014 0.168906 0.5
762 32 0.0986268 0.140307 0.5
260 29 0.131599 0.144463 0.5
706 32 0.166778 0.138685 0.5
171 33 0.154602 0.170531 0.5
517 35 0.202451 0.135015 0.5
564 27 0.235349 0.133481 0.5
694 31 0.18687 0.167192 0.5
754 31 0.221152 0.163729 0.5
848 29 0.271073 0.125629 0.5
252 34 0.254307 0.160013 0.5
18 39 0.290442 0.153912 0.5
273 28 0.30451 0.121354 0.5
902 30 0.32619 0.149455 0.5
608 30 0.338783 0.119497 0.5
991 32 0.358159 0.145876 0.5
646 28 0.405783 0.115252 0.5
802 34 0.371829 0.11572 0.5
671 26 0.390794 0.146652 0.5
263 29 0.422374 0.14587 0.5
914 26 0.437168 0.116072 0.5
944 29 0.454173 0.14231 0.5
464 30 0.471675 0.114305 0.5
4 32 0.506627 0.114167 0.5
607 36 0.489139 0.143918 0.5
493 26 0.520973 0.144264 0.5
961 30 0.539225 0.11628 0.5
372 27 0.573509 0.121785 0.5
568 31 0.554185 0.147655 0.5
90 38 0.591066 0.151532 0.5
795 35 0.612066 0.121805 0.5
742 31 0.628472 0.152378 0.5
704 34 0.648041 0.122127 0.5
986 29 0.681401 0.123675 0.5
799 28 0.662209 0.151908 0.5
138 31 0.695038 0.153068 0.5
265 39 0.717184 0.124059 0.5
779 36 0.75485 0.119112 0.5
637 28 0.729027 0.156049 0.5
797 31 0.761255 0.153791 0.5
360 20 0.782622 0.13522 0.5
270 31 0.81538 0.132276 0.5
745 34 0.834072 0.160323 0.5
530 29 0.799921 0.159841 0.5
365 28 0.847033 0.127281 0.5
382 36 0.869299 0.154531 0.5
164 33 0.882462 0.123021 0.5
653 25 0.914089 0.120297 0.5
393 37 0.903281 0.152426 0.5
615 28 0.937816 0.152603 0.5
923 33 0.94555 0.120641 0.5
976 24 1.00181 0.14794 0.5
938 24 0.978661 0.11932 0.5
849 34 0.969808 0.149012 0.5
936 26 0.0223212 0.17008 0.5
614 29 0.0144612 0.200116 0.5
199 35 0.049637 0.203574 0.5
917 37 0.0863668 0.174659 0.5
574 23 0.0814989 0.20824 0.5
259 22 0.107962 0.206495 0.5
345 32 0.122322 0.177157 0.5
66 31 0.130298 0.231114 0.5
407 27 0.143347 0.201869 0.5
130 29 0.17415 0.197266 0.5
245 23 0.163606 0.228371 0.5
672 31 0.207215 0.193537 0.5
132 31 0.240503 0.191081 0.5
124 28 0.223004 0.223361 0.5
429 28 0.192724 0.223026 0.5
293 35 0.274328 0.187503 0.5
785 33 0.293352 0.215874 0.5
376 38 0.258306 0.21972 0.5
597 25 0.308429 0.18378 0.5
888 28 0.327472 0.206962 0.5
621 28 0.337596 0.177178 0.5
995 26 0.357908 0.204405 0.5
73 31 0.406273 0.17499 0.5
239 34 0.37253 0.174959 0.5
834 31 0.388507 0.204131 0.5
434 25 0.420736 0.202342 0.5
581 24 0.408931 0.227888 0.5
174 31 0.43895 0.173811 0.5
440 38 0.454182 0.205937 0.5
977 35 0.472734 0.176022 0.5
957 35 0.508049 0.174708 0.5
645 32 0.492272 0.204976 0.5
734 32 0.527463 0.207227 0.5
114 26 0.542132 0.176741 0.5
603 29 0.573598 0.183076 0.5
674 28 0.559894 0.21101 0.5
305 30 0.59284 0.209161 0.5
666 32 0.611717 0.180915 0.5
582 29 0.64425 0.18171 0.5
950 31 0.627951 0.210391 0.5
329 33 0.678439 0.181514 0.5
874 36 0.662085 0.211983 0.5
91 26 0.695406 0.211172 0.5
963 27 0.709163 0.181695 0.5
317 36 0.746527 0.184718 0.5
443 28 0.725539 0.212681 0.5
100 33 0.758875 0.216255 0.5
166 30 0.780145 0.185047 0.5
12 34 0.814997 0.187908 0.5
859 38 0.794643 0.219152 0.5
377 28 0.829774 0.218796 0.5
661 30 0.850128 0.19378 0.5
346 29 0.882022 0.187065 0.5
806 28 0.866763 0.22145 0.5
733 36 0.916491 0.186147 0.5
283 35 0.899691 0.218198 0.5
27 33 0.938496 0.21193 0.5
310 33 0.951859 0.181976 0.5
202 37 0.98943 0.178227 0.5
97 24 0.973314 0.207411 0.5
776 31 0.0314773 0.232529 0.5
901 36 0.0153263 0.263774 0.5
313 33 0.0512728 0.262493 0.5
2 29 0.0634844 0.232663 0.5
244 29 0.0977717 0.2342 0.5
233 28 0.0835842 0.265467 0.5
792 31 0.11559 0.263217 0.5
369 34 0.149155 0.257719 0.5
812 28 0.18378 0.256473 0.5
729 24 0.135677 0.288656 0.5
542 32 0.167143 0.287482 0.5
720 29 0.214938 0.255434 0.5
87 29 0.245513 0.251391 0.5
881 27 0.231901 0.282545 0.5
935 26 0.20176 0.284745 0.5
427 31 0.279234 0.247555 0.5
856 28 0.297816 0.273076 0.5
179 31 0.265117 0.277513 0.5
120 30 0.313986 0.240551 0.5
756 29 0.331951 0.266304 0.5
664 31 0.347355 0.235226 0.5
169 23 0.380644 0.233866 0.5
105 31 0.369862 0.263788 0.5
707 43 0.407197 0.261833 0.5
794 31 0.387508 0.292584 0.5
368 32 0.436647 0.238803 0.5
175 41 0.452973 0.271788 0.5
497 32 0.474055 0.236696 0.5
587 35 0.508805 0.235228 0.5
384 40 0.491022 0.267021 0.5
251 31 0.525942 0.268575 0.5
491 30 0.542095 0.238991 0.5
457 36 0.576027 0.240699 0.5
476 23 0.556792 0.268325 0.5
112 26 0.586049 0.272318 0.5
508 28 0.609257 0.236233 0.5
566 31 0.641218 0.240718 0.5
452 33 0.618635 0.268907 0.5
44 33 0.658058 0.27058 0.5
832 39 0.704912 0.243365 0.5
988 21 0.671744 0.243632 0.5
761 29 0.69141 0.276283 0.5
416 33 0.73969 0.24375 0.5
540 34 0.724945 0.276704 0.5
892 24 0.756835 0.272983 0.5
165 24 0.773724 0.243441 0.5
353 29 0.787089 0.269348 0.5
611 35 0.815934 0.247836 0.5
829 26 0.818116 0.280782 0.5
879 33 0.850997 0.250031 0.5
156 26 0.876252 0.278176 0.5
803 31 0.883625 0.248445 0.5
177 25 0.84722 0.281305 0.5
698 23 0.924071 0.24231 0.5
375 30 0.90768 0.270115 0.5
983 31 0.941744 0.26815 0.5
618 35 0.997352 0.229985 0.5
652 39 0.961595 0.238785 0.5
716 30 0.981145 0.267214 0.5
723 29 0.0332113 0.292781 0.5
512 31 0.0150313 0.325866 0.5
781 29 0.0465458 0.323281 0.5
662 32 0.0654145 0.294295 0.5
787 27 0.0632793 0.348616 0.5
548 35 0.0994939 0.295511 0.5
686 30 0.0802396 0.32315 0.5
532 29 0.127696 0.317235 0.5
751 25 0.156821 0.318107 0.5
555 30 0.175208 0.344463 0.5
84 28 0.143488 0.344525 0.5
837 32 0.187874 0.313284 0.5
140 30 0.220354 0.310458 0.5
815 30 0.239331 0.338452 0.5
628 31 0.206162 0.342743 0.5
966 26 0.251889 0.306544 0.5
458 35 0.272534 0.331467 0.5
673 28 0.286161 0.30081 0.5
885 26 0.304877 0.329171 0.5
400 34 0.319487 0.297345 0.5
96 30 0.338207 0.325275 0.5
841 31 0.352606 0.29507 0.5
651 25 0.32371 0.353879 0.5
201 33 0.374451 0.322355 0.5
36 36 0.409884 0.321662 0.5
232 28 0.425452 0.292707 0.5
620 28 0.475963 0.2986 0.5
665 39 0.449399 0.319792 0.5
658 35 0.485809 0.329785 0.5
72 26 0.508618 0.295948 0.5
348 28 0.518169 0.323954 0.5
424 24 0.53816 0.297119 0.5
821 27 0.569881 0.297505 0.5
740 33 0.551722 0.323984 0.5
531 27 0.584354 0.327454 0.5
21 31 0.637848 0.29776 0.5
121 32 0.602381 0.299277 0.5
128 31 0.617158 0.329673 0.5
402 36 0.651009 0.329664 0.5
225 34 0.672385 0.301574 0.5
952 33 0.685541 0.334101 0.5
176 32 0.706824 0.307541 0.5
478 29 0.719868 0.337738 0.5
6 17 0.735781 0.30517 0.5
363 26 0.76281 0.301672 0.5
217 32 0.751684 0.334104 0.5
418 33 0.795247 0.302036 0.5
578 29 0.818424 0.337497 0.5
141 32 0.831333 0.308185 0.5
529 29 0.784348 0.333631 0.5
39 27 0.864827 0.308841 0.5
519 25 0.84851 0.334401 0.5
438 28 0.881594 0.334779 0.5
544 28 0.895319 0.306352 0.5
557 36 0.928377 0.299827 0.5
632 30 0.913412 0.331754 0.5
545 37 0.949722 0.326566 0.5
288 35 0.999564 0.296027 0.5
41 31 0.962764 0.293547 0.5
480 27 0.983404 0.325138 0.5
428 28 0.0326453 0.351384 0.5
188 31 0.0164975 0.380296 0.5
196 31 0.0499341 0.377517 0.5
135 29 0.0360676 0.406928 0.5
187 33 0.0688791 0.404617 0.5
326 41 0.108068 0.34732 0.5
95 32 0.0832107 0.373474 0.5
962 43 0.108648 0.399346 0.5
971 22 0.132073 0.3725 0.5
967 25 0.160124 0.374994 0.5
951 30 0.145995 0.401242 0.5
750 32 0.178735 0.400684 0.5
616 30 0.192209 0.371476 0.5
636 24 0.226331 0.367028 0.5
897 31 0.214929 0.396982 0.5
361 32 0.261863 0.364003 0.5
556 29 0.294487 0.357653 0.5
405 29 0.245879 0.391554 0.5
786 37 0.282129 0.392918 0.5
668 24 0.312265 0.381591 0.5
690 27 0.343946 0.381058 0.5
728 33 0.357308 0.351603 0.5
331 27 0.328739 0.406771 0.5
77 22 0.359003 0.405837 0.5
357 35 0.391611 0.35223 0.5
92 28 0.375458 0.38139 0.5
506 36 0.411739 0.381207 0.5
133 31 0.429324 0.351375 0.5
333 30 0.462028 0.351494 0.5
296 30 0.445608 0.379897 0.5
949 33 0.478615 0.384528 0.5
864 26 0.498015 0.35878 0.5
626 34 0.513558 0.388241 0.5
349 39 0.531891 0.356105 0.5
101 28 0.565677 0.354658 0.5
309 33 0.548405 0.390152 0.5
324 37 0.582856 0.385775 0.5
426 24 0.595075 0.355496 0.5
500 39 0.632752 0.361266 0.5
383 34 0.616226 0.392295 0.5
17 27 0.649684 0.389881 0.5
887 32 0.666979 0.361685 0.5
157 32 0.684005 0.390257 0.5
94 26 0.698964 0.361541 0.5
85 24 0.712347 0.399644 0.5
277 27 0.729016 0.368658 0.5
521 32 0.761033 0.366885 0.5
421 33 0.743645 0.396219 0.5
679 40 0.797658 0.364886 0.5
974 27 0.833304 0.365101 0.5
136 36 0.779348 0.396805 0.5
625 32 0.815015 0.396214 0.5
294 30 0.865432 0.362965 0.5
364 32 0.849763 0.393544 0.5
911 29 0.883286 0.391207 0.5
606 33 0.89966 0.362306 0.5
533 34 0.918753 0.391926 0.5
191 36 0.935673 0.360461 0.5
343 33 0.955016 0.39019 0.5
807 24 1.00145 0.353476 0.5
959 28 0.969042 0.353779 0.5
818 26 0.985306 0.379213 0.5
822 34 0.999327 0.408915 0.5
503 36 0.0227311 0.437468 0.5
696 28 0.0587221 0.436879 0.5
869 32 0.044051 0.465679 0.5
336 35 0.0930339 0.43349 0.5
713 36 0.113594 0.462126 0.5
575 32 0.0769313 0.464706 0.5
929 33 0.129143 0.431377 0.5
111 29 0.162926 0.429504 0.5
422 30 0.149104 0.459262 0.5
26 38 0.182225 0.455354 0.5
8 26 0.200714 0.426492 0.5
882 35 0.236626 0.424218 0.5
586 40 0.21849 0.456894 0.5
534 33 0.270639 0.426854 0.5
51 31 0.304984 0.429134 0.5
687 32 0.253885 0.458074 0.5
162 31 0.286887 0.458146 0.5
709 30 0.341411 0.434144 0.5
234 33 0.321802 0.460232 0.5
826 30 0.356349 0.465761 0.5
702 28 0.392886 0.407587 0.5
563 35 0.374226 0.434425 0.5
7 34 0.410137 0.436146 0.5
875 33 0.43094 0.410357 0.5
765 25 0.463074 0.412751 0.5
275 32 0.445972 0.441254 0.5
412 29 0.479148 0.442467 0.5
228 28 0.496247 0.416598 0.5
303 29 0.511818 0.444372 0.5
893 30 0.529069 0.418091 0.5
688 27 0.548491 0.443729 0.5
692 28 0.565616 0.418387 0.5
730 31 0.582535 0.446546 0.5
306 28 0.597728 0.418857 0.5
278 33 0.631056 0.421506 0.5
206 31 0.615293 0.449988 0.5
125 30 0.647627 0.450054 0.5
727 35 0.664836 0.418856 0.5
289 24 0.698227 0.425062 0.5
83 31 0.68147 0.451241 0.5
9 28 0.712211 0.451708 0.5
267 27 0.728052 0.425508 0.5
431 31 0.759603 0.425956 0.5
590 26 0.743565 0.4518 0.5
264 31 0.800914 0.426124 0.5
282 28 0.7792 0.451667 0.5
980 28 0.818627 0.453009 0.5
471 25 0.832608 0.423115 0.5
553 32 0.864591 0.42279 0.5
760 27 0.849578 0.450893 0.5
784 28 0.882005 0.450191 0.5
968 36 0.900045 0.421012 0.5
999 35 0.918398 0.450851 0.5
47 31 0.938254 0.419756 0.5
381 32 0.956808 0.446249 0.5
585 32 0.990391 0.441519 0.5
973 23 0.970107 0.417231 0.5
862 26 1.01171 0.470076 0.5
916 26 0.0273577 0.495157 0.5
906 37 0.0599797 0.496224 0.5
600 35 0.0967654 0.492799 0.5
748 34 0.0810379 0.52338 0.5
359 33 0.115492 0.521129 0.5
789 28 0.131499 0.491863 0.5
790 32 0.163838 0.487871 0.5
60 27 0.183973 0.515958 0.5
190 38 0.150679 0.519654 0.5
791 27 0.197944 0.485592 0.5
441 30 0.215526 0.512497 0.5
680 29 0.233864 0.48721 0.5
972 29 0.272438 0.486276 0.5
154 29 0.304207 0.488898 0.5
631 30 0.254382 0.512117 0.5
925 24 0.286344 0.51513 0.5
764 36 0.339038 0.493935 0.5
985 26 0.316482 0.517719 0.5
472 27 0.358568 0.522314 0.5
948 35 0.392085 0.465945 0.5
541 32 0.374305 0.493945 0.5
29 29 0.407297 0.495019 0.5
693 29 0.390499 0.523047 0.5
446 29 0.426737 0.46932 0.5
486 36 0.460862 0.47329 0.5
958 24 0.438663 0.498418 0.5
126 31 0.476612 0.50182 0.5
65 31 0.526961 0.473684 0.5
593 26 0.495316 0.47354 0.5
406 30 0.509201 0.500414 0.5
814 31 0.54191 0.503326 0.5
767 38 0.562309 0.474994 0.5
595 34 0.575742 0.506566 0.5
549 30 0.597494 0.48084 0.5
866 29 0.629802 0.479047 0.5
79 36 0.642959 0.509164 0.5
404 31 0.608713 0.512543 0.5
619 32 0.66258 0.478384 0.5
1000 35 0.677659 0.50786 0.5
118 27 0.69421 0.478608 0.5
46 33 0.712211 0.507353 0.5
70 28 0.72812 0.47888 0.5
772 32 0.745165 0.509009 0.5
910 30 0.760522 0.478789 0.5
137 33 0.797781 0.480057 0.5
318 34 0.778858 0.508721 0.5
711 34 0.814996 0.510187 0.5
338 29 0.833147 0.483144 0.5
867 36 0.868485 0.480379 0.5
295 33 0.849769 0.511648 0.5
35 36 0.883454 0.513551 0.5
612 28 0.905971 0.483891 0.5
601 31 0.918274 0.513319 0.5
93 40 0.940314 0.4805 0.5
341 26 0.997033 0.501832 0.5
960 38 0.978878 0.474677 0.5
778 25 0.964291 0.506726 0.5
793 29 0.0491121 0.528524 0.5
119 29 0.0160115 0.524024 0.5
633 30 0.0318503 0.555139 0.5
725 37 0.0687033 0.557681 0.5
450 25 0.100192 0.551622 0.5
468 28 0.116802 0.579132 0.5
465 28 0.129808 0.551404 0.5
854 28 0.167026 0.549584 0.5
460 34 0.150087 0.579312 0.5
913 29 0.183067 0.577522 0.5
641 30 0.198429 0.545345 0.5
872 37 0.234662 0.541784 0.5
447 36 0.216685 0.574033 0.5
186 31 0.269455 0.541437 0.5
524 33 0.302146 0.544715 0.5
127 24 0.250862 0.572461 0.5
804 29 0.285147 0.572603 0.5
965 30 0.336295 0.544262 0.5
410 38 0.320553 0.576117 0.5
942 26 0.35196 0.583257 0.5
40 38 0.371964 0.554975 0.5
526 30 0.407839 0.558998 0.5
20 34 0.423792 0.52739 0.5
62 29 0.456161 0.528403 0.5
266 34 0.441564 0.558611 0.5
470 30 0.474599 0.564644 0.5
504 37 0.490452 0.533392 0.5
394 30 0.508172 0.563893 0.5
411 31 0.525438 0.534208 0.5
25 32 0.540402 0.566672 0.5
481 30 0.558433 0.537108 0.5
432 29 0.5734 0.567345 0.5
915 27 0.588192 0.538119 0.5
479 22 0.627482 0.538237 0.5
323 30 0.610092 0.562118 0.5
805 28 0.644937 0.569415 0.5
522 35 0.659532 0.539973 0.5
43 34 0.694512 0.537557 0.5
281 26 0.714495 0.565274 0.5
691 37 0.679979 0.571106 0.5
23 28 0.729301 0.536745 0.5
322 24 0.745265 0.563758 0.5
981 30 0.761387 0.53781 0.5
683 33 0.796185 0.54007 0.5
474 28 0.830386 0.542731 0.5
816 32 0.776404 0.567161 0.5
49 28 0.81149 0.568358 0.5
319 30 0.865095 0.542078 0.5
584 26 0.843591 0.570861 0.5
918 38 0.877278 0.574139 0.5
276 34 0.900561 0.546264 0.5
271 30 0.929498 0.55847 0.5
726 30 0.947539 0.532096 0.5
777 27 0.985304 0.528459 0.5
269 31 0.99935 0.555727 0.5
861 34 0.965579 0.561874 0.5
477 31 0.0496932 0.586892 0.5
868 37 0.0343841 0.619181 0.5
212 26 0.0668842 0.616809 0.5
109 40 0.0148336 0.587429 0.5
22 33 0.0834602 0.589164 0.5
401 26 0.0979045 0.616876 0.5
827 39 0.11902 0.643326 0.5
151 36 0.131125 0.60937 0.5
550 26 0.170903 0.606282 0.5
617 33 0.18497 0.635161 0.5
439 28 0.152523 0.635276 0.5
344 23 0.199516 0.605865 0.5
833 32 0.232194 0.604443 0.5
475 27 0.218062 0.632137 0.5
543 33 0.265587 0.600961 0.5
423 33 0.298961 0.603487 0.5
205 28 0.25048 0.631187 0.5
10 29 0.281359 0.631554 0.5
796 27 0.335252 0.607201 0.5
956 33 0.316167 0.632933 0.5
883 35 0.365565 0.613921 0.5
783 27 0.384002 0.586791 0.5
11 36 0.400825 0.616304 0.5
732 29 0.421541 0.587444 0.5
117 31 0.454114 0.590112 0.5
246 33 0.436063 0.617769 0.5
45 29 0.47039 0.619418 0.5
371 29 0.488956 0.593718 0.5
388 27 0.521545 0.593622 0.5
152 33 0.507212 0.622056 0.5
800 24 0.537587 0.619813 0.5
184 27 0.556349 0.59386 0.5
771 26 0.587953 0.594732 0.5
198 34 0.572327 0.622999 0.5
209 27 0.60444 0.625832 0.5
42 39 0.623149 0.596249 0.5
560 29 0.639094 0.627236 0.5
311 28 0.657475 0.598387 0.5
297 30 0.692522 0.602756 0.5
678 30 0.671397 0.628915 0.5
908 23 0.712682 0.625885 0.5
904 33 0.725706 0.596377 0.5
64 31 0.743526 0.625555 0.5
573 30 0.75874 0.595208 0.5
870 30 0.793578 0.594374 0.5
110 30 0.825857 0.597735 0.5
195 36 0.778724 0.624828 0.5
599 33 0.814531 0.630057 0.5
635 24 0.854584 0.602236 0.5
878 32 0.886003 0.610742 0.5
200 34 0.855617 0.636817 0.5
142 31 0.910519 0.584412 0.5
669 38 0.920683 0.619697 0.5
759 35 0.945476 0.590259 0.5
675 28 0.980428 0.59357 0.5
514 26 0.999236 0.617712 0.5
240 29 0.961091 0.618929 0.5
351 31 0.0307342 0.680444 0.5
398 36 0.049212 0.652397 0.5
969 29 0.0705685 0.677263 0.5
546 32 0.0131712 0.645522 0.5
495 32 0.082856 0.645444 0.5
684 26 0.100735 0.672466 0.5
342 38 0.13607 0.677067 0.5
204 33 0.170565 0.666506 0.5
1 27 0.157857 0.701833 0.5
714 29 0.202415 0.665157 0.5
610 30 0.234219 0.659885 0.5
624 25 0.18812 0.697652 0.5
722 33 0.223421 0.691732 0.5
594 33 0.268425 0.660529 0.5
928 32 0.288232 0.686295 0.5
116 24 0.299471 0.657721 0.5
970 24 0.255771 0.692489 0.5
300 35 0.349652 0.645916 0.5
129 35 0.327124 0.673502 0.5
82 33 0.369064 0.674718 0.5
86 30 0.383523 0.645044 0.5
32 23 0.403663 0.675141 0.5
220 30 0.415752 0.647345 0.5
286 31 0.452509 0.646682 0.5
13 31 0.43594 0.676259 0.5
291 27 0.471015 0.678729 0.5
235 34 0.48707 0.648498 0.5
755 26 0.520384 0.650847 0.5
604 23 0.504698 0.6766 0.5
890 33 0.53578 0.678757 0.5
507 29 0.551905 0.649038 0.5
226 31 0.586534 0.653276 0.5
321 31 0.569305 0.681535 0.5
758 24 0.600755 0.681661 0.5
108 33 0.619135 0.654311 0.5
454 31 0.637177 0.682837 0.5
899 24 0.650399 0.655781 0.5
602 26 0.695487 0.649951 0.5
347 42 0.67488 0.677582 0.5
415 25 0.711022 0.677533 0.5
163 26 0.726085 0.652022 0.5
810 31 0.742201 0.682591 0.5
774 33 0.7597 0.654424 0.5
997 34 0.777833 0.685528 0.5
254 32 0.794329 0.65756 0.5
392 30 0.829553 0.658861 0.5
853 21 0.808765 0.684394 0.5
153 36 0.866666 0.672077 0.5
285 30 0.888672 0.64383 0.5
654 26 0.837729 0.68879 0.5
695 23 0.917343 0.652332 0.5
435 25 0.900645 0.676278 0.5
839 28 0.932716 0.675828 0.5
463 27 0.94514 0.645494 0.5
98 34 0.979393 0.645728 0.5
842 28 0.996363 0.672993 0.5
630 31 0.964215 0.674211 0.5
579 28 0.0549659 0.705336 0.5
489 23 0.0220884 0.708838 0.5
643 28 0.0406992 0.734209 0.5
223 21 0.0567588 0.758869 0.5
237 34 0.0741451 0.734374 0.5
946 30 0.0888361 0.702479 0.5
19 29 0.119527 0.70814 0.5
131 28 0.109321 0.736598 0.5
160 29 0.127532 0.762618 0.5
194 31 0.141323 0.732027 0.5
830 29 0.176189 0.726029 0.5
399 33 0.159245 0.758215 0.5
74 34 0.208851 0.723012 0.5
449 27 0.243743 0.718528 0.5
433 26 0.19428 0.752285 0.5
739 40 0.230075 0.751412 0.5
145 26 0.275957 0.714268 0.5
989 34 0.264948 0.743609 0.5
865 23 0.296991 0.741325 0.5
640 36 0.347084 0.702619 0.5
287 35 0.311614 0.710162 0.5
554 29 0.329749 0.73698 0.5
576 32 0.364586 0.734273 0.5
15 33 0.383107 0.706536 0.5
417 26 0.404327 0.734649 0.5
386 35 0.417144 0.704148 0.5
370 36 0.450761 0.707043 0.5
667 27 0.436011 0.736995 0.5
69 34 0.470704 0.739421 0.5
572 33 0.485698 0.70588 0.5
932 28 0.517717 0.707279 0.5
494 24 0.501927 0.732817 0.5
3 33 0.533224 0.735601 0.5
978 24 0.550646 0.705959 0.5
773 22 0.581501 0.711011 0.5
808 27 0.567207 0.73503 0.5
292 29 0.59995 0.739185 0.5
437 32 0.616976 0.708706 0.5
185 35 0.632697 0.739164 0.5
820 30 0.655685 0.709362 0.5
327 31 0.690249 0.709886 0.5
638 44 0.67071 0.741833 0.5
453 26 0.705479 0.741602 0.5
562 36 0.725317 0.71562 0.5
850 25 0.736397 0.746008 0.5
76 27 0.759434 0.711559 0.5
354 34 0.768038 0.744178 0.5
843 34 0.791211 0.717327 0.5
123 20 0.812036 0.744085 0.5
496 30 0.823995 0.717382 0.5
88 39 0.885059 0.706469 0.5
299 26 0.853995 0.717415 0.5
50 32 0.872543 0.74311 0.5
221 24 0.838302 0.745014 0.5
605 25 0.918006 0.702684 0.5
880 38 0.907965 0.736142 0.5
622 29 0.94066 0.742041 0.5
236 39 0.951658 0.707756 0.5
231 31 1.00691 0.736195 0.5
757 37 0.989446 0.705965 0.5
889 28 0.971044 0.734993 0.5
146 26 0.0277453 0.761963 0.5
724 38 0.0471807 0.789915 0.5
642 31 0.0651527 0.820801 0.5
207 31 0.092425 0.764446 0.5
801 27 0.0808701 0.794358 0.5
747 25 0.112561 0.790634 0.5
328 24 0.0966844 0.819226 0.5
718 22 0.145827 0.787155 0.5
261 36 0.182286 0.784604 0.5
894 28 0.130535 0.81476 0.5
552 30 0.163848 0.81351 0.5
48 26 0.213832 0.781351 0.5
53 34 0.236102 0.805661 0.5
518 30 0.202855 0.812397 0.5
352 28 0.254179 0.778032 0.5
316 37 0.276413 0.803663 0.5
387 29 0.285184 0.769741 0.5
634 20 0.304993 0.791289 0.5
909 28 0.315257 0.765366 0.5
627 32 0.349141 0.763358 0.5
721 28 0.33422 0.790866 0.5
954 25 0.318009 0.81577 0.5
670 33 0.367608 0.79166 0.5
222 32 0.385833 0.760894 0.5
825 35 0.400701 0.792372 0.5
99 26 0.418735 0.76408 0.5
535 26 0.385004 0.824779 0.5
840 27 0.448695 0.763418 0.5
362 32 0.434857 0.79243 0.5
907 28 0.467288 0.792509 0.5
937 32 0.513519 0.763996 0.5
189 16 0.485825 0.768701 0.5
863 27 0.499663 0.795184 0.5
598 33 0.531769 0.790101 0.5
735 28 0.550032 0.762518 0.5
395 28 0.58215 0.76432 0.5
159 33 0.565437 0.793248 0.5
173 30 0.597592 0.796033 0.5
337 29 0.614537 0.768265 0.5
30 32 0.647269 0.770892 0.5
537 28 0.630204 0.798358 0.5
681 25 0.69037 0.770446 0.5
817 35 0.670412 0.79502 0.5
703 30 0.703785 0.800439 0.5
302 27 0.720508 0.773402 0.5
782 28 0.750642 0.772904 0.5
527 29 0.735787 0.800675 0.5
335 33 0.771297 0.799296 0.5
975 28 0.793504 0.765398 0.5
570 33 0.80478 0.796784 0.5
746 25 0.823455 0.770478 0.5
334 33 0.838786 0.800916 0.5
314 31 0.855134 0.770929 0.5
183 28 0.873019 0.798715 0.5
583 25 0.894904 0.767139 0.5
613 28 0.924412 0.767555 0.5
501 34 0.906888 0.79592 0.5
55 28 0.940744 0.793294 0.5
697 35 1.00901 0.790059 0.5
149 28 0.958891 0.767611 0.5
876 31 0.989018 0.763903 0.5
219 28 0.974921 0.795756 0.5
922 35 0.0289285 0.821377 0.5
539 31 0.0465385 0.850093 0.5
710 36 0.0123207 0.850647 0.5
262 32 0.0662517 0.878652 0.5
891 33 0.0808882 0.849181 0.5
992 36 0.114985 0.84685 0.5
505 32 0.101577 0.880738 0.5
213 31 0.151255 0.844892 0.5
947 33 0.184467 0.842441 0.5
647 30 0.135622 0.873273 0.5
248 26 0.167878 0.87229 0.5
315 29 0.221403 0.838656 0.5
828 29 0.205793 0.865945 0.5
455 31 0.240806 0.863892 0.5
659 34 0.257161 0.834114 0.5
320 33 0.274677 0.864024 0.5
903 31 0.293358 0.835232 0.5
284 34 0.349696 0.820901 0.5
462 29 0.325734 0.845769 0.5
391 26 0.363835 0.849258 0.5
247 25 0.304889 0.867094 0.5
218 24 0.344007 0.871667 0.5
731 34 0.401468 0.855648 0.5
419 33 0.417842 0.822459 0.5
717 30 0.451164 0.822553 0.5
547 33 0.435902 0.85213 0.5
657 26 0.467294 0.850824 0.5
304 28 0.483821 0.822945 0.5
523 23 0.518739 0.817815 0.5
78 22 0.495624 0.849577 0.5
268 41 0.528333 0.850563 0.5
230 31 0.548485 0.82159 0.5
525 27 0.580754 0.822824 0.5
982 32 0.564521 0.852459 0.5
150 37 0.598471 0.854768 0.5
366 29 0.616936 0.826298 0.5
355 31 0.634462 0.854469 0.5
979 34 0.650892 0.825927 0.5
741 33 0.684371 0.827755 0.5
836 29 0.667811 0.857023 0.5
52 36 0.700677 0.858795 0.5
708 27 0.718843 0.82719 0.5
373 34 0.753769 0.827649 0.5
482 30 0.734892 0.858328 0.5
147 30 0.76835 0.857048 0.5
56 28 0.787111 0.827749 0.5
858 32 0.801824 0.856634 0.5
945 34 0.821137 0.828462 0.5
75 23 0.858159 0.829602 0.5
483 28 0.834943 0.861793 0.5
258 37 0.872165 0.858679 0.5
588 27 0.891882 0.825497 0.5
134 33 0.926944 0.823866 0.5
436 31 0.907945 0.852684 0.5
396 31 0.945351 0.852706 0.5
308 27 0.961269 0.82384 0.5
238 26 0.992925 0.82183 0.5
38 29 0.9784 0.851578 0.5
143 30 0.0322974 0.878996 0.5
193 28 0.0489204 0.906838 0.5
161 28 0.016185 0.907617 0.5
516 38 0.0845271 0.911341 0.5
811 27 0.121248 0.907365 0.5
712 29 0.107956 0.935315 0.5
510 34 0.153144 0.902408 0.5
567 29 0.172496 0.930789 0.5
565 28 0.140775 0.933692 0.5
459 35 0.187658 0.898768 0.5
775 33 0.221817 0.89436 0.5
279 32 0.242567 0.922494 0.5
339 35 0.206837 0.927783 0.5
461 32 0.258051 0.893031 0.5
809 27 0.275748 0.92012 0.5
819 30 0.290323 0.893664 0.5
639 23 0.307249 0.917499 0.5
330 28 0.323821 0.892111 0.5
559 32 0.352717 0.907289 0.5
852 33 0.332527 0.938963 0.5
61 32 0.373432 0.881173 0.5
509 27 0.406236 0.887784 0.5
743 32 0.384708 0.912669 0.5
58 28 0.422871 0.9124 0.5
650 29 0.437184 0.884474 0.5
451 32 0.456819 0.913456 0.5
467 31 0.470429 0.882689 0.5
921 36 0.491197 0.909769 0.5
5 33 0.506884 0.879354 0.5
256 33 0.525723 0.909911 0.5
122 30 0.545066 0.882354 0.5
444 33 0.581552 0.886267 0.5
59 25 0.558768 0.911148 0.5
629 26 0.601175 0.911394 0.5
752 27 0.616096 0.88455 0.5
253 30 0.651907 0.885277 0.5
609 30 0.631421 0.913798 0.5
520 31 0.684838 0.888037 0.5
551 30 0.666048 0.915023 0.5
484 33 0.699625 0.917534 0.5
898 28 0.71663 0.888476 0.5
660 28 0.750239 0.885811 0.5
558 31 0.734137 0.918108 0.5
924 26 0.765465 0.910987 0.5
229 32 0.783551 0.884765 0.5
955 28 0.818221 0.891112 0.5
139 29 0.794882 0.91619 0.5
719 24 0.824668 0.92211 0.5
990 38 0.853577 0.89111 0.5
63 29 0.883155 0.912775 0.5
940 28 0.854167 0.924511 0.5
663 32 0.895318 0.883136 0.5
689 30 0.928195 0.88018 0.5
378 31 0.916323 0.911305 0.5
931 30 0.94743 0.90979 0.5
780 29 0.962893 0.879969 0.5
515 29 0.997875 0.880866 0.5
905 30 0.979866 0.907945 0.5
172 22 0.0711886 0.996371 0.5
656 23 0.03133 0.934572 0.5
33 30 0.0199556 0.964518 0.5
685 30 0.0525053 0.968767 0.5
81 28 0.110777 0.991983 0.5
873 32 0.0613964 0.937719 0.5
466 40 0.0879341 0.965032 0.5
224 30 0.123159 0.963187 0.5
197 29 0.141617 0.989966 0.5
37 29 0.175428 0.988263 0.5
257 33 0.157788 0.960583 0.5
577 35 0.20993 0.985018 0.5
513 28 0.192168 0.957513 0.5
380 37 0.228248 0.955062 0.5
167 27 0.243864 0.985114 0.5
255 29 0.261265 0.948424 0.5
884 35 0.294991 0.946907 0.5
984 32 0.275892 0.977708 0.5
738 32 0.317251 0.973838 0.5
473 31 0.351144 0.971986 0.5
180 32 0.365951 0.942006 0.5
623 35 0.405737 0.94193 0.5
927 32 0.385049 0.969067 0.5
71 33 0.440307 0.997153 0.5
592 26 0.424135 0.968214 0.5
831 29 0.438797 0.941731 0.5
996 27 0.458795 0.966462 0.5
860 30 0.476507 0.941313 0.5
14 29 0.509576 0.997849 0.5
993 30 0.511834 0.939982 0.5
941 29 0.494672 0.966919 0.5
896 30 0.524753 0.969521 0.5
148 33 0.545822 0.940424 0.5
192 35 0.580511 0.93858 0.5
699 24 0.561698 0.968486 0.5
536 28 0.593173 0.970467 0.5
102 24 0.648871 0.940173 0.5
649 35 0.614965 0.944258 0.5
211 21 0.622215 0.974816 0.5
301 35 0.653387 0.970533 0.5
930 27 0.676934 0.947512 0.5
243 32 0.685838 0.977176 0.5
340 23 0.70791 0.947128 0.5
877 29 0.739407 0.949165 0.5
420 33 0.718639 0.97586 0.5
214 33 0.756542 0.977576 0.5
158 34 0.772094 0.942041 0.5
312 37 0.819233 0.981143 0.5
676 31 0.805567 0.947396 0.5
919 25 0.787554 0.973721 0.5
768 31 0.854784 0.983945 0.5
561 31 0.838166 0.952265 0.5
106 22 0.869119 0.948994 0.5
569 32 0.88651 0.976153 0.5
182 32 0.933736 0.941835 0.5
89 30 0.898165 0.940309 0.5
502 26 0.915203 0.967731 0.5
943 42 0.949613 0.974764 0.5
538 33 1.00002 0.935862 0.5
242 35 0.985004 0.968143 0.5
113 34 0.965761 0.939392 0.5
