ITEM: TIMESTEP
1100000
ITEM: NUMBER OF ATOMS
1000
ITEM: BOX BOUNDS pp pp pp
-1.7574559000000001e+01 1.7574559000000001e+01
-1.7574559000000001e+01 1.7574559000000001e+01
-5.0000000000000000e-01 5.0000000000000000e-01
ITEM: ATOMS id type xs ys zs
775 33 0.0324406 0.0160112 0.470612
941 29 0.0124487 0.041926 0.594426
647 30 0.0594144 0.0390718 0.454915
710 37 0.0850634 0.0203715 0.489854
630 32 0.0962178 0.0519617 0.380436
659 35 0.0575806 -0.00289578 0.515259
850 23 0.117974 0.0311162 0.471067
67 30 0.151353 0.0470399 0.47884
572 34 0.126305 -0.00193258 0.440052
490 32 0.15409 0.0177596 0.518337
118 26 0.177709 0.0337178 0.443412
174 31 0.190561 0.00258101 0.610721
296 30 0.212858 0.0261797 0.513123
513 27 0.238229 0.0467517 0.487601
790 32 0.248656 0.0074492 0.401796
140 30 0.276833 0.0188694 0.449868
214 34 0.308394 0.0350614 0.472906
222 33 0.276688 0.0495529 0.476743
927 32 0.337795 0.0135898 0.483606
237 35 0.369604 0.0478448 0.606972
15 33 0.375354 0.0114548 0.53947
681 24 0.401873 0.0393986 0.506053
305 30 0.415253 0.009307 0.722942
945 34 0.430334 0.0479396 0.433576
898 28 0.457354 0.0367759 0.505546
887 32 0.494693 0.0343256 0.570555
354 34 0.501168 0.00217073 0.582073
298 38 0.531833 0.0153912 0.542329
260 28 0.543099 0.0455487 0.425519
746 24 0.564024 0.0238429 0.443774
121 32 0.611754 0.0221213 0.564863
519 24 0.585853 0.00786458 0.585652
569 33 0.649426 0.0298902 0.610838
601 31 0.677887 0.0375653 0.370403
265 41 0.690757 0.00390409 0.462093
951 29 0.725081 0.0029485 0.592742
122 30 0.702312 0.0546561 0.43396
866 29 0.725506 0.0334743 0.589889
825 36 0.758229 0.0095418 0.387501
837 33 0.774126 0.0395694 0.415109
88 41 0.79612 0.0142699 0.470358
203 39 0.832142 0.0310395 0.626639
938 23 0.877632 0.0259052 0.441497
723 29 0.858949 0.0494847 0.535473
904 34 0.856847 -0.00196457 0.571836
895 29 0.90502 0.0198748 0.463121
37 29 0.935765 0.015314 0.511211
72 26 1.00395 0.0129406 0.43385
146 25 0.979231 0.0397325 0.5832
555 30 0.967373 0.0121481 0.517545
888 28 0.952578 0.0431422 0.521712
264 31 0.039439 0.0618343 0.457055
125 30 0.0198296 0.0848343 0.509848
332 27 0.0528384 0.100483 0.445751
113 35 0.0727911 0.0727512 0.50874
420 34 0.109636 0.086236 0.470527
219 28 0.128825 0.0630739 0.265313
326 43 0.150731 0.09432 0.441214
867 37 0.175179 0.0694276 0.383891
524 33 0.196675 0.0941725 0.444848
585 32 0.204759 0.0543773 0.471501
554 29 0.224158 0.0759512 0.380781
735 28 0.251994 0.0728598 0.533725
841 31 0.251688 0.103503 0.327552
826 30 0.30826 0.0694543 0.496609
987 35 0.279603 0.0876681 0.530724
747 24 0.310633 0.0967626 0.254808
144 34 0.336009 0.0535847 0.402603
639 22 0.332345 0.0824941 0.395566
920 29 0.359983 0.0797668 0.449067
25 33 0.399009 0.0670642 0.360398
66 31 0.407878 0.103301 0.614448
234 34 0.428272 0.0816713 0.59546
373 35 0.458904 0.0668365 0.59627
967 24 0.484704 0.0809604 0.345623
62 28 0.509602 0.0627634 0.42418
736 26 0.511081 0.0948128 0.37289
52 37 0.537234 0.0754752 0.585289
716 30 0.56235 0.105716 0.5039
571 42 0.577504 0.0609354 0.705484
320 33 0.616464 0.0582955 0.621527
540 35 0.604048 0.0929889 0.300201
407 26 0.632994 0.085163 0.517241
340 22 0.677697 0.0768133 0.492954
875 34 0.650084 0.0610616 0.581233
930 26 0.659982 0.0985275 0.519806
59 23 0.703171 0.0862557 0.62067
494 23 0.723296 0.0716307 0.533073
364 32 0.752331 0.0615605 0.58009
155 30 0.777082 0.0783996 0.472072
965 29 0.743306 0.0937084 0.591539
336 35 0.806272 0.0534072 0.60014
748 35 0.809756 0.0912496 0.39006
428 28 0.834967 0.0643491 0.435316
280 38 0.886292 0.0652631 0.448393
635 23 0.857645 0.0803666 0.3589
928 33 0.880592 0.102545 0.529242
832 41 0.922896 0.0556408 0.344599
73 31 0.907204 0.0886518 0.363476
695 21 0.939099 0.0866445 0.457976
32 22 0.997192 0.0689559 0.534193
779 37 0.990546 0.0999249 0.57807
272 36 0.968105 0.0767089 0.47527
744 33 0.0277597 0.115806 0.465082
294 29 0.0370373 0.1452 0.38186
854 28 0.084199 0.109699 0.614328
397 32 0.0644934 0.137614 0.606284
492 39 0.0982655 0.142831 0.496829
108 33 0.11672 0.116946 0.614264
487 30 0.143816 0.132239 0.416915
313 33 0.128557 0.158375 0.483681
212 25 0.177502 0.13758 0.610702
807 23 0.200876 0.156125 0.542162
77 20 0.204219 0.132296 0.456612
596 27 0.227461 0.117145 0.522965
813 30 0.26138 0.130982 0.494956
408 28 0.22666 0.147281 0.404436
403 25 0.285622 0.118183 0.496525
488 26 0.284367 0.147985 0.354652
367 28 0.310749 0.132958 0.508466
741 34 0.3373 0.113787 0.56436
133 32 0.355491 0.143019 0.500099
830 29 0.374357 0.109892 0.410185
199 36 0.3866 0.139464 0.539187
753 32 0.453054 0.0997065 0.576183
778 24 0.425088 0.125722 0.50858
538 34 0.459301 0.139158 0.578167
345 32 0.420641 0.153971 0.51691
896 29 0.492849 0.121936 0.468035
392 30 0.50109 0.150976 0.686931
769 29 0.522947 0.132811 0.475009
211 19 0.536641 0.106537 0.544216
275 32 0.552796 0.132562 0.354142
353 29 0.598458 0.125028 0.630381
315 28 0.602965 0.156391 0.593543
758 22 0.631517 0.138542 0.552119
667 27 0.624882 0.111937 0.58828
780 29 0.657561 0.129343 0.435755
114 26 0.643852 0.160549 0.550353
973 22 0.68729 0.107238 0.404891
632 30 0.714789 0.112046 0.591736
361 33 0.68776 0.134132 0.511931
714 29 0.71819 0.143384 0.479897
115 23 0.769025 0.113963 0.545504
605 24 0.744826 0.122422 0.404609
724 40 0.775693 0.148151 0.540493
17 27 0.831991 0.119734 0.579407
611 36 0.80338 0.127597 0.455289
9 28 0.824857 0.151931 0.606153
309 34 0.862448 0.127838 0.379709
528 33 0.899547 0.133173 0.656197
614 29 0.930435 0.135953 0.520749
946 30 0.964059 0.142946 0.500039
349 40 0.956596 0.110336 0.564221
893 30 1.00134 0.130317 0.476386
261 38 0.0111604 0.161484 0.748425
577 36 0.037072 0.184018 0.531054
623 36 0.00500014 0.191966 0.39051
981 30 0.0638118 0.167077 0.559641
342 39 0.107466 0.183585 0.589898
989 34 0.0744295 0.194868 0.669217
511 37 0.147682 0.183867 0.535315
149 27 0.124135 0.209487 0.491541
953 29 0.174782 0.164616 0.466661
426 23 0.19362 0.19562 0.53337
311 28 0.168704 0.21118 0.548594
378 31 0.21665 0.178272 0.479356
427 31 0.241568 0.198064 0.593088
307 32 0.257432 0.162941 0.454584
702 28 0.291464 0.17632 0.462961
344 21 0.268823 0.194557 0.448353
498 29 0.315821 0.160784 0.463995
181 32 0.322251 0.194583 0.496816
423 34 0.349109 0.176077 0.506706
145 25 0.350917 0.205144 0.475818
637 28 0.37914 0.172917 0.442247
503 37 0.408597 0.184271 0.537374
21 31 0.379458 0.201273 0.422986
175 43 0.443774 0.181153 0.583515
31 23 0.479511 0.175447 0.592432
252 35 0.49145 0.201187 0.490189
706 32 0.514335 0.180537 0.694679
966 25 0.520148 0.209684 0.403301
949 34 0.569359 0.161871 0.620714
553 32 0.538786 0.158864 0.436758
563 35 0.548341 0.191191 0.510117
148 34 0.589638 0.18538 0.466696
874 37 0.621929 0.181071 0.609223
352 27 0.650209 0.190626 0.525404
458 36 0.679023 0.205368 0.503765
247 24 0.673233 0.163102 0.506945
642 31 0.634129 0.213658 0.582132
857 39 0.705826 0.175997 0.49285
179 31 0.711493 0.20926 0.619793
359 34 0.738367 0.169041 0.346201
561 32 0.746113 0.197626 0.599776
253 29 0.770394 0.181938 0.494417
139 29 0.803998 0.170398 0.380905
39 27 0.828847 0.183277 0.507766
728 34 0.795932 0.199411 0.443335
124 28 0.83853 0.20903 0.534969
242 35 0.871861 0.158123 0.471324
92 28 0.86056 0.186921 0.596299
143 30 0.915125 0.162171 0.482832
939 37 0.891976 0.184619 0.497886
812 27 0.925426 0.196464 0.468508
291 27 0.947025 0.176006 0.379197
240 29 0.980987 0.168426 0.502236
516 40 0.972669 0.199558 0.517457
451 33 0.0263098 0.214564 0.514038
846 33 0.0124155 0.249169 0.64082
604 22 0.0394646 0.242854 0.450082
370 37 0.0955401 0.222654 0.510231
645 33 0.0655037 0.234343 0.67184
899 23 0.0908475 0.253565 0.50703
173 30 0.145281 0.228324 0.59823
652 41 0.120634 0.249212 0.558232
355 31 0.19024 0.231188 0.451549
879 33 0.165899 0.254605 0.501717
849 35 0.230332 0.259503 0.627396
598 34 0.220524 0.226644 0.494538
431 31 0.267125 0.223106 0.489957
570 34 0.294458 0.208463 0.491079
279 32 0.294685 0.24166 0.55374
911 29 0.264716 0.252616 0.460652
512 31 0.319004 0.25998 0.482994
40 39 0.325603 0.227899 0.376956
704 34 0.361317 0.246654 0.511123
651 24 0.403928 0.246021 0.577714
984 32 0.405633 0.218241 0.433834
545 38 0.433053 0.249931 0.443449
284 35 0.440369 0.217732 0.484874
768 31 0.463855 0.257944 0.417722
457 37 0.475203 0.228993 0.478471
631 30 0.51057 0.236443 0.547976
776 31 0.571493 0.213193 0.536872
774 33 0.548383 0.232944 0.492957
924 26 0.578324 0.240746 0.416766
386 36 0.602068 0.218166 0.444323
446 28 0.626099 0.241456 0.523655
852 34 0.659951 0.236856 0.626124
785 33 0.694629 0.235644 0.431737
30 32 0.718578 0.262787 0.49673
232 27 0.746265 0.233558 0.391307
80 29 0.768723 0.216829 0.436584
331 26 0.779704 0.252564 0.69041
470 29 0.796104 0.230619 0.659215
193 28 0.828541 0.23415 0.374861
413 26 0.826878 0.261693 0.471414
594 33 0.869293 0.214948 0.533588
712 29 0.853877 0.244905 0.530725
308 26 0.88406 0.240201 0.588392
416 34 0.905188 0.217261 0.625501
254 33 0.918368 0.244875 0.54759
283 36 0.944046 0.220642 0.462977
41 31 0.99553 0.222319 0.52435
913 29 0.976404 0.244654 0.618214
847 37 0.0415644 0.27695 0.448307
12 34 0.000532438 0.278987 0.531551
177 24 0.0166417 0.303415 0.348555
787 27 0.0458913 0.310745 0.569993
523 22 0.0670362 0.262302 0.490524
455 31 0.0764525 0.29341 0.453436
34 31 0.100482 0.31065 0.502898
400 34 0.108024 0.280034 0.593282
793 29 0.138354 0.275674 0.409296
700 26 0.153364 0.308084 0.395628
560 29 0.195904 0.263469 0.577948
56 27 0.165711 0.283735 0.593813
71 34 0.185643 0.309404 0.421555
202 38 0.21416 0.294551 0.52375
856 28 0.245967 0.285472 0.482778
905 30 0.241224 0.317779 0.462074
126 32 0.27757 0.296255 0.498909
116 23 0.287969 0.269751 0.509462
185 36 0.30955 0.292247 0.559997
28 27 0.350179 0.280261 0.422371
687 33 0.341783 0.30752 0.576003
678 30 0.379302 0.275034 0.336794
799 27 0.408721 0.276548 0.491472
399 34 0.375273 0.304704 0.415141
788 33 0.423266 0.305225 0.588071
885 25 0.442295 0.278451 0.442993
27 33 0.452791 0.311306 0.412868
371 29 0.52231 0.264385 0.597597
462 29 0.478791 0.296509 0.446757
573 30 0.494032 0.270917 0.540769
469 36 0.513743 0.293498 0.253202
762 32 0.562169 0.26465 0.339658
955 28 0.543821 0.28814 0.47604
163 26 0.571887 0.293534 0.604631
300 36 0.59875 0.265643 0.432102
764 37 0.602439 0.301613 0.518826
335 33 0.679886 0.267425 0.486122
477 31 0.633666 0.301966 0.387426
36 37 0.638712 0.271368 0.531707
398 37 0.666696 0.298464 0.436221
418 34 0.700023 0.291409 0.448249
95 32 0.731347 0.290929 0.414099
691 38 0.752831 0.265999 0.437709
94 25 0.760581 0.29551 0.303653
383 35 0.788478 0.279783 0.552433
842 28 0.8128 0.299704 0.535417
593 25 0.837895 0.288099 0.355568
109 42 0.875667 0.270742 0.495235
739 42 0.89049 0.306363 0.669224
629 25 0.854822 0.309526 0.39089
638 47 0.917931 0.279417 0.575253
343 33 0.948609 0.262777 0.444982
556 29 0.948082 0.293745 0.449585
583 24 0.971941 0.279511 0.497269
833 33 0.980477 0.307449 0.480131
390 32 0.0331399 0.347307 0.431439
917 39 0.00118663 0.332468 0.532101
848 29 0.0662159 0.340055 0.486488
465 27 0.097104 0.342652 0.505108
926 34 0.0583841 0.370588 0.4606
33 30 0.127915 0.321418 0.577909
167 27 0.152105 0.336561 0.413233
803 31 0.124173 0.35081 0.366165
674 28 0.182746 0.346527 0.415718
882 36 0.212854 0.331729 0.536438
722 33 0.238586 0.35114 0.591389
592 25 0.215432 0.371613 0.668754
8 25 0.302952 0.320489 0.486109
745 35 0.274337 0.331376 0.456426
131 28 0.297002 0.350347 0.50774
339 36 0.272177 0.367194 0.46345
733 37 0.326921 0.337522 0.598719
302 26 0.3613 0.338007 0.480217
471 25 0.37172 0.370798 0.605161
4 33 0.336915 0.37478 0.522951
671 25 0.397961 0.329785 0.405359
414 34 0.398919 0.364025 0.375417
820 29 0.422334 0.346664 0.545506
6 15 0.450079 0.341295 0.580586
547 33 0.463955 0.366165 0.433072
111 28 0.473494 0.335461 0.501282
475 26 0.520378 0.36331 0.46537
409 30 0.500946 0.322509 0.581198
83 31 0.53257 0.316274 0.543295
388 26 0.54004 0.345295 0.552472
329 34 0.563061 0.328475 0.425304
333 30 0.570869 0.358638 0.467385
801 26 0.591525 0.331651 0.586658
42 40 0.621276 0.338416 0.445551
690 27 0.653741 0.333632 0.491088
205 27 0.643315 0.36472 0.562062
551 30 0.683013 0.32535 0.590876
880 40 0.7148 0.324083 0.524176
558 31 0.696438 0.351052 0.401346
574 22 0.736338 0.345943 0.602536
718 20 0.746581 0.316666 0.573819
713 37 0.784864 0.312985 0.481064
508 28 0.762683 0.337272 0.505114
58 27 0.783218 0.356599 0.620397
391 25 0.806906 0.340444 0.565388
673 27 0.830642 0.320907 0.48532
871 28 0.836859 0.350321 0.530927
889 28 0.865604 0.336897 0.594493
964 33 0.90733 0.337428 0.6514
858 33 0.926793 0.314121 0.502115
750 32 0.93933 0.349054 0.535203
337 29 0.966724 0.336528 0.557991
568 31 0.9738 0.365477 0.526815
14 29 0.0288873 0.382845 0.615601
531 26 0.0217558 0.410537 0.415255
835 33 0.00280756 0.367353 0.313735
542 32 0.0539935 0.404989 0.389481
708 26 0.105223 0.376177 0.508286
636 22 0.0795988 0.391534 0.486984
720 28 0.0809902 0.4202 0.588304
506 37 0.149961 0.371446 0.519228
588 26 0.128185 0.412861 0.439936
363 25 0.102775 0.402572 0.492315
910 30 0.183259 0.381583 0.547986
901 37 0.160869 0.404772 0.489602
500 41 0.210811 0.404439 0.433974
950 32 0.242802 0.381473 0.544918
566 31 0.239564 0.420226 0.554264
110 30 0.267951 0.399542 0.619534
608 29 0.309343 0.389766 0.464252
384 41 0.29407 0.424134 0.518021
533 35 0.330433 0.416849 0.567977
74 35 0.359005 0.39699 0.513803
894 27 0.40883 0.39917 0.465916
641 29 0.383202 0.416712 0.486986
721 27 0.435947 0.406939 0.546234
497 32 0.433921 0.377015 0.488151
194 31 0.468443 0.398015 0.552511
274 27 0.492605 0.368819 0.437213
943 44 0.51406 0.397771 0.549621
303 29 0.546397 0.374518 0.54997
990 40 0.562706 0.407949 0.524761
401 25 0.600494 0.363344 0.68384
734 32 0.590236 0.389933 0.439811
731 35 0.624197 0.387634 0.459334
348 27 0.668222 0.378012 0.585429
544 28 0.630565 0.417091 0.497163
607 37 0.659893 0.409661 0.423941
112 25 0.69288 0.387534 0.486019
160 29 0.718147 0.371364 0.48443
485 34 0.726679 0.399786 0.477577
906 38 0.755204 0.373334 0.566427
11 37 0.757565 0.408327 0.596823
208 32 0.782729 0.389745 0.541863
505 33 0.813676 0.370725 0.561141
727 36 0.823023 0.421283 0.482298
697 36 0.865457 0.368332 0.595227
422 30 0.849181 0.399926 0.464363
443 28 0.881825 0.397864 0.652758
216 41 0.90301 0.371869 0.526036
190 39 0.936438 0.381382 0.546807
304 28 0.91729 0.405699 0.547985
633 30 0.943888 0.419793 0.359612
381 32 0.996144 0.398833 0.445725
929 33 0.965693 0.396311 0.454703
61 32 0.0460572 0.433935 0.561341
969 29 0.0207432 0.462052 0.504074
809 27 0.0546365 0.464625 0.397603
584 25 0.000166323 0.43252 0.472628
374 34 0.082376 0.452877 0.391572
188 31 0.110881 0.43542 0.364168
766 29 0.148914 0.433146 0.457239
529 28 0.137222 0.460964 0.606174
668 23 0.108616 0.463816 0.638631
29 29 0.196465 0.433326 0.500213
347 44 0.172389 0.454931 0.519189
881 27 0.209708 0.459618 0.402693
653 24 0.234676 0.448319 0.400269
683 34 0.271667 0.451576 0.50373
763 34 0.316747 0.45196 0.418491
184 27 0.352749 0.462401 0.679896
935 25 0.353751 0.4337 0.599125
107 29 0.390065 0.450264 0.411725
231 32 0.413315 0.472488 0.479879
93 42 0.428373 0.437568 0.508396
626 35 0.461507 0.430635 0.501932
936 25 0.474834 0.459345 0.418576
689 30 0.441962 0.466221 0.633855
541 33 0.49512 0.426689 0.533955
134 34 0.510917 0.452341 0.249188
865 22 0.53775 0.428987 0.39442
526 30 0.54731 0.456799 0.483241
132 31 0.576114 0.441817 0.440626
251 32 0.597938 0.418845 0.478003
207 31 0.599824 0.461659 0.687115
434 24 0.617736 0.44135 0.548998
995 25 0.627374 0.469732 0.536459
445 35 0.649503 0.444997 0.498792
19 28 0.678804 0.432953 0.528272
804 29 0.700048 0.41327 0.356392
980 28 0.710133 0.456607 0.534654
319 29 0.685206 0.469632 0.545638
861 35 0.74139 0.43644 0.538033
794 31 0.773758 0.446008 0.594934
266 35 0.751297 0.471693 0.416973
738 32 0.788734 0.419984 0.478598
586 42 0.806209 0.451965 0.575315
806 27 0.870979 0.431517 0.623949
902 30 0.840646 0.446148 0.454139
999 36 0.870359 0.463128 0.536512
940 27 0.897582 0.427843 0.467048
783 26 0.924057 0.438619 0.472246
663 33 0.904764 0.462463 0.514068
760 26 0.948326 0.462444 0.656346
141 32 0.972438 0.424719 0.621811
7 35 0.980202 0.461021 0.645683
156 25 0.0151935 0.495739 0.481266
91 25 0.0450467 0.49002 0.524575
415 24 -0.00165606 0.528377 0.595662
932 27 0.0346574 0.514542 0.556459
103 33 0.0787444 0.484074 0.492992
815 30 0.063913 0.510398 0.41153
903 31 0.103003 0.504532 0.643684
226 31 0.134027 0.50827 0.515106
613 27 0.154646 0.486745 0.534466
922 36 0.165171 0.514308 0.617116
504 39 0.189183 0.490118 0.511489
180 33 0.245776 0.476992 0.515294
970 22 0.220083 0.493506 0.652419
956 33 0.249081 0.508825 0.56155
393 38 0.294395 0.479974 0.568728
286 31 0.278851 0.508916 0.426714
210 28 0.324794 0.481573 0.552122
287 35 0.354107 0.494112 0.670702
389 39 0.319256 0.514566 0.598395
438 27 0.373294 0.515238 0.389398
811 26 0.37949 0.48064 0.424872
661 30 0.399832 0.504332 0.615467
988 20 0.457786 0.488786 0.615336
405 29 0.435478 0.50138 0.492935
688 27 0.454005 0.522708 0.404581
543 33 0.493674 0.482506 0.443958
197 29 0.528534 0.479201 0.449827
402 37 0.489258 0.514545 0.517386
450 24 0.520279 0.519296 0.37839
20 35 0.573154 0.482723 0.537009
983 32 0.547272 0.503756 0.363602
259 20 0.573462 0.512337 0.326256
262 32 0.599782 0.499114 0.592066
281 25 0.627165 0.495472 0.381632
123 18 0.615167 0.520097 0.349367
646 28 0.657149 0.48113 0.563623
78 20 0.648591 0.507306 0.51996
241 33 0.685208 0.501838 0.595307
960 40 0.720773 0.495099 0.447961
102 22 0.751981 0.508628 0.561886
246 33 0.782214 0.477106 0.373184
616 30 0.781129 0.507916 0.497076
164 33 0.812119 0.488456 0.552156
974 26 0.836542 0.473484 0.427476
225 34 0.840159 0.526133 0.619685
328 23 0.809992 0.517329 0.568374
493 25 0.849184 0.496472 0.481958
46 34 0.892408 0.491545 0.480884
840 26 0.876627 0.518424 0.449701
460 34 0.928558 0.488613 0.554369
818 25 0.937265 0.524633 0.629294
643 28 0.910117 0.527564 0.450813
654 25 0.987448 0.504646 0.637137
183 28 0.962533 0.487534 0.519223
466 42 0.967954 0.532095 0.448742
517 36 0.0244771 0.546128 0.619044
162 32 0.0397398 0.575646 0.587084
972 29 0.0867304 0.527021 0.403411
851 31 0.0634173 0.550195 0.578773
195 37 0.0939464 0.558098 0.648993
191 36 0.123022 0.541909 0.584388
235 35 0.130179 0.581554 0.177841
377 27 0.153711 0.543141 0.405228
709 30 0.191967 0.533796 0.355998
380 38 0.181517 0.562915 0.359706
743 32 0.220121 0.523768 0.625326
618 35 0.216771 0.567365 0.63103
992 37 0.242938 0.545543 0.518142
117 31 0.257633 0.575643 0.344324
634 18 0.270339 0.543136 0.648265
991 33 0.294678 0.534608 0.477152
798 34 0.286282 0.567952 0.643537
45 28 0.32034 0.551275 0.57923
518 30 0.34575 0.538017 0.648089
297 30 0.339453 0.572626 0.597132
997 34 0.369163 0.569391 0.432364
341 25 0.384952 0.539651 0.589771
978 23 0.398066 0.561617 0.581959
90 39 0.415292 0.536935 0.524043
387 29 0.451752 0.550342 0.576902
834 31 0.42644 0.572546 0.46866
994 28 0.45538 0.578419 0.575388
729 23 0.478142 0.549115 0.555665
591 26 0.517107 0.55254 0.459408
314 31 0.492943 0.571727 0.469943
510 35 0.543327 0.540894 0.577158
890 33 0.572257 0.560088 0.453156
178 23 0.546013 0.580614 0.555076
220 30 0.587783 0.53308 0.526666
292 28 0.615909 0.55434 0.585995
218 23 0.633031 0.534104 0.530506
282 27 0.661466 0.528495 0.439691
10 29 0.67957 0.567097 0.41549
576 33 0.648929 0.55839 0.612478
845 27 0.727005 0.525282 0.520174
962 46 0.694486 0.537214 0.427147
99 25 0.710121 0.569384 0.561185
43 35 0.738716 0.567487 0.57486
441 30 0.7532 0.541026 0.487782
137 33 0.772015 0.572643 0.386494
657 25 0.781356 0.540761 0.366739
701 37 0.815436 0.546234 0.618717
876 31 0.839537 0.570116 0.437078
379 27 0.864726 0.542717 0.408479
35 37 0.871658 0.572891 0.519164
138 31 0.899759 0.557252 0.471967
22 34 0.933763 0.552595 0.55209
295 33 0.996661 0.560148 0.525124
60 27 0.963431 0.563015 0.543824
703 30 0.0122093 0.586494 0.447958
165 22 0.0296539 0.608382 0.547443
755 25 0.00764949 0.621649 0.412827
610 30 0.0720875 0.581467 0.58916
595 35 0.0562116 0.617783 0.501118
622 28 0.0845282 0.609604 0.64601
580 27 0.100824 0.586916 0.531025
947 33 0.143061 0.619689 0.445913
565 27 0.1101 0.621173 0.415295
873 32 0.160124 0.586044 0.373555
791 27 0.196185 0.589953 0.638435
325 32 0.182735 0.616341 0.610701
957 36 0.232659 0.597426 0.358415
38 29 0.226774 0.62828 0.542159
937 32 0.265498 0.603116 0.596271
536 28 0.295049 0.605606 0.488933
476 22 0.31137 0.580086 0.454508
546 32 0.338286 0.602086 0.525882
711 34 0.318847 0.629598 0.5922
213 32 0.359763 0.627674 0.714518
933 29 0.368805 0.600563 0.530441
449 26 0.394068 0.588016 0.732182
249 34 0.393233 0.616874 0.451216
789 28 0.420233 0.601709 0.575221
69 35 0.474884 0.602702 0.585306
959 27 0.450849 0.619476 0.459523
669 40 0.505883 0.618795 0.506867
717 30 0.518681 0.585831 0.609178
53 35 0.541616 0.61667 0.41725
810 31 0.578214 0.597331 0.478507
51 31 0.622338 0.581939 0.488407
50 32 0.604151 0.610061 0.593244
484 34 0.657837 0.593181 0.435008
855 31 0.66886 0.6199 0.744677
365 27 0.696134 0.591548 0.668221
290 31 0.729945 0.596827 0.536026
192 36 0.704878 0.623228 0.62357
532 28 0.73709 0.629809 0.50518
324 38 0.760483 0.602659 0.388728
372 27 0.800071 0.579987 0.411285
411 31 0.821404 0.608704 0.47314
433 25 0.793465 0.612986 0.374488
805 27 0.849993 0.597737 0.499449
417 25 0.876216 0.610729 0.471607
360 18 0.902971 0.605902 0.460997
908 21 0.916753 0.586374 0.566953
658 35 0.927693 0.621674 0.430169
483 28 0.945982 0.58847 0.431133
257 33 0.984067 0.597884 0.532275
330 27 0.957395 0.613425 0.441251
824 31 0.0264209 0.641665 0.556941
765 24 0.0303415 0.671383 0.531234
821 26 0.0516303 0.654443 0.350771
63 29 0.0783354 0.676263 0.485494
737 34 0.0849981 0.641764 0.593625
142 31 0.107142 0.662218 0.499943
559 33 0.136435 0.652858 0.562471
715 23 0.197214 0.641054 0.512619
209 26 0.166516 0.645638 0.47955
244 29 0.184824 0.665754 0.353571
579 28 0.153277 0.676247 0.447291
649 35 0.213519 0.671541 0.534048
301 36 0.250326 0.653823 0.426167
81 27 0.27289 0.633368 0.467579
816 32 0.276166 0.671189 0.513871
453 25 0.295119 0.651051 0.495873
129 36 0.30746 0.680719 0.632558
152 34 0.330129 0.658713 0.440023
310 33 0.361443 0.676688 0.600554
236 41 0.388332 0.649725 0.540426
182 33 0.420305 0.632827 0.47895
795 35 0.429731 0.666582 0.343376
615 28 0.463212 0.653598 0.721407
221 23 0.477999 0.63253 0.429448
672 31 0.497257 0.655851 0.404938
127 23 0.521258 0.644224 0.613384
128 31 0.519097 0.675198 0.462787
394 29 0.482469 0.686073 0.538927
464 30 0.57615 0.633652 0.550681
521 32 0.552274 0.656794 0.451924
322 23 0.601978 0.641513 0.380027
1000 35 0.589783 0.669965 0.40715
263 29 0.62222 0.66681 0.582228
620 28 0.62855 0.631968 0.543664
784 28 0.653138 0.663204 0.445469
120 30 0.686038 0.647822 0.405684
677 38 0.689656 0.678893 0.499905
82 33 0.722311 0.671424 0.395165
602 25 0.774966 0.637516 0.47204
217 32 0.775955 0.670689 0.421464
515 29 0.747896 0.656398 0.443836
306 27 0.748246 0.686189 0.430563
432 29 0.799082 0.652157 0.548742
786 38 0.828652 0.639789 0.567305
644 30 0.84001 0.672982 0.510576
507 29 0.864457 0.635642 0.465826
872 39 0.870621 0.667462 0.4867
318 35 0.895958 0.643847 0.454056
915 27 0.932761 0.678241 0.327297
289 22 0.924657 0.65104 0.562539
660 28 0.906211 0.6724 0.510742
730 31 0.997307 0.665525 0.411705
535 25 0.986795 0.636198 0.643398
868 38 0.955416 0.643367 0.579624
376 40 0.96419 0.682542 0.689682
680 29 0.0139547 0.697602 0.509549
136 37 0.0435795 0.704169 0.498789
650 29 0.0204918 0.726623 0.430839
440 39 0.0771385 0.737163 0.420029
86 30 0.0765545 0.705317 0.588372
923 33 0.109638 0.692404 0.488393
800 23 0.136378 0.697111 0.5642
461 32 0.138909 0.728425 0.477036
13 31 0.194674 0.697245 0.646408
491 30 0.166353 0.701682 0.44552
884 36 0.202037 0.726499 0.506776
299 25 0.168757 0.735184 0.472993
781 29 0.246785 0.68382 0.547954
135 29 0.225064 0.70571 0.565666
797 31 0.246863 0.72629 0.479408
150 38 0.276375 0.702924 0.505127
827 40 0.305097 0.72067 0.489289
435 23 0.274484 0.733316 0.486101
679 42 0.336133 0.701174 0.537009
655 29 0.342918 0.733684 0.535656
196 31 0.373224 0.704431 0.662464
327 31 0.395516 0.680186 0.391388
919 24 0.396727 0.718041 0.560569
914 25 0.373708 0.733282 0.537021
201 34 0.422576 0.702373 0.608032
975 27 0.449677 0.692163 0.519155
823 28 0.444376 0.722692 0.702068
958 23 0.47521 0.711758 0.512581
838 23 0.49788 0.719822 0.316085
24 29 0.524599 0.735268 0.374898
76 26 0.529135 0.70421 0.436888
16 32 0.556134 0.686233 0.550809
761 29 0.549417 0.723044 0.61034
277 26 0.582905 0.699958 0.509253
421 34 0.581421 0.729989 0.44286
233 27 0.611617 0.696543 0.58827
366 29 0.634042 0.722074 0.65524
550 25 0.665772 0.702207 0.393276
877 29 0.639334 0.690862 0.459663
85 23 0.725906 0.699686 0.552625
5 33 0.694664 0.713415 0.52406
481 30 0.752365 0.722994 0.657779
54 29 0.784295 0.700574 0.470742
675 27 0.816717 0.69127 0.697874
603 29 0.808651 0.719418 0.632762
147 30 0.83832 0.721303 0.549454
68 31 0.861018 0.701053 0.410444
916 25 0.881445 0.727293 0.383769
578 29 0.893205 0.702093 0.45478
153 37 0.914545 0.726832 0.584179
963 27 0.937534 0.704619 0.487174
589 24 0.943525 0.731786 0.320572
719 23 0.99451 0.727773 0.597325
606 34 0.964206 0.71618 0.669194
158 35 0.0443764 0.74486 0.654554
590 25 0.00809086 0.752921 0.386619
382 37 0.032629 0.778858 0.43438
157 32 0.0639057 0.768368 0.538181
705 29 0.0926684 0.777318 0.446676
822 35 0.114558 0.747136 0.503531
75 21 0.142269 0.756146 0.533857
448 32 0.122177 0.782667 0.466373
548 36 0.161796 0.780475 0.542742
479 21 0.18784 0.751629 0.704997
552 30 0.204463 0.772162 0.381411
819 30 0.228595 0.757823 0.625824
612 27 0.263983 0.75695 0.578957
686 30 0.294098 0.758768 0.350664
514 25 0.303749 0.784009 0.583158
599 33 0.270723 0.785853 0.468063
410 40 0.329152 0.764619 0.501039
582 28 0.360349 0.762268 0.585077
756 28 0.389624 0.756305 0.566499
664 32 0.416955 0.738725 0.412877
472 27 0.414777 0.774567 0.490784
537 27 0.470818 0.74119 0.454941
522 35 0.44351 0.754938 0.461727
198 35 0.470204 0.775076 0.45604
412 29 0.498658 0.755197 0.522231
323 30 0.502498 0.783961 0.587144
243 33 0.542192 0.758339 0.499332
424 23 0.565251 0.787819 0.436336
751 24 0.573583 0.762953 0.654635
161 27 0.601818 0.758164 0.389286
530 29 0.62835 0.765698 0.328389
567 29 0.592196 0.784998 0.42385
47 31 0.665018 0.745398 0.554258
839 27 0.655692 0.774073 0.463948
863 26 0.68469 0.773281 0.532814
229 32 0.722828 0.727862 0.447106
539 31 0.696749 0.74327 0.622666
952 34 0.715285 0.767103 0.64728
670 34 0.779584 0.739588 0.44482
268 43 0.752115 0.760536 0.632156
151 37 0.787983 0.772098 0.605014
581 23 0.816406 0.759153 0.342659
396 31 0.823776 0.785298 0.626663
754 31 0.856221 0.744169 0.492487
587 36 0.858951 0.781939 0.391934
463 26 0.883532 0.758347 0.54741
482 29 0.910693 0.757448 0.510394
828 29 0.945755 0.766034 0.576144
621 27 0.893072 0.784009 0.513567
454 32 0.97702 0.759115 0.448614
166 30 0.994811 0.78257 0.675643
468 27 0.0113502 0.80578 0.502593
351 31 0.00451134 0.835361 0.450012
942 26 0.032686 0.835433 0.266868
777 27 0.0550837 0.800915 0.602063
836 29 0.060412 0.828747 0.455277
662 32 0.0852838 0.808862 0.493162
172 21 0.143794 0.806621 0.501052
757 38 0.116686 0.823089 0.476082
886 28 0.183084 0.804084 0.335189
437 32 0.175023 0.832019 0.459979
456 31 0.207793 0.835447 0.4225
693 29 0.21362 0.799227 0.175569
627 33 0.239303 0.785079 0.488419
480 26 0.235255 0.813092 0.612907
430 33 0.263169 0.82661 0.572502
549 30 0.294425 0.811681 0.561358
23 28 0.28683 0.84274 0.386506
870 30 0.323667 0.840161 0.535184
977 35 0.355256 0.794811 0.51341
79 37 0.324741 0.807339 0.487371
444 33 0.355871 0.834064 0.494046
269 32 0.383723 0.821331 0.55364
70 28 0.390333 0.791115 0.59785
921 37 0.418168 0.808189 0.433786
270 31 0.445329 0.793076 0.49198
625 32 0.452869 0.833049 0.565485
48 25 0.422791 0.837264 0.394972
186 31 0.47549 0.809818 0.56434
49 27 0.507684 0.812061 0.393403
224 30 0.485502 0.839409 0.495299
782 28 0.516638 0.846763 0.494251
26 39 0.534866 0.791113 0.441256
656 21 0.532932 0.82314 0.549344
159 34 0.568138 0.815339 0.517278
862 25 0.549244 0.846219 0.314636
285 30 0.627483 0.794926 0.482471
436 31 0.599794 0.818833 0.443387
684 25 0.663903 0.801692 0.462112
878 32 0.647399 0.825686 0.509534
892 23 0.67852 0.82287 0.632383
619 32 0.701372 0.800325 0.336675
648 25 0.730733 0.800163 0.414193
97 23 0.715243 0.823516 0.492357
829 25 0.729723 0.846049 0.398357
726 29 0.764271 0.79597 0.446421
998 31 0.747438 0.823487 0.651046
419 33 0.779425 0.825492 0.495495
499 19 0.791909 0.801777 0.632337
358 28 0.810505 0.817918 0.43881
489 22 0.836946 0.808758 0.498792
860 30 0.838719 0.837651 0.483608
617 33 0.871327 0.810741 0.276348
425 32 0.882771 0.838549 0.676299
767 39 0.925664 0.789814 0.53076
171 34 0.906221 0.81719 0.528098
215 28 0.937546 0.819484 0.553202
853 20 0.983125 0.815444 0.542036
101 27 0.963344 0.794095 0.736796
346 29 0.971982 0.843138 0.477348
770 41 0.0271248 0.870003 0.492093
375 30 0.0586155 0.900676 0.393054
792 31 0.0894315 0.8396 0.368901
385 32 0.0578085 0.858343 0.460797
562 37 0.083244 0.877153 0.429619
557 37 0.113309 0.860301 0.543438
725 38 0.143403 0.843536 0.593121
509 27 0.151193 0.874343 0.483565
527 28 0.12216 0.89561 0.359786
245 22 0.178538 0.861361 0.545229
119 29 0.188156 0.886082 0.712223
189 13 0.206144 0.863573 0.583399
891 33 0.217047 0.888347 0.501587
575 32 0.230688 0.856669 0.481428
362 32 0.246928 0.883527 0.624216
597 24 0.262668 0.858501 0.633932
478 29 0.308731 0.874251 0.492901
467 31 0.281839 0.885527 0.509805
996 26 0.339817 0.86457 0.748626
496 30 0.367669 0.861613 0.631047
918 39 0.395485 0.852734 0.186409
250 30 0.388924 0.886755 0.247445
317 37 0.465764 0.866818 0.550283
106 20 0.437308 0.860538 0.550756
267 27 0.423221 0.882446 0.520311
65 31 0.498812 0.868876 0.461475
742 31 0.530123 0.875319 0.368368
130 28 0.558557 0.873731 0.395304
600 35 0.577656 0.85141 0.498152
685 30 0.61822 0.844048 0.668979
831 29 0.602806 0.867732 0.416512
501 34 0.612123 0.897764 0.335545
89 30 0.666646 0.853 0.499833
200 34 0.642009 0.870989 0.645649
395 28 0.666291 0.887446 0.426161
961 30 0.696193 0.844656 0.376776
696 27 0.691345 0.873504 0.430038
666 32 0.725616 0.874117 0.544795
356 25 0.760557 0.848582 0.638592
520 31 0.76819 0.87979 0.587247
692 28 0.789423 0.856157 0.552936
176 33 0.803012 0.884537 0.407095
154 28 0.821492 0.861611 0.453029
698 21 0.858256 0.85591 0.569594
954 24 0.845451 0.882983 0.594164
105 31 0.879798 0.874357 0.511781
682 36 0.909095 0.852733 0.390045
752 26 0.941874 0.855434 0.50757
368 33 0.925368 0.889467 0.436774
459 36 0.993457 0.867741 0.410829
843 34 0.960318 0.877595 0.59504
859 39 0.0178584 0.903194 0.504882
979 35 0.0354325 0.931536 0.524515
640 37 0.0683348 0.931019 0.565697
238 25 0.0969249 0.94465 0.571496
1 26 0.0933007 0.907639 0.469277
900 25 0.117282 0.922745 0.435269
255 29 0.149479 0.930206 0.38999
406 30 0.1645 0.903975 0.542395
369 35 0.197141 0.916267 0.626803
169 21 0.163152 0.951585 0.542479
897 31 0.197276 0.946192 0.381804
447 36 0.229723 0.932043 0.422771
204 34 0.25618 0.913389 0.434393
732 28 0.306093 0.902016 0.622649
404 31 0.283208 0.927503 0.447242
87 28 0.335465 0.894445 0.552115
934 25 0.34408 0.919153 0.61698
976 23 0.363577 0.89386 0.556694
256 33 0.318177 0.932898 0.346993
869 32 0.372621 0.931248 0.524827
808 26 0.408247 0.909763 0.521257
609 30 0.433479 0.937923 0.472161
759 36 0.441926 0.905176 0.543663
525 26 0.469184 0.9307 0.430253
844 33 0.479568 0.900872 0.559909
486 37 0.513123 0.909101 0.455655
3 33 0.498201 0.938553 0.492713
206 32 0.55084 0.90393 0.339756
273 28 0.530979 0.9375 0.529283
796 26 0.564281 0.927769 0.610347
316 38 0.58185 0.89307 0.655344
699 23 0.589486 0.924461 0.44095
452 33 0.622708 0.928437 0.558487
986 28 0.65878 0.920415 0.596121
278 33 0.692087 0.941928 0.489836
883 35 0.695123 0.908724 0.476899
187 33 0.722435 0.923796 0.505867
694 31 0.74141 0.899772 0.429071
817 35 0.753973 0.929117 0.444986
909 28 0.78866 0.947138 0.511743
258 38 0.782956 0.912807 0.403426
100 33 0.822602 0.907468 0.558215
168 36 0.818403 0.941497 0.509432
248 26 0.860747 0.904234 0.339248
18 41 0.854156 0.937196 0.421726
495 33 0.8938 0.907613 0.533271
665 41 0.926676 0.923347 0.584754
293 35 0.89435 0.939207 0.564552
271 30 0.984297 0.898033 0.628843
912 38 0.994902 0.93228 0.584116
429 27 0.952985 0.906695 0.53631
350 16 0.953926 0.934331 0.472147
439 28 0.0173822 0.988019 0.661913
944 29 0.0384997 0.965348 0.332896
907 27 0.0109078 0.958951 0.463518
357 36 0.074426 0.965634 0.43232
223 19 0.0965265 0.99305 0.514568
96 30 0.111439 0.972056 0.533226
239 35 0.148414 0.974689 0.414709
2 28 0.128189 0.949881 0.278566
802 35 0.181334 0.972246 0.608397
502 25 0.258147 0.941882 0.422032
64 31 0.22051 0.995201 0.498967
230 31 0.224464 0.96167 0.66269
971 20 0.260518 0.96865 0.453229
276 35 0.286878 0.988384 0.466001
771 26 0.286168 0.956044 0.530899
814 31 0.341971 0.959685 0.542829
473 31 0.354189 0.988212 0.384763
564 27 0.318203 0.988217 0.526628
982 32 0.374001 0.967209 0.482956
985 25 0.396089 0.987499 0.550819
57 32 0.402359 0.953788 0.560035
773 21 0.453379 0.990151 0.407356
104 25 0.472812 1.004 0.602919
227 32 0.424237 0.977779 0.42052
948 36 0.456326 0.958917 0.510599
442 35 0.48732 0.970245 0.511474
707 45 0.526237 0.971404 0.41368
993 30 0.55926 0.956808 0.463317
338 29 0.55753 0.986376 0.446218
474 28 0.625052 0.997036 0.394468
676 31 0.595966 0.951551 0.459137
55 28 0.590228 0.982014 0.414318
84 27 0.619619 0.970436 0.41721
534 33 0.642735 0.951765 0.525431
321 31 0.653872 0.999361 0.480137
968 37 0.673369 0.973442 0.478751
98 35 0.705769 0.971935 0.487295
228 27 0.734497 0.952464 0.632233
772 32 0.742553 0.979219 0.406816
624 24 0.761771 0.9586 0.414419
931 30 0.777739 0.98103 0.485953
288 35 0.808079 0.971519 0.605693
628 31 0.826905 0.999212 0.453002
864 25 0.836773 0.972612 0.546745
312 38 0.870573 0.968246 0.463487
925 23 0.893212 0.99674 0.630772
749 28 0.938317 0.956714 0.491285
334 33 0.910757 0.967117 0.747833
44 33 0.946029 0.986762 0.470542
170 33 0.97013 0.960498 0.5029
740 34 0.988514 0.984865 0.584356
