ITEM: TIMESTEP
750000
ITEM: NUMBER OF ATOMS
1000
ITEM: BOX BOUNDS pp pp pp
-1.7574559000000001e+01 1.7574559000000001e+01
-1.7574559000000001e+01 1.7574559000000001e+01
-5.0000000000000000e-01 5.0000000000000000e-01
ITEM: ATOMS id type xs ys zs
294 29 0.0179226 0.0486801 0.5
357 36 0.0527757 0.0476657 0.5
744 33 0.086475 0.0450514 0.5
332 27 0.109049 0.0715205 0.5
640 37 0.118794 0.0312966 0.5
630 32 0.152797 0.0256594 0.5
272 36 0.143182 0.0575376 0.5
222 33 0.187827 0.0226627 0.5
920 29 0.20648 0.0504321 0.5
473 31 0.219091 0.0182101 0.5
219 28 0.173979 0.0497516 0.5
64 31 0.23772 0.0440635 0.5
585 32 0.249773 0.0146727 0.5
15 33 0.271514 0.0378811 0.5
934 25 0.306069 0.0341384 0.5
976 23 0.292653 0.0109196 0.5
513 27 0.317037 -0.00112942 0.5
987 35 0.341346 0.0194305 0.5
307 32 0.332521 0.0539848 0.5
367 28 0.361114 0.0438692 0.5
945 34 0.37677 0.0177952 0.5
373 35 0.416965 0.0170881 0.5
354 34 0.439024 0.992082 0.5
457 37 0.45426 0.0227093 0.5
887 32 0.470768 -0.00858836 0.5
55 28 0.486966 0.0337621 0.5
993 30 0.500969 0.0081573 0.5
104 25 0.516393 0.0383416 0.5
106 20 0.541693 0.030477 0.5
321 31 0.570699 0.0291164 0.5
569 33 0.588185 0.0564712 0.5
168 36 0.612059 0.985755 0.5
338 29 0.603041 0.0205252 0.5
278 33 0.650728 0.998699 0.5
746 24 0.63104 0.0189871 0.5
258 38 0.662351 0.0350257 0.5
97 23 0.718577 1.00304 0.5
685 30 0.691665 0.01062 0.5
773 21 0.693774 0.0496679 0.5
98 35 0.747773 0.0132829 0.5
723 29 0.782097 0.0258513 0.5
864 25 0.8046 1.00777 0.5
825 36 0.827196 0.0302782 0.5
39 27 0.858448 0.0252424 0.5
628 31 0.876703 0.00134478 0.5
425 32 0.888169 0.0325815 0.5
817 35 0.834016 0.994995 0.5
280 38 0.909795 0.99611 0.5
261 38 0.960839 0.0348451 0.5
32 22 0.991364 0.0538592 0.5
770 41 0.995807 0.0230625 0.5
941 29 0.0395662 0.0780819 0.5
487 30 0.0234425 0.106339 0.5
451 33 0.0610831 0.10283 0.5
854 28 0.078347 0.0757505 0.5
212 25 0.0902636 0.101649 0.5
710 37 0.121458 0.101822 0.5
490 32 0.153812 0.0908878 0.5
326 43 0.187451 0.0831166 0.5
570 34 0.228048 0.0790912 0.5
420 34 0.247946 0.10617 0.5
296 30 0.258848 0.0725163 0.5
345 32 0.29375 0.0652666 0.5
984 32 0.282995 0.098552 0.5
399 34 0.319685 0.0854225 0.5
966 25 0.356525 0.0770071 0.5
778 24 0.381592 0.0664141 0.5
637 28 0.403686 0.0460191 0.5
503 37 0.410306 0.0780573 0.5
896 29 0.433578 0.0475721 0.5
62 28 0.464433 0.0547126 0.5
273 28 0.447548 0.0806247 0.5
148 34 0.495846 0.0636204 0.5
186 31 0.525617 0.0748898 0.5
656 21 0.55477 0.0905684 0.5
316 38 0.554581 0.0583317 0.5
224 30 0.582099 0.0876495 0.5
553 32 0.607302 0.108894 0.5
772 32 0.613918 0.0778031 0.5
769 29 0.619571 0.0455167 0.5
187 33 0.644777 0.0671269 0.5
601 31 0.637196 0.100574 0.5
340 22 0.674227 0.0674099 0.5
931 30 0.703514 0.08055 0.5
203 39 0.722511 0.0371627 0.5
336 35 0.672021 0.0965743 0.5
519 24 0.759114 0.0429148 0.5
494 23 0.771121 0.0689946 0.5
624 24 0.797614 0.0491026 0.5
728 34 0.739586 0.0669971 0.5
938 23 0.816616 0.0671292 0.5
309 34 0.847615 0.0807763 0.5
124 28 0.878059 0.0891127 0.5
499 19 0.848165 0.0509904 0.5
925 23 0.875679 0.0611884 0.5
349 40 0.923045 0.0305824 0.5
293 35 0.906222 0.0640478 0.5
72 26 0.937977 0.0612616 0.5
832 41 0.969638 0.077817 0.5
397 32 0.0066234 0.0780375 0.5
528 33 0.991747 0.11028 0.5
614 29 0.00493978 0.13937 0.5
775 33 0.0407205 0.136108 0.5
400 34 0.0274256 0.167455 0.5
779 37 0.0778015 0.132594 0.5
41 31 0.0659138 0.164738 0.5
240 29 0.096388 0.160197 0.5
596 27 0.110384 0.132751 0.5
787 27 0.134737 0.153138 0.5
554 29 0.143737 0.124285 0.5
989 34 0.168242 0.146435 0.5
67 30 0.175314 0.115745 0.5
408 28 0.199423 0.142575 0.5
867 37 0.211737 0.112547 0.5
403 25 0.228127 0.138636 0.5
927 32 0.271011 0.131305 0.5
66 31 0.308941 0.11606 0.5
174 31 0.282117 0.165992 0.5
706 32 0.340896 0.112641 0.5
145 25 0.362114 0.138195 0.5
747 24 0.300249 0.143876 0.5
967 24 0.370372 0.103493 0.5
247 24 0.396854 0.108112 0.5
898 28 0.427278 0.106924 0.5
392 30 0.391044 0.136474 0.5
671 25 0.368796 0.16488 0.5
409 30 0.455916 0.115618 0.5
211 19 0.475007 0.0891685 0.5
801 26 0.483706 0.123468 0.5
776 31 0.501202 0.0980444 0.5
924 26 0.531736 0.105561 0.5
699 23 0.510925 0.125633 0.5
275 32 0.537625 0.136557 0.5
52 37 0.569656 0.120579 0.5
716 30 0.633017 0.13207 0.5
540 35 0.597545 0.141349 0.5
477 31 0.624983 0.163661 0.5
571 42 0.670519 0.13779 0.5
265 41 0.658381 0.177585 0.5
561 32 0.700589 0.11397 0.5
383 35 0.710387 0.14943 0.5
965 29 0.734495 0.128024 0.5
748 35 0.76091 0.106791 0.5
758 22 0.775512 0.132168 0.5
260 28 0.729384 0.0976274 0.5
9 28 0.792858 0.086385 0.5
413 26 0.819604 0.0977072 0.5
895 29 0.859863 0.114713 0.5
253 29 0.89097 0.117254 0.5
605 24 0.872483 0.146997 0.5
350 16 0.910583 0.0910195 0.5
593 25 0.904812 0.143388 0.5
428 28 0.937957 0.0927296 0.5
108 33 0.943933 0.141598 0.5
92 28 0.921577 0.11785 0.5
712 29 0.9597 0.113886 0.5
12 34 0.992321 0.169375 0.5
308 26 0.9763 0.142466 0.5
888 28 0.00997863 0.195989 0.5
283 36 0.0284173 0.224427 0.5
623 36 0.0483148 0.194394 0.5
700 26 0.0599167 0.227937 0.5
577 36 0.0833878 0.206675 0.5
313 33 0.118255 0.183676 0.5
645 33 0.152744 0.177278 0.5
849 35 0.114752 0.218864 0.5
735 28 0.142941 0.206305 0.5
427 31 0.189109 0.174098 0.5
77 20 0.170311 0.199865 0.5
826 30 0.219671 0.16695 0.5
702 28 0.231764 0.194575 0.5
639 22 0.254706 0.155533 0.5
982 32 0.262251 0.192402 0.5
214 34 0.293363 0.19671 0.5
560 29 0.312876 0.168544 0.5
116 23 0.325417 0.195276 0.5
841 31 0.331257 0.142211 0.5
850 23 0.342524 0.176624 0.5
651 24 0.380771 0.193446 0.5
545 38 0.402164 0.169959 0.5
175 43 0.427455 0.14257 0.5
799 27 0.433885 0.176799 0.5
274 27 0.465239 0.18781 0.5
563 35 0.465359 0.154137 0.5
252 35 0.498816 0.195382 0.5
852 34 0.502283 0.155744 0.5
707 45 0.532668 0.175758 0.5
753 32 0.562987 0.156174 0.5
780 29 0.564469 0.192892 0.5
774 33 0.592915 0.17608 0.5
386 36 0.621573 0.196368 0.5
949 34 0.590607 0.209261 0.5
407 26 0.675088 0.204464 0.5
930 26 0.689202 0.170486 0.5
951 29 0.742179 0.157318 0.5
115 23 0.727312 0.181783 0.5
928 33 0.809568 0.127143 0.5
470 29 0.776555 0.162026 0.5
973 22 0.785071 0.18797 0.5
594 33 0.839779 0.14002 0.5
422 30 0.806565 0.158122 0.5
80 29 0.814094 0.191866 0.5
331 26 0.83379 0.169665 0.5
416 34 0.861564 0.181575 0.5
893 30 0.890266 0.169392 0.5
242 35 0.921691 0.17036 0.5
724 40 0.902432 0.202581 0.5
143 30 0.955853 0.17456 0.5
516 40 0.975801 0.203215 0.5
556 29 0.937711 0.202112 0.5
343 33 0.994847 0.236382 0.5
981 30 0.0207739 0.256752 0.5
523 22 0.0491051 0.26071 0.5
370 37 0.0876217 0.2411 0.5
34 31 0.0773022 0.274406 0.5
511 37 0.141955 0.238967 0.5
793 29 0.147487 0.273388 0.5
28 27 0.177456 0.225804 0.5
199 36 0.200572 0.206792 0.5
423 34 0.180791 0.266245 0.5
953 29 0.237094 0.223393 0.5
173 30 0.268924 0.224261 0.5
704 34 0.207327 0.240484 0.5
426 23 0.249896 0.248963 0.5
133 32 0.313804 0.225633 0.5
140 30 0.278164 0.253759 0.5
885 25 0.340614 0.237077 0.5
733 37 0.353503 0.209705 0.5
181 32 0.390466 0.225621 0.5
111 28 0.368018 0.247812 0.5
788 33 0.414162 0.203296 0.5
6 15 0.397541 0.251338 0.5
762 32 0.420205 0.236029 0.5
284 35 0.444913 0.212062 0.5
8 25 0.475833 0.216919 0.5
344 21 0.475548 0.243877 0.5
163 26 0.50363 0.227283 0.5
736 26 0.531833 0.212143 0.5
475 26 0.475251 0.273248 0.5
573 30 0.505621 0.259082 0.5
114 26 0.530077 0.240602 0.5
446 28 0.561397 0.223428 0.5
667 27 0.585311 0.240182 0.5
352 27 0.61576 0.22773 0.5
320 33 0.644153 0.250269 0.5
875 34 0.647866 0.217872 0.5
179 31 0.677689 0.249704 0.5
508 28 0.696726 0.225815 0.5
122 30 0.70369 0.197319 0.5
611 36 0.731909 0.219074 0.5
335 33 0.718968 0.249762 0.5
364 32 0.756095 0.186002 0.5
632 30 0.752156 0.248276 0.5
635 23 0.764044 0.217361 0.5
837 33 0.795613 0.21742 0.5
17 27 0.785329 0.247326 0.5
208 32 0.822708 0.234071 0.5
139 29 0.83911 0.207112 0.5
359 34 0.855988 0.234863 0.5
58 27 0.88751 0.232151 0.5
718 20 0.87093 0.210826 0.5
291 27 0.923777 0.228578 0.5
638 47 0.95771 0.239178 0.5
193 28 0.939833 0.272385 0.5
673 27 0.984372 0.269236 0.5
604 22 0.0422208 0.287083 0.5
939 37 0.0123269 0.294731 0.5
913 29 0.0343622 0.318316 0.5
311 28 0.997826 0.323392 0.5
598 34 0.0963405 0.299238 0.5
378 31 0.0644337 0.308351 0.5
492 39 0.114863 0.263448 0.5
40 39 0.129897 0.302498 0.5
202 38 0.16225 0.317557 0.5
652 41 0.193108 0.299041 0.5
905 30 0.225146 0.266955 0.5
279 32 0.228472 0.299384 0.5
911 29 0.254898 0.276096 0.5
21 31 0.310615 0.258756 0.5
745 35 0.287825 0.28542 0.5
608 29 0.31995 0.289222 0.5
678 30 0.344168 0.27058 0.5
462 29 0.384333 0.273892 0.5
820 29 0.34812 0.305041 0.5
990 40 0.41716 0.274638 0.5
642 31 0.448019 0.255179 0.5
194 31 0.476434 0.307242 0.5
371 29 0.450907 0.289498 0.5
768 31 0.502911 0.290529 0.5
955 28 0.534541 0.301998 0.5
315 28 0.558868 0.252979 0.5
361 33 0.534041 0.271538 0.5
551 30 0.564818 0.283499 0.5
445 35 0.611309 0.259475 0.5
764 37 0.596571 0.291895 0.5
232 27 0.632583 0.285934 0.5
241 33 0.663812 0.279554 0.5
785 33 0.679221 0.308808 0.5
857 39 0.698188 0.277406 0.5
418 34 0.7172 0.307474 0.5
36 37 0.734696 0.27882 0.5
713 37 0.754678 0.310563 0.5
861 35 0.771551 0.277542 0.5
902 30 0.790964 0.304282 0.5
95 32 0.810029 0.264911 0.5
691 38 0.821591 0.296256 0.5
155 30 0.842046 0.265349 0.5
94 25 0.853174 0.293513 0.5
906 38 0.874598 0.268847 0.5
443 28 0.87042 0.317048 0.5
109 42 0.900766 0.2951 0.5
254 33 0.907707 0.256961 0.5
946 30 0.94261 0.305397 0.5
835 33 0.976485 0.300344 0.5
899 23 0.0314357 0.372622 0.5
337 29 0.016638 0.347562 0.5
846 33 0.0482106 0.346768 0.5
149 27 0.0734652 0.363436 0.5
506 37 0.0845058 0.334718 0.5
56 27 0.105975 0.367115 0.5
847 37 0.122836 0.339134 0.5
807 23 0.152021 0.347142 0.5
910 30 0.135439 0.373213 0.5
363 25 0.164795 0.373459 0.5
970 22 0.208499 0.326218 0.5
879 33 0.184056 0.344877 0.5
524 33 0.239498 0.332418 0.5
687 33 0.260742 0.307194 0.5
103 33 0.217013 0.355639 0.5
674 28 0.272785 0.344225 0.5
722 33 0.292225 0.317302 0.5
950 32 0.325814 0.328904 0.5
631 30 0.360172 0.332754 0.5
469 36 0.380631 0.306464 0.5
131 28 0.392586 0.337964 0.5
626 35 0.415442 0.313216 0.5
721 27 0.424676 0.344325 0.5
20 35 0.446892 0.321285 0.5
943 44 0.507769 0.328239 0.5
93 42 0.496154 0.365452 0.5
329 34 0.529655 0.356109 0.5
434 24 0.541071 0.329534 0.5
353 29 0.567992 0.316301 0.5
42 40 0.595878 0.335597 0.5
251 32 0.564767 0.351786 0.5
690 27 0.6213 0.313074 0.5
78 20 0.605982 0.364066 0.5
734 32 0.631554 0.3462 0.5
866 29 0.649739 0.317943 0.5
300 36 0.667033 0.349862 0.5
30 32 0.700522 0.343318 0.5
205 27 0.733809 0.335429 0.5
505 33 0.782365 0.334812 0.5
654 25 0.75623 0.353874 0.5
871 28 0.794703 0.362394 0.5
583 24 0.812344 0.326497 0.5
391 25 0.842583 0.321706 0.5
714 29 0.823903 0.356224 0.5
190 39 0.858602 0.350106 0.5
842 28 0.890617 0.34484 0.5
7 35 0.920766 0.32711 0.5
493 25 0.911524 0.361528 0.5
812 27 0.963074 0.327932 0.5
809 27 0.98389 0.349804 0.5
739 42 0.944037 0.354611 0.5
917 39 0.0282335 0.404283 0.5
588 26 0.00354841 0.375143 0.5
465 27 0.0572082 0.387237 0.5
188 31 0.086837 0.39 0.5
803 31 0.0582164 0.417633 0.5
33 30 0.0923316 0.423513 0.5
882 36 0.118105 0.401841 0.5
766 29 0.180095 0.413276 0.5
636 22 0.122236 0.430875 0.5
29 29 0.151322 0.400994 0.5
901 37 0.195082 0.384459 0.5
347 44 0.197717 0.443768 0.5
455 31 0.24925 0.364008 0.5
355 31 0.227294 0.386989 0.5
856 28 0.302478 0.352089 0.5
126 32 0.286395 0.376754 0.5
185 36 0.316918 0.395273 0.5
431 31 0.338653 0.35923 0.5
547 33 0.350223 0.391059 0.5
27 33 0.371491 0.366661 0.5
641 29 0.41021 0.369394 0.5
497 32 0.385961 0.395427 0.5
414 34 0.450197 0.364131 0.5
83 31 0.473719 0.337549 0.5
526 30 0.471193 0.388229 0.5
689 30 0.502081 0.399524 0.5
988 20 0.527764 0.385973 0.5
804 29 0.553306 0.381346 0.5
607 37 0.585194 0.388022 0.5
980 28 0.61848 0.410109 0.5
134 34 0.632745 0.37782 0.5
303 29 0.666493 0.386025 0.5
794 31 0.684327 0.411698 0.5
544 28 0.64977 0.410922 0.5
558 31 0.693724 0.373615 0.5
348 27 0.722667 0.366649 0.5
960 40 0.718353 0.403592 0.5
59 23 0.745431 0.385665 0.5
629 25 0.772822 0.381625 0.5
880 40 0.780687 0.415485 0.5
485 34 0.847919 0.382626 0.5
586 42 0.811358 0.390765 0.5
398 37 0.841032 0.416616 0.5
156 25 0.871562 0.406555 0.5
750 32 0.873271 0.449463 0.5
164 33 0.880453 0.376146 0.5
697 36 0.903229 0.40236 0.5
858 33 0.932765 0.388693 0.5
22 34 0.929811 0.424884 0.5
668 23 0.989901 0.407241 0.5
177 24 0.973309 0.377021 0.5
633 30 0.958909 0.412157 0.5
708 26 0.978958 0.43752 0.5
14 29 0.00908612 0.435282 0.5
141 32 0.0308781 0.502413 0.5
381 32 0.0718731 0.449836 0.5
390 32 0.0407023 0.44344 0.5
542 32 0.10356 0.453434 0.5
969 29 0.13697 0.458213 0.5
529 28 0.171342 0.46652 0.5
791 27 0.151174 0.430755 0.5
286 31 0.189966 0.491377 0.5
167 27 0.229107 0.456604 0.5
592 25 0.229648 0.418837 0.5
763 34 0.256363 0.400171 0.5
71 34 0.254486 0.438521 0.5
500 41 0.285298 0.419547 0.5
935 25 0.284026 0.453321 0.5
471 25 0.333812 0.422709 0.5
709 30 0.313195 0.440781 0.5
4 33 0.364594 0.425212 0.5
978 23 0.392581 0.428718 0.5
512 31 0.414195 0.40946 0.5
90 39 0.41076 0.454321 0.5
518 30 0.377289 0.456931 0.5
894 27 0.44168 0.398006 0.5
533 35 0.441158 0.432901 0.5
221 23 0.445322 0.461707 0.5
983 32 0.47562 0.418624 0.5
74 35 0.474629 0.452212 0.5
450 24 0.502521 0.438687 0.5
874 37 0.529026 0.416899 0.5
218 23 0.559746 0.411093 0.5
107 29 0.539922 0.447876 0.5
207 31 0.589192 0.420662 0.5
458 36 0.629404 0.441685 0.5
646 28 0.596229 0.451408 0.5
962 46 0.667195 0.442144 0.5
576 33 0.641357 0.472171 0.5
388 26 0.703897 0.435534 0.5
731 35 0.709866 0.468579 0.5
574 22 0.735283 0.438342 0.5
805 27 0.7431 0.465537 0.5
112 25 0.748691 0.414541 0.5
160 29 0.765353 0.445876 0.5
216 41 0.790837 0.466408 0.5
738 32 0.810516 0.436691 0.5
11 37 0.820894 0.485985 0.5
727 36 0.83977 0.452339 0.5
806 27 0.90132 0.438463 0.5
415 24 0.895049 0.467597 0.5
183 28 0.954709 0.453832 0.5
889 28 0.925105 0.458562 0.5
964 33 0.949773 0.485752 0.5
304 28 0.0198121 0.466598 0.5
848 29 0.983001 0.466495 0.5
833 33 0.0501696 0.475287 0.5
926 34 0.117962 0.484167 0.5
61 32 0.0827514 0.480076 0.5
947 33 0.0632058 0.507785 0.5
162 32 0.126762 0.516515 0.5
610 30 0.230685 0.490745 0.5
380 38 0.1533 0.494843 0.5
613 27 0.174523 0.524501 0.5
231 32 0.255106 0.471526 0.5
618 35 0.205873 0.519914 0.5
683 34 0.259049 0.502783 0.5
811 26 0.282981 0.482089 0.5
566 31 0.310918 0.473971 0.5
209 26 0.270722 0.530908 0.5
956 33 0.2963 0.510169 0.5
393 38 0.342595 0.455479 0.5
287 35 0.340892 0.505586 0.5
184 27 0.363399 0.4827 0.5
405 29 0.395773 0.488958 0.5
302 26 0.419464 0.514857 0.5
292 28 0.425617 0.484212 0.5
341 25 0.45435 0.487987 0.5
661 30 0.472242 0.515205 0.5
266 35 0.485799 0.484816 0.5
865 22 0.514256 0.463277 0.5
319 29 0.515223 0.49942 0.5
401 25 0.567626 0.441446 0.5
541 33 0.547435 0.479569 0.5
314 31 0.572247 0.498236 0.5
729 23 0.574355 0.469663 0.5
10 29 0.600247 0.479707 0.5
333 30 0.633242 0.505991 0.5
717 30 0.600951 0.510772 0.5
102 22 0.661666 0.499583 0.5
433 25 0.676323 0.474728 0.5
701 37 0.693799 0.500715 0.5
876 31 0.731794 0.493999 0.5
974 26 0.761005 0.520678 0.5
138 31 0.76378 0.489358 0.5
46 34 0.78574 0.541578 0.5
932 27 0.814618 0.526047 0.5
225 34 0.792066 0.504882 0.5
783 26 0.83958 0.510484 0.5
663 33 0.858891 0.48252 0.5
643 28 0.884592 0.499804 0.5
818 25 0.866826 0.522836 0.5
460 34 0.90781 0.523921 0.5
568 31 0.916871 0.490296 0.5
466 42 0.971485 0.512845 0.5
903 31 0.999946 0.491187 0.5
235 35 0.00607222 0.526408 0.5
929 33 0.980595 0.547381 0.5
483 28 0.0410686 0.534226 0.5
117 31 0.050073 0.56562 0.5
531 26 0.0194993 0.556935 0.5
191 36 0.0714082 0.539795 0.5
720 28 0.0651358 0.593862 0.5
226 31 0.095449 0.512345 0.5
195 37 0.105949 0.543762 0.5
504 39 0.140468 0.548628 0.5
438 27 0.1728 0.55467 0.5
936 25 0.200508 0.550644 0.5
923 33 0.187756 0.584116 0.5
873 32 0.239804 0.529449 0.5
798 34 0.223004 0.571859 0.5
991 33 0.254972 0.558813 0.5
653 24 0.289152 0.555116 0.5
389 39 0.319456 0.540096 0.5
688 27 0.351959 0.535566 0.5
933 29 0.340268 0.565182 0.5
384 41 0.382976 0.522264 0.5
180 33 0.374759 0.556172 0.5
992 37 0.411478 0.547302 0.5
197 29 0.44463 0.530691 0.5
19 28 0.470439 0.547908 0.5
543 33 0.50437 0.531227 0.5
995 25 0.502696 0.563917 0.5
845 27 0.54216 0.512113 0.5
890 33 0.535961 0.541784 0.5
834 31 0.562339 0.56112 0.5
994 28 0.564881 0.530987 0.5
132 31 0.593121 0.542969 0.5
365 27 0.622733 0.533024 0.5
281 25 0.624628 0.585364 0.5
657 25 0.657683 0.527333 0.5
123 18 0.617317 0.557992 0.5
246 33 0.69945 0.53288 0.5
507 29 0.72888 0.527193 0.5
616 30 0.719488 0.557613 0.5
51 31 0.754865 0.551276 0.5
840 26 0.772877 0.577795 0.5
137 33 0.740635 0.581731 0.5
786 38 0.805608 0.568587 0.5
999 36 0.836371 0.550903 0.5
411 31 0.857347 0.580649 0.5
675 27 0.867363 0.55195 0.5
644 30 0.899313 0.554588 0.5
760 26 0.938122 0.514244 0.5
295 33 0.923377 0.579484 0.5
617 33 0.937454 0.546085 0.5
63 29 0.995163 0.580072 0.5
972 29 0.96057 0.573275 0.5
517 36 0.00905676 0.614135 0.5
244 29 0.0267833 0.586541 0.5
491 30 0.0530633 0.654561 0.5
579 28 0.0410392 0.611879 0.5
737 34 0.0875085 0.572453 0.5
851 31 0.0713034 0.627352 0.5
634 18 0.124633 0.610221 0.5
325 32 0.120897 0.582751 0.5
922 36 0.156702 0.591573 0.5
559 33 0.15413 0.62527 0.5
45 28 0.183881 0.614722 0.5
110 30 0.214123 0.602804 0.5
453 25 0.24358 0.594109 0.5
449 26 0.203686 0.638797 0.5
565 27 0.232341 0.62643 0.5
546 32 0.279151 0.581546 0.5
249 34 0.26258 0.618835 0.5
297 30 0.302679 0.60633 0.5
789 28 0.309623 0.575401 0.5
79 37 0.334634 0.597419 0.5
615 28 0.369911 0.586515 0.5
664 32 0.3985 0.608853 0.5
210 28 0.400778 0.577952 0.5
402 37 0.441674 0.565984 0.5
537 27 0.424973 0.594071 0.5
69 35 0.454481 0.609135 0.5
838 23 0.471886 0.575904 0.5
591 26 0.484932 0.598364 0.5
53 35 0.534391 0.577718 0.5
262 32 0.561296 0.594529 0.5
669 40 0.591103 0.578053 0.5
521 32 0.603848 0.611537 0.5
127 23 0.572181 0.632709 0.5
484 34 0.646872 0.557154 0.5
855 31 0.654751 0.590474 0.5
550 25 0.657519 0.619406 0.5
259 20 0.631679 0.613902 0.5
120 30 0.699145 0.631852 0.5
328 23 0.68283 0.603199 0.5
35 37 0.680884 0.566311 0.5
290 31 0.709824 0.588289 0.5
658 35 0.796118 0.603208 0.5
648 25 0.794151 0.633377 0.5
602 25 0.762323 0.603749 0.5
515 29 0.826658 0.595692 0.5
670 34 0.825768 0.627152 0.5
372 27 0.852374 0.610986 0.5
374 34 0.889947 0.584221 0.5
703 30 0.880679 0.620737 0.5
257 33 0.91042 0.609975 0.5
908 21 0.930803 0.632216 0.5
60 27 0.944093 0.607868 0.5
815 30 0.958747 0.634098 0.5
730 31 0.973902 0.603597 0.5
330 27 0.0320936 0.677133 0.5
142 31 0.0226579 0.647302 0.5
86 30 0.0128726 0.701445 0.5
476 22 0.0967172 0.600304 0.5
580 27 0.0696419 0.683848 0.5
881 27 0.0826194 0.656423 0.5
606 34 0.0479668 0.706757 0.5
479 21 0.146013 0.653113 0.5
299 25 0.116567 0.658726 0.5
821 26 0.132957 0.680618 0.5
622 28 0.103745 0.627049 0.5
595 35 0.164361 0.678353 0.5
781 29 0.174596 0.648438 0.5
937 32 0.20109 0.667344 0.5
743 32 0.234919 0.6583 0.5
461 32 0.26004 0.681607 0.5
715 23 0.264785 0.649606 0.5
182 33 0.295104 0.641789 0.5
480 26 0.295025 0.673095 0.5
711 34 0.328087 0.631767 0.5
997 34 0.354328 0.653154 0.5
816 32 0.324406 0.672411 0.5
959 27 0.361117 0.618275 0.5
269 32 0.388393 0.639945 0.5
236 41 0.415542 0.666065 0.5
339 36 0.424189 0.630481 0.5
672 31 0.456382 0.641248 0.5
863 26 0.455712 0.670769 0.5
277 26 0.488813 0.628164 0.5
387 29 0.538656 0.621269 0.5
958 23 0.482764 0.658358 0.5
823 28 0.512919 0.605666 0.5
464 30 0.550969 0.656408 0.5
16 32 0.520365 0.646946 0.5
24 29 0.638533 0.641657 0.5
99 25 0.609705 0.640713 0.5
620 28 0.617448 0.669613 0.5
192 36 0.583523 0.661931 0.5
50 32 0.649564 0.674613 0.5
43 35 0.671841 0.650127 0.5
360 18 0.70107 0.658939 0.5
441 30 0.727722 0.652243 0.5
379 27 0.749078 0.62886 0.5
306 27 0.724028 0.614258 0.5
532 28 0.74744 0.677856 0.5
91 25 0.78732 0.676999 0.5
5 33 0.768754 0.653411 0.5
578 29 0.812693 0.657291 0.5
915 27 0.854064 0.642848 0.5
963 27 0.85282 0.670082 0.5
584 25 0.880319 0.655899 0.5
603 29 0.883929 0.685068 0.5
940 27 0.904189 0.640221 0.5
680 29 0.912989 0.669706 0.5
165 22 0.940269 0.656471 0.5
660 28 0.942333 0.683827 0.5
396 31 0.990396 0.639956 0.5
377 27 0.968757 0.668639 0.5
755 25 0.00361184 0.67085 0.5
819 30 0.982484 0.695375 0.5
147 30 0.0219398 0.733959 0.5
662 32 0.998088 0.757741 0.5
590 25 0.0518474 0.739397 0.5
406 30 0.08056 0.710299 0.5
589 24 0.0780182 0.74928 0.5
535 25 0.100635 0.685307 0.5
777 27 0.104416 0.728019 0.5
765 24 0.126766 0.710629 0.5
797 31 0.191283 0.697534 0.5
719 23 0.154195 0.70709 0.5
437 32 0.176181 0.733198 0.5
548 36 0.209855 0.72528 0.5
136 37 0.22518 0.69194 0.5
435 23 0.245963 0.715336 0.5
38 29 0.275706 0.709703 0.5
514 25 0.303578 0.703902 0.5
536 28 0.298824 0.73203 0.5
81 27 0.347547 0.69063 0.5
213 32 0.332442 0.718517 0.5
612 27 0.371631 0.706739 0.5
795 35 0.379973 0.675758 0.5
827 40 0.40486 0.700832 0.5
310 33 0.447228 0.69979 0.5
609 30 0.434255 0.729607 0.5
49 27 0.506573 0.674539 0.5
394 29 0.479267 0.695193 0.5
530 29 0.517252 0.703176 0.5
914 25 0.537228 0.683086 0.5
496 30 0.567054 0.694928 0.5
424 23 0.543723 0.71249 0.5
472 27 0.581492 0.727085 0.5
810 31 0.59797 0.693658 0.5
282 27 0.687147 0.680465 0.5
510 35 0.632007 0.702456 0.5
233 27 0.666516 0.706241 0.5
784 28 0.717008 0.681634 0.5
217 32 0.69955 0.709796 0.5
268 43 0.736206 0.711271 0.5
463 26 0.768054 0.697957 0.5
432 29 0.76996 0.727326 0.5
82 33 0.796703 0.710004 0.5
324 38 0.824576 0.69032 0.5
682 36 0.829277 0.72829 0.5
151 37 0.857284 0.704275 0.5
68 31 0.886431 0.720707 0.5
581 23 0.911253 0.701377 0.5
868 38 0.947926 0.716559 0.5
650 29 0.916937 0.730449 0.5
824 31 0.99074 0.726402 0.5
417 25 0.964072 0.743049 0.5
872 39 0.00238159 0.792197 0.5
454 32 0.0379146 0.800058 0.5
385 32 0.0130702 0.825631 0.5
382 37 0.0304202 0.765406 0.5
448 32 0.0669875 0.775276 0.5
468 27 0.109623 0.758498 0.5
255 29 0.133046 0.77674 0.5
440 39 0.139324 0.742606 0.5
884 36 0.166408 0.76727 0.5
150 38 0.199964 0.763076 0.5
119 29 0.186306 0.793551 0.5
649 35 0.232529 0.751233 0.5
301 36 0.259908 0.775037 0.5
552 30 0.228121 0.783703 0.5
129 36 0.266091 0.740977 0.5
135 29 0.296661 0.759974 0.5
575 32 0.325827 0.750663 0.5
921 37 0.359927 0.738889 0.5
430 33 0.354725 0.770494 0.5
655 29 0.393372 0.732416 0.5
444 33 0.388451 0.766091 0.5
327 31 0.469314 0.725469 0.5
13 31 0.422077 0.761486 0.5
243 33 0.453507 0.753811 0.5
977 35 0.498691 0.754704 0.5
322 23 0.497213 0.724683 0.5
26 39 0.534511 0.767276 0.5
76 26 0.525822 0.734914 0.5
751 24 0.552783 0.741961 0.5
761 29 0.569314 0.772677 0.5
567 29 0.611364 0.727761 0.5
756 28 0.597564 0.753811 0.5
159 34 0.628792 0.755473 0.5
220 30 0.607721 0.782073 0.5
619 32 0.647343 0.730156 0.5
366 29 0.657795 0.766382 0.5
47 31 0.677251 0.740953 0.5
161 27 0.711063 0.738475 0.5
677 38 0.689797 0.771541 0.5
878 32 0.723425 0.766685 0.5
621 27 0.745663 0.745805 0.5
481 30 0.757749 0.782805 0.5
752 26 0.799037 0.740196 0.5
158 35 0.81935 0.762656 0.5
154 28 0.774072 0.757732 0.5
85 23 0.862014 0.736026 0.5
271 30 0.852305 0.764826 0.5
318 35 0.8871 0.755234 0.5
351 31 0.872524 0.789534 0.5
157 32 0.938431 0.755055 0.5
376 40 0.909909 0.782393 0.5
853 20 0.945856 0.794125 0.5
767 39 0.969144 0.775128 0.5
757 38 0.969998 0.813712 0.5
822 35 0.0490769 0.831913 0.5
886 28 0.0259799 0.853466 0.5
900 25 0.0508416 0.867675 0.5
166 30 0.0709651 0.807679 0.5
230 31 0.0980449 0.786343 0.5
527 28 0.121292 0.807262 0.5
869 32 0.154783 0.800044 0.5
239 35 0.133489 0.836818 0.5
245 22 0.0971859 0.821683 0.5
369 35 0.181804 0.826627 0.5
957 36 0.214476 0.814573 0.5
597 24 0.249963 0.805556 0.5
918 39 0.243186 0.835228 0.5
404 31 0.2782 0.832967 0.5
870 30 0.288063 0.791006 0.5
891 33 0.305509 0.816752 0.5
410 40 0.320749 0.78574 0.5
467 31 0.341583 0.810575 0.5
627 33 0.361905 0.834256 0.5
679 42 0.411483 0.793371 0.5
725 38 0.373935 0.801507 0.5
65 31 0.397263 0.826974 0.5
844 33 0.431507 0.824401 0.5
582 28 0.443104 0.784758 0.5
48 25 0.459259 0.810415 0.5
152 34 0.476951 0.785396 0.5
128 31 0.509473 0.789931 0.5
130 28 0.48807 0.815805 0.5
625 32 0.550313 0.797145 0.5
522 35 0.526864 0.819168 0.5
201 34 0.582417 0.804739 0.5
285 30 0.616278 0.816148 0.5
412 29 0.637148 0.789901 0.5
178 23 0.66983 0.794398 0.5
84 27 0.657676 0.819158 0.5
263 29 0.688091 0.823406 0.5
1000 35 0.710247 0.799678 0.5
829 25 0.740781 0.807973 0.5
860 30 0.771784 0.810006 0.5
54 29 0.792542 0.78288 0.5
153 37 0.806359 0.814204 0.5
587 36 0.839784 0.795245 0.5
843 34 0.869088 0.821546 0.5
520 31 0.837895 0.831398 0.5
665 41 0.893633 0.85166 0.5
828 29 0.903045 0.816584 0.5
705 29 0.927624 0.848797 0.5
248 26 0.934894 0.81815 0.5
75 21 0.954806 0.840488 0.5
482 29 0.987091 0.842656 0.5
836 29 0.0790183 0.873231 0.5
907 27 0.0555401 0.898387 0.5
859 39 0.0229724 0.89725 0.5
942 26 0.08059 0.842605 0.5
223 19 0.0861589 0.89932 0.5
800 23 0.107157 0.853953 0.5
169 21 0.106505 0.881253 0.5
792 31 0.134026 0.877029 0.5
557 37 0.162351 0.857679 0.5
693 29 0.207462 0.84477 0.5
204 34 0.196495 0.875729 0.5
447 36 0.165212 0.892572 0.5
87 28 0.272282 0.868164 0.5
362 32 0.229776 0.868642 0.5
681 24 0.295384 0.854684 0.5
538 34 0.31762 0.876388 0.5
234 34 0.326828 0.839661 0.5
808 26 0.347498 0.867222 0.5
198 35 0.387019 0.859532 0.5
189 13 0.415664 0.848698 0.5
814 31 0.412895 0.879649 0.5
70 28 0.439839 0.862675 0.5
23 28 0.466314 0.87581 0.5
206 32 0.462907 0.842007 0.5
599 33 0.496917 0.846035 0.5
250 30 0.496739 0.87969 0.5
782 28 0.554988 0.834777 0.5
862 25 0.532027 0.850693 0.5
501 34 0.566358 0.874095 0.5
421 34 0.589094 0.84833 0.5
684 25 0.618349 0.868061 0.5
323 30 0.636118 0.8429 0.5
986 28 0.669342 0.850123 0.5
952 34 0.648597 0.873168 0.5
877 29 0.724268 0.83206 0.5
436 31 0.702179 0.855323 0.5
600 35 0.735535 0.861876 0.5
692 28 0.755019 0.835773 0.5
229 32 0.769059 0.864101 0.5
916 25 0.785197 0.838034 0.5
694 31 0.802981 0.875265 0.5
489 22 0.815284 0.848699 0.5
176 33 0.834474 0.869163 0.5
289 22 0.862252 0.852829 0.5
749 28 0.901146 0.885554 0.5
459 36 0.962204 0.869869 0.5
346 29 0.930378 0.878455 0.5
44 33 0.919655 0.910954 0.5
105 31 0.950674 0.906347 0.5
439 28 0.999122 0.871308 0.5
912 38 0.982645 0.899041 0.5
375 30 0.0220719 0.959574 0.5
37 29 0.0406511 0.925073 0.5
979 35 0.0565119 0.954062 0.5
113 35 0.0769711 0.926954 0.5
264 31 0.098011 0.950235 0.5
509 27 0.109327 0.917989 0.5
238 25 0.135814 0.906738 0.5
125 30 0.131852 0.937094 0.5
572 34 0.163041 0.928321 0.5
897 31 0.194373 0.912544 0.5
971 20 0.198323 0.940321 0.5
25 33 0.25708 0.894703 0.5
686 30 0.22682 0.903821 0.5
790 32 0.255691 0.928649 0.5
2 28 0.22549 0.934702 0.5
525 26 0.290368 0.895475 0.5
996 26 0.285832 0.922797 0.5
144 34 0.306467 0.947416 0.5
478 29 0.31822 0.909799 0.5
305 30 0.346068 0.896194 0.5
488 26 0.339993 0.937235 0.5
442 35 0.381156 0.893144 0.5
227 32 0.38122 0.926684 0.5
267 27 0.408259 0.910737 0.5
948 36 0.440834 0.895811 0.5
732 28 0.477293 0.902218 0.5
3 33 0.535862 0.883907 0.5
742 31 0.505558 0.910729 0.5
196 31 0.569023 0.905339 0.5
975 27 0.537447 0.914678 0.5
452 33 0.560788 0.936564 0.5
270 31 0.596707 0.889165 0.5
539 31 0.626184 0.897763 0.5
486 37 0.599944 0.92617 0.5
839 27 0.636126 0.927497 0.5
395 28 0.682926 0.881321 0.5
419 33 0.6612 0.906276 0.5
696 27 0.691664 0.910226 0.5
358 28 0.712725 0.885283 0.5
961 30 0.721635 0.920236 0.5
909 28 0.780809 0.89646 0.5
200 34 0.74948 0.891041 0.5
726 29 0.790852 0.933544 0.5
368 33 0.758767 0.923613 0.5
754 31 0.81188 0.904626 0.5
288 35 0.846171 0.907486 0.5
171 34 0.867742 0.881747 0.5
101 27 0.886944 0.911765 0.5
215 28 0.937106 0.938016 0.5
100 33 0.900717 0.938808 0.5
73 31 0.955922 0.969157 0.5
740 34 0.00850285 0.927849 0.5
170 33 0.969033 0.935533 0.5
659 35 0.988804 0.962654 0.5
342 39 0.0352457 0.0171889 0.5
96 30 0.0424239 0.984287 0.5
802 35 0.106924 0.997715 0.5
1 26 0.0827553 0.976164 0.5
562 37 0.0688167 0.00742147 0.5
944 29 0.123942 0.967827 0.5
276 35 0.141143 0.994009 0.5
647 30 0.153706 0.959339 0.5
502 25 0.173031 0.997036 0.5
771 26 0.200581 0.99301 0.5
564 27 0.182043 0.967938 0.5
118 26 0.213712 0.961937 0.5
172 21 0.242112 0.965927 0.5
985 25 0.229582 0.988466 0.5
456 31 0.264193 0.983923 0.5
813 30 0.27492 0.953316 0.5
256 33 0.295166 0.97874 0.5
741 34 0.333387 0.971875 0.5
676 31 0.363323 0.957947 0.5
498 29 0.359869 0.989171 0.5
830 29 0.392711 0.989296 0.5
759 36 0.396968 0.956685 0.5
31 23 0.42806 0.964612 0.5
549 30 0.422493 0.93596 0.5
919 24 0.45146 0.930236 0.5
298 38 0.458173 0.959036 0.5
237 35 0.493386 0.964876 0.5
121 32 0.482425 0.934148 0.5
57 32 0.530425 0.947815 0.5
474 28 0.548442 1.00381 0.5
317 37 0.523404 0.983546 0.5
892 23 0.555016 0.969658 0.5
968 37 0.584769 0.960154 0.5
831 29 0.580971 0.999396 0.5
796 26 0.618464 0.954695 0.5
89 30 0.646896 0.965663 0.5
534 33 0.678539 0.978722 0.5
228 27 0.664484 0.940529 0.5
998 31 0.695173 0.941386 0.5
356 25 0.709973 0.975481 0.5
954 24 0.732441 0.946772 0.5
883 35 0.742004 0.979502 0.5
666 32 0.769563 0.958791 0.5
312 38 0.82443 0.935898 0.5
904 34 0.803017 0.967001 0.5
18 41 0.776842 0.992485 0.5
695 21 0.834854 0.964282 0.5
88 41 0.860088 0.94115 0.5
698 21 0.860234 0.976697 0.5
429 27 0.893243 0.968842 0.5
495 33 0.923745 0.965216 0.5
555 30 0.944552 0.996905 0.5
334 33 0.977226 0.994451 0.5
146 25 0.0102614 0.988907 0.5
