ITEM: TIMESTEP
250000
ITEM: NUMBER OF ATOMS
1000
ITEM: BOX BOUNDS pp pp pp
-1.5066572000000001e+01 1.5066572000000001e+01
-1.5066572000000001e+01 1.5066572000000001e+01
-5.0000000000000000e-01 5.0000000000000000e-01
ITEM: ATOMS id type xs ys zs
812 27 0.036459 0.0483014 0.5
636 22 0.0621027 0.0338722 0.5
407 26 0.0402599 0.0132371 0.5
555 30 0.0125835 0.026169 0.5
376 40 0.0954613 0.0340666 0.5
837 33 0.131406 0.0149845 0.5
293 35 0.0711485 0.00408439 0.5
628 31 0.129206 0.0479676 0.5
18 41 0.164636 0.0397496 0.5
754 31 0.163265 0.00344822 0.5
966 25 0.192937 0.0224294 0.5
917 39 0.225065 0.0354922 0.5
239 35 0.251602 0.0133422 0.5
953 29 0.219651 0.00147561 0.5
608 29 0.25836 0.0474424 0.5
841 31 0.285767 0.0244827 0.5
403 25 0.314363 0.0359402 0.5
144 34 0.310565 0.00163498 0.5
491 30 0.346943 0.0441707 0.5
372 27 0.37119 0.0230073 0.5
368 33 0.339089 0.0114742 0.5
607 37 0.402968 0.0346816 0.5
646 28 0.432283 0.0469091 0.5
263 29 0.43208 0.0120898 0.5
90 39 0.395854 0.00260383 0.5
121 32 0.463434 0.0271911 0.5
874 37 0.500546 0.0287791 0.5
963 27 0.486574 0.000357513 0.5
944 29 0.534469 0.0390778 0.5
761 29 0.5609 0.0201355 0.5
426 23 0.527892 0.00951296 0.5
566 31 0.568221 0.0524763 0.5
329 34 0.594264 0.0304385 0.5
91 25 0.621688 0.0416579 0.5
443 28 0.617166 0.00763811 0.5
485 34 0.584786 -0.00469646 0.5
529 28 0.645854 0.0156566 0.5
500 41 0.655016 0.0495443 0.5
17 27 0.678832 0.0264101 0.5
821 26 0.670769 -0.00563502 0.5
166 30 0.709213 0.0355665 0.5
225 34 0.736923 0.0166239 0.5
100 33 0.747897 0.0472558 0.5
217 32 0.701617 0.00368553 0.5
27 33 0.775117 0.0263758 0.5
377 27 0.812311 0.0184416 0.5
12 34 0.803133 0.0490211 0.5
6 15 0.790251 -0.000371017 0.5
574 22 0.8368 0.035259 0.5
806 27 0.866759 0.0245447 0.5
202 38 0.841153 0.0035295 0.5
776 31 0.89207 0.0424704 0.5
369 35 0.923456 0.0279521 0.5
244 29 0.896419 0.00871482 0.5
751 24 0.926191 -0.00453458 0.5
672 31 0.951209 0.047516 0.5
698 21 0.954626 0.0134849 0.5
662 32 0.979126 0.0357262 0.5
849 35 0.986268 0.00302475 0.5
967 24 0.00526146 0.0588074 0.5
199 36 0.0344806 0.0812591 0.5
196 31 0.023808 0.112591 0.5
542 32 0.0596724 0.108238 0.5
216 41 0.0686828 0.0660236 0.5
785 33 0.105978 0.0719116 0.5
783 26 0.0887836 0.0967813 0.5
120 30 0.118937 0.102869 0.5
882 36 0.143309 0.0780283 0.5
534 33 0.175688 0.0780413 0.5
707 45 0.156343 0.114955 0.5
885 25 0.188881 0.108768 0.5
856 28 0.198769 0.0551027 0.5
690 26 0.233874 0.0672558 0.5
405 29 0.209864 0.0860211 0.5
621 27 0.23808 0.100211 0.5
400 34 0.289184 0.0590235 0.5
664 32 0.264001 0.08047 0.5
935 25 0.295099 0.0916949 0.5
556 29 0.269304 0.113803 0.5
72 26 0.376932 0.0572853 0.5
325 32 0.321209 0.0696039 0.5
232 27 0.322852 0.103817 0.5
701 37 0.35269 0.0805939 0.5
888 28 0.355262 0.115841 0.5
914 25 0.406175 0.0674949 0.5
361 33 0.384891 0.0922026 0.5
333 30 0.415205 0.102583 0.5
794 31 0.434916 0.0793285 0.5
424 23 0.456754 0.0583486 0.5
497 32 0.486393 0.0600048 0.5
581 23 0.448932 0.109056 0.5
434 24 0.465575 0.0861875 0.5
296 30 0.478806 0.116963 0.5
637 28 0.496288 0.0924476 0.5
4 33 0.514355 0.0641483 0.5
476 22 0.542862 0.0668027 0.5
251 32 0.529627 0.0962598 0.5
402 37 0.564331 0.0899836 0.5
832 41 0.597753 0.0708601 0.5
988 19 0.629988 0.0702817 0.5
383 35 0.590967 0.109842 0.5
176 33 0.624557 0.100041 0.5
679 42 0.688064 0.0673573 0.5
136 37 0.656811 0.0882866 0.5
156 25 0.650679 0.12042 0.5
44 33 0.681733 0.107047 0.5
353 29 0.720819 0.0647872 0.5
264 31 0.715953 0.097639 0.5
544 28 0.746331 0.0842793 0.5
980 28 0.741064 0.118858 0.5
283 36 0.774567 0.066313 0.5
557 37 0.773445 0.104817 0.5
829 25 0.800649 0.086114 0.5
345 32 0.860947 0.0574051 0.5
901 37 0.825241 0.109441 0.5
652 41 0.829545 0.0705731 0.5
611 36 0.858216 0.094759 0.5
548 36 0.921804 0.0633935 0.5
803 31 0.889485 0.0787111 0.5
618 35 0.886633 0.115131 0.5
962 46 0.920073 0.10053 0.5
723 29 0.976385 0.0707841 0.5
729 23 0.947076 0.0813628 0.5
736 26 1.00123 0.0917935 0.5
326 43 0.966961 0.106049 0.5
259 20 0.0453212 0.133603 0.5
428 28 0.0209568 0.146129 0.5
8 25 0.0473419 0.164184 0.5
787 27 0.0968431 0.1264 0.5
132 31 0.0721889 0.144482 0.5
686 30 0.0769052 0.179441 0.5
458 36 0.128823 0.138478 0.5
84 27 0.101667 0.159326 0.5
815 30 0.132033 0.173285 0.5
140 30 0.184155 0.139463 0.5
902 30 0.157968 0.155108 0.5
709 30 0.186635 0.173211 0.5
303 28 0.214012 0.121129 0.5
728 34 0.245131 0.134102 0.5
36 37 0.215235 0.155273 0.5
105 31 0.249971 0.170038 0.5
331 26 0.29852 0.12512 0.5
651 24 0.275765 0.145387 0.5
228 27 0.306421 0.157372 0.5
753 32 0.327635 0.137631 0.5
96 30 0.338591 0.168409 0.5
977 35 0.361862 0.146524 0.5
834 31 0.372797 0.180479 0.5
734 32 0.387815 0.124742 0.5
658 36 0.424887 0.132712 0.5
645 33 0.397428 0.158291 0.5
949 34 0.433085 0.164918 0.5
593 25 0.458193 0.140151 0.5
21 31 0.466926 0.172421 0.5
94 25 0.488283 0.147027 0.5
674 28 0.500461 0.178597 0.5
421 34 0.512698 0.121956 0.5
309 34 0.552156 0.12397 0.5
730 32 0.524055 0.151409 0.5
478 29 0.554852 0.157764 0.5
887 33 0.61928 0.132161 0.5
892 23 0.584145 0.139803 0.5
157 32 0.585889 0.170287 0.5
125 30 0.614507 0.166748 0.5
278 33 0.644969 0.154474 0.5
727 36 0.677495 0.142481 0.5
206 32 0.67348 0.176111 0.5
418 34 0.71009 0.128866 0.5
289 22 0.704547 0.164483 0.5
141 32 0.735085 0.153014 0.5
41 31 0.798488 0.13013 0.5
553 32 0.766651 0.143076 0.5
177 24 0.761247 0.172849 0.5
39 26 0.79209 0.163515 0.5
983 32 0.852616 0.131461 0.5
375 30 0.821678 0.147394 0.5
822 35 0.849737 0.165893 0.5
313 33 0.880056 0.15199 0.5
233 27 0.942157 0.127328 0.5
781 29 0.910907 0.140537 0.5
716 30 0.905435 0.174392 0.5
606 34 0.936764 0.161638 0.5
929 33 0.993361 0.126313 0.5
973 22 0.964341 0.143112 0.5
764 37 0.991534 0.16106 0.5
586 42 0.963813 0.178926 0.5
792 31 0.0186697 0.180672 0.5
541 33 0.047066 0.198302 0.5
925 23 0.0487193 0.230817 0.5
532 28 0.0201795 0.215907 0.5
720 28 0.105943 0.193552 0.5
179 31 0.0768946 0.213196 0.5
423 34 0.106166 0.22761 0.5
668 23 0.161023 0.190031 0.5
687 33 0.135747 0.208249 0.5
116 23 0.163655 0.224717 0.5
427 31 0.188199 0.209701 0.5
349 40 0.219521 0.190745 0.5
275 32 0.194135 0.244254 0.5
693 29 0.220644 0.225076 0.5
616 30 0.251145 0.206846 0.5
506 37 0.247889 0.242944 0.5
175 43 0.281193 0.18311 0.5
357 36 0.314336 0.194171 0.5
786 38 0.285266 0.22103 0.5
384 42 0.323366 0.231312 0.5
740 34 0.348715 0.202788 0.5
65 31 0.357737 0.236639 0.5
201 34 0.407201 0.190393 0.5
126 32 0.384412 0.21511 0.5
348 27 0.416128 0.222517 0.5
504 39 0.440608 0.19903 0.5
431 31 0.452313 0.229684 0.5
587 36 0.475976 0.205989 0.5
531 26 0.484482 0.238944 0.5
318 35 0.532201 0.185056 0.5
711 34 0.563867 0.194965 0.5
70 28 0.508847 0.211182 0.5
9 28 0.540082 0.220054 0.5
1000 35 0.574861 0.2285 0.5
347 44 0.601682 0.20287 0.5
323 30 0.607012 0.239799 0.5
46 34 0.639447 0.189739 0.5
64 31 0.635213 0.22023 0.5
282 27 0.669255 0.208198 0.5
772 32 0.663802 0.242466 0.5
910 30 0.701929 0.1959 0.5
578 29 0.72982 0.184533 0.5
999 36 0.69568 0.229117 0.5
277 26 0.726482 0.218476 0.5
381 32 0.753287 0.237337 0.5
519 24 0.817632 0.180169 0.5
364 32 0.756924 0.204891 0.5
191 37 0.787154 0.19428 0.5
971 20 0.783018 0.226381 0.5
632 30 0.814029 0.216748 0.5
188 31 0.876312 0.189885 0.5
545 38 0.843672 0.201371 0.5
135 29 0.842121 0.236023 0.5
85 23 0.872385 0.223024 0.5
480 26 0.930526 0.195758 0.5
575 32 0.901942 0.20943 0.5
869 32 0.899703 0.243475 0.5
807 23 0.927964 0.227873 0.5
288 35 0.95879 0.214124 0.5
959 27 0.990823 0.198425 0.5
793 29 0.990168 0.228875 0.5
336 35 0.0195244 0.248678 0.5
26 39 0.0487045 0.263136 0.5
631 30 0.0499017 0.301769 0.5
641 29 0.0213884 0.283776 0.5
422 30 0.0779127 0.246576 0.5
82 33 0.0796131 0.281272 0.5
951 29 0.108453 0.263108 0.5
234 34 0.109707 0.296559 0.5
524 33 0.137521 0.244073 0.5
702 28 0.140019 0.277549 0.5
965 29 0.168158 0.258193 0.5
127 23 0.167052 0.292509 0.5
550 25 0.194241 0.277128 0.5
634 18 0.192161 0.30569 0.5
77 20 0.219057 0.261833 0.5
826 30 0.222776 0.297395 0.5
620 28 0.249022 0.275893 0.5
765 24 0.27426 0.253814 0.5
446 28 0.305378 0.26025 0.5
956 33 0.281444 0.284556 0.5
29 29 0.315879 0.292819 0.5
875 34 0.337149 0.267277 0.5
814 31 0.349045 0.300571 0.5
665 41 0.371759 0.271687 0.5
549 30 0.395792 0.247368 0.5
767 39 0.427135 0.254562 0.5
306 27 0.405791 0.280393 0.5
92 27 0.439869 0.28608 0.5
112 25 0.463742 0.260736 0.5
62 28 0.47212 0.291032 0.5
479 21 0.493821 0.267583 0.5
133 32 0.503525 0.300116 0.5
101 27 0.517279 0.24093 0.5
619 32 0.550099 0.251503 0.5
893 30 0.525298 0.276038 0.5
83 31 0.558478 0.281617 0.5
688 26 0.583428 0.261113 0.5
471 24 0.585409 0.292678 0.5
42 40 0.614339 0.278002 0.5
118 26 0.634188 0.251766 0.5
23 28 0.636483 0.300693 0.5
805 27 0.691793 0.259373 0.5
35 37 0.65772 0.275644 0.5
590 25 0.687158 0.287266 0.5
438 27 0.72296 0.25092 0.5
267 27 0.716888 0.282528 0.5
47 31 0.748823 0.270149 0.5
625 32 0.809098 0.24664 0.5
911 29 0.779233 0.258415 0.5
343 33 0.773569 0.295098 0.5
212 25 0.804398 0.281762 0.5
726 29 0.868188 0.255604 0.5
142 31 0.831556 0.303976 0.5
585 32 0.834986 0.269523 0.5
725 38 0.864326 0.289733 0.5
906 38 0.926705 0.264698 0.5
495 33 0.895191 0.280102 0.5
791 27 0.926532 0.299241 0.5
713 37 0.957538 0.249239 0.5
503 37 0.987177 0.266611 0.5
187 33 0.992289 0.301655 0.5
95 32 0.957472 0.286438 0.5
865 22 0.0222727 0.315869 0.5
872 39 0.0248354 0.348645 0.5
512 31 0.0527353 0.332933 0.5
913 29 0.0557281 0.36589 0.5
22 34 0.083795 0.315866 0.5
344 21 0.113011 0.333645 0.5
351 31 0.0835167 0.348256 0.5
985 25 0.112779 0.36446 0.5
594 33 0.139584 0.311957 0.5
186 31 0.168957 0.322326 0.5
714 29 0.141328 0.344675 0.5
600 35 0.177398 0.355156 0.5
475 26 0.201841 0.331768 0.5
111 28 0.210642 0.362983 0.5
300 36 0.232533 0.334326 0.5
40 39 0.243082 0.372034 0.5
51 31 0.256372 0.308736 0.5
563 35 0.290457 0.317733 0.5
287 35 0.267882 0.344011 0.5
722 33 0.304812 0.34848 0.5
796 26 0.326481 0.321375 0.5
108 33 0.336964 0.356133 0.5
732 28 0.358545 0.331485 0.5
958 23 0.371761 0.360651 0.5
692 28 0.382121 0.305062 0.5
866 29 0.415205 0.31157 0.5
394 29 0.390169 0.335415 0.5
128 31 0.42313 0.343384 0.5
928 33 0.448396 0.318784 0.5
20 35 0.483762 0.326329 0.5
454 32 0.458183 0.350805 0.5
595 35 0.495629 0.356375 0.5
904 34 0.537259 0.308577 0.5
864 25 0.517049 0.33343 0.5
908 21 0.528497 0.361614 0.5
771 25 0.548277 0.339606 0.5
281 25 0.56905 0.318462 0.5
691 38 0.604794 0.318689 0.5
850 23 0.582366 0.3453 0.5
110 30 0.614934 0.350091 0.5
119 29 0.666852 0.310758 0.5
760 26 0.639856 0.329711 0.5
867 37 0.649332 0.36214 0.5
633 30 0.675159 0.337522 0.5
295 33 0.703522 0.315046 0.5
533 35 0.740502 0.308839 0.5
968 38 0.709891 0.34802 0.5
271 30 0.739068 0.34489 0.5
294 29 0.800136 0.315708 0.5
974 26 0.769415 0.328813 0.5
341 25 0.767149 0.360011 0.5
784 28 0.796636 0.348388 0.5
696 27 0.826812 0.335862 0.5
818 25 0.821962 0.367779 0.5
790 32 0.859015 0.322706 0.5
338 29 0.852564 0.353546 0.5
489 21 0.880214 0.345492 0.5
918 39 0.897125 0.317617 0.5
777 27 0.905774 0.356073 0.5
237 35 0.933561 0.33201 0.5
579 28 0.96355 0.317363 0.5
750 32 0.992102 0.334977 0.5
240 29 0.995507 0.369625 0.5
465 27 0.965047 0.350288 0.5
833 33 0.0257564 0.385684 0.5
145 25 0.0276207 0.420152 0.5
748 35 0.0551746 0.401245 0.5
154 28 0.0847116 0.381109 0.5
883 35 0.0872647 0.416115 0.5
447 37 0.117429 0.398841 0.5
399 34 0.149445 0.374989 0.5
129 36 0.185532 0.388292 0.5
907 27 0.153046 0.404469 0.5
1 26 0.149753 0.433974 0.5
576 33 0.181494 0.422242 0.5
410 40 0.218168 0.403345 0.5
417 25 0.240182 0.429533 0.5
640 37 0.280791 0.376427 0.5
470 29 0.315713 0.382626 0.5
804 29 0.257874 0.404799 0.5
266 35 0.292506 0.408984 0.5
32 22 0.269567 0.434716 0.5
942 25 0.326569 0.412732 0.5
543 33 0.351208 0.387868 0.5
758 22 0.383907 0.390087 0.5
152 34 0.360543 0.417605 0.5
406 30 0.403009 0.368019 0.5
404 31 0.435762 0.375496 0.5
79 37 0.393291 0.425533 0.5
560 29 0.414791 0.400056 0.5
602 25 0.424071 0.431773 0.5
840 26 0.446188 0.408241 0.5
870 30 0.46912 0.38329 0.5
324 38 0.505151 0.387138 0.5
321 31 0.480908 0.413961 0.5
432 29 0.560965 0.36772 0.5
810 31 0.515433 0.418473 0.5
297 30 0.53855 0.392627 0.5
820 29 0.550705 0.42655 0.5
981 30 0.592934 0.376438 0.5
573 30 0.572095 0.40066 0.5
43 35 0.625867 0.384764 0.5
49 27 0.604457 0.409692 0.5
137 33 0.683141 0.369553 0.5
678 30 0.63537 0.419127 0.5
997 34 0.660683 0.396398 0.5
584 25 0.692682 0.40192 0.5
778 24 0.71369 0.378592 0.5
862 25 0.745567 0.379268 0.5
474 28 0.724684 0.404273 0.5
683 34 0.758814 0.409379 0.5
960 40 0.789159 0.385321 0.5
546 32 0.790983 0.423693 0.5
853 20 0.88213 0.373294 0.5
861 35 0.82071 0.402505 0.5
868 38 0.851552 0.385951 0.5
98 35 0.850684 0.420143 0.5
109 42 0.935477 0.370705 0.5
613 27 0.880444 0.403871 0.5
695 21 0.906823 0.386419 0.5
601 31 0.909556 0.419398 0.5
801 26 0.936783 0.404776 0.5
398 38 0.966207 0.385952 0.5
680 29 0.998809 0.404381 0.5
675 27 0.966831 0.419715 0.5
854 28 0.0562001 0.435164 0.5
684 25 0.0269508 0.450942 0.5
204 34 0.0257243 0.484476 0.5
401 25 0.0541064 0.466788 0.5
460 34 0.119404 0.437794 0.5
567 29 0.0794749 0.487544 0.5
342 39 0.0875621 0.452743 0.5
610 30 0.110698 0.473649 0.5
721 27 0.141037 0.463926 0.5
10 29 0.167861 0.488101 0.5
284 35 0.174973 0.456602 0.5
739 42 0.211094 0.444514 0.5
954 24 0.19818 0.47782 0.5
220 30 0.225498 0.48114 0.5
667 27 0.248407 0.456288 0.5
948 36 0.302183 0.438476 0.5
99 25 0.256254 0.487095 0.5
572 34 0.279409 0.466461 0.5
639 22 0.295293 0.495878 0.5
13 31 0.312927 0.4706 0.5
286 31 0.336225 0.443379 0.5
412 29 0.369551 0.451579 0.5
386 36 0.347649 0.479346 0.5
117 31 0.382069 0.4835 0.5
371 29 0.405885 0.457951 0.5
246 33 0.415441 0.490986 0.5
45 28 0.436495 0.463847 0.5
11 37 0.458301 0.4398 0.5
932 27 0.493277 0.443367 0.5
198 35 0.47167 0.471109 0.5
335 34 0.504161 0.474997 0.5
184 27 0.527608 0.450633 0.5
486 37 0.53958 0.481624 0.5
163 26 0.563072 0.459589 0.5
354 34 0.582659 0.434236 0.5
899 23 0.61256 0.443339 0.5
816 32 0.573051 0.493179 0.5
311 28 0.594205 0.466926 0.5
522 35 0.626022 0.477895 0.5
599 33 0.670103 0.43072 0.5
322 23 0.641266 0.446152 0.5
496 30 0.659143 0.467589 0.5
654 25 0.686075 0.458832 0.5
319 29 0.705317 0.432967 0.5
878 32 0.737037 0.433642 0.5
93 42 0.716578 0.471305 0.5
605 24 0.748967 0.463553 0.5
435 23 0.767087 0.442592 0.5
842 28 0.774168 0.478086 0.5
916 25 0.79396 0.457264 0.5
269 32 0.820615 0.439576 0.5
876 31 0.824838 0.472498 0.5
539 31 0.852696 0.455147 0.5
450 24 0.854622 0.487939 0.5
231 32 0.879956 0.438416 0.5
146 25 0.937484 0.434938 0.5
630 32 0.884483 0.472061 0.5
60 27 0.910558 0.45276 0.5
359 34 0.912709 0.48838 0.5
149 27 0.937881 0.467614 0.5
946 30 0.997827 0.435591 0.5
789 28 0.96661 0.45223 0.5
441 30 0.997259 0.467049 0.5
827 40 0.969214 0.487422 0.5
7 35 0.053193 0.5039 0.5
830 29 0.0266699 0.52123 0.5
213 32 0.0286999 0.553683 0.5
747 24 0.0560696 0.53462 0.5
552 30 0.106852 0.50546 0.5
718 20 0.0802771 0.519179 0.5
624 24 0.103497 0.534513 0.5
48 25 0.130763 0.529054 0.5
320 33 0.136532 0.495932 0.5
226 31 0.161613 0.522471 0.5
352 27 0.148396 0.555194 0.5
449 26 0.181525 0.544833 0.5
151 37 0.197174 0.510574 0.5
235 35 0.233449 0.512289 0.5
194 31 0.213438 0.541533 0.5
15 33 0.248726 0.543596 0.5
53 35 0.270333 0.516314 0.5
554 29 0.282068 0.550551 0.5
304 28 0.304326 0.526091 0.5
507 29 0.324953 0.504392 0.5
388 26 0.361871 0.511905 0.5
395 28 0.341527 0.534918 0.5
978 23 0.370079 0.541582 0.5
547 33 0.392703 0.517359 0.5
362 32 0.401328 0.547959 0.5
69 35 0.429694 0.526389 0.5
25 33 0.45014 0.496472 0.5
526 30 0.48442 0.504544 0.5
292 28 0.462397 0.530027 0.5
481 30 0.494905 0.537646 0.5
915 27 0.51716 0.509041 0.5
411 31 0.550255 0.512235 0.5
755 25 0.527399 0.534668 0.5
30 32 0.557795 0.546434 0.5
123 18 0.602116 0.496428 0.5
570 34 0.62437 0.516441 0.5
185 36 0.586955 0.526463 0.5
484 34 0.618657 0.548959 0.5
147 30 0.683961 0.490907 0.5
195 37 0.653155 0.503699 0.5
56 27 0.652265 0.536517 0.5
635 23 0.681252 0.523024 0.5
774 33 0.744116 0.493718 0.5
50 32 0.711932 0.509587 0.5
254 33 0.708665 0.54205 0.5
392 30 0.739661 0.527619 0.5
285 30 0.799614 0.49667 0.5
839 27 0.770201 0.510599 0.5
88 41 0.76814 0.549342 0.5
248 25 0.796322 0.527747 0.5
477 31 0.829077 0.50673 0.5
992 37 0.825002 0.540946 0.5
261 38 0.880878 0.509008 0.5
643 28 0.855036 0.526898 0.5
190 39 0.940666 0.509787 0.5
131 28 0.88098 0.544889 0.5
459 36 0.911169 0.526845 0.5
972 29 0.942466 0.544169 0.5
19 28 0.999298 0.504106 0.5
514 25 0.999892 0.538077 0.5
207 31 0.971516 0.524674 0.5
970 22 0.0553308 0.565153 0.5
315 28 0.0333515 0.585876 0.5
889 28 0.0361017 0.616334 0.5
74 35 0.0666383 0.596238 0.5
647 30 0.00267346 0.607957 0.5
316 38 0.0842547 0.556693 0.5
247 24 0.11736 0.55958 0.5
160 29 0.100308 0.589413 0.5
205 27 0.090681 0.620728 0.5
419 33 0.123472 0.616636 0.5
472 27 0.135057 0.584805 0.5
627 33 0.167628 0.579579 0.5
197 29 0.157476 0.610097 0.5
909 28 0.200923 0.572978 0.5
717 30 0.230459 0.570995 0.5
257 33 0.192865 0.606818 0.5
989 34 0.227551 0.601386 0.5
890 33 0.316722 0.558059 0.5
525 26 0.259209 0.576755 0.5
984 32 0.26583 0.608082 0.5
437 32 0.292251 0.581602 0.5
148 34 0.302415 0.611671 0.5
937 32 0.3481 0.566798 0.5
122 30 0.379454 0.573707 0.5
78 20 0.325448 0.588675 0.5
494 23 0.360141 0.596626 0.5
638 47 0.440187 0.563816 0.5
370 37 0.391876 0.606976 0.5
735 28 0.411329 0.581468 0.5
150 38 0.431434 0.607823 0.5
800 23 0.472348 0.558985 0.5
3 33 0.499383 0.57435 0.5
230 31 0.467933 0.592343 0.5
209 26 0.499759 0.606825 0.5
337 29 0.52964 0.564212 0.5
527 28 0.529166 0.595915 0.5
327 31 0.559494 0.583051 0.5
681 24 0.558329 0.613305 0.5
945 35 0.58624 0.56217 0.5
415 24 0.587325 0.598197 0.5
843 34 0.614941 0.585057 0.5
276 35 0.646861 0.569614 0.5
975 27 0.678768 0.553532 0.5
334 33 0.643307 0.605381 0.5
759 36 0.674949 0.58843 0.5
463 26 0.738079 0.56585 0.5
501 34 0.708133 0.578618 0.5
880 40 0.704219 0.61407 0.5
612 27 0.735846 0.601716 0.5
183 28 0.797092 0.55964 0.5
757 39 0.768464 0.587338 0.5
223 19 0.790149 0.614714 0.5
515 29 0.806382 0.592715 0.5
328 23 0.826459 0.571425 0.5
238 25 0.853067 0.560732 0.5
236 41 0.846099 0.598504 0.5
224 30 0.911167 0.561229 0.5
134 34 0.881483 0.579941 0.5
828 29 0.880695 0.615428 0.5
433 25 0.939477 0.577552 0.5
113 35 0.911743 0.594582 0.5
947 34 0.970787 0.559377 0.5
38 29 0.941209 0.611984 0.5
67 30 1.00224 0.572646 0.5
724 40 0.971249 0.592353 0.5
811 26 0.0639279 0.63106 0.5
518 30 0.0391838 0.649093 0.5
873 32 0.00656926 0.638427 0.5
505 33 0.0107185 0.669401 0.5
468 27 0.073584 0.658932 0.5
731 35 0.107876 0.648464 0.5
439 28 0.100782 0.681125 0.5
193 28 0.134375 0.671988 0.5
903 31 0.18018 0.637628 0.5
387 29 0.145572 0.64192 0.5
852 34 0.166848 0.66873 0.5
86 30 0.214074 0.631284 0.5
523 22 0.244179 0.629624 0.5
565 27 0.201616 0.662232 0.5
291 27 0.231932 0.657941 0.5
657 25 0.261363 0.652232 0.5
391 25 0.283018 0.635306 0.5
863 26 0.28983 0.667641 0.5
650 29 0.313833 0.643961 0.5
5 33 0.320812 0.675681 0.5
825 36 0.336663 0.618491 0.5
253 29 0.369483 0.628943 0.5
808 26 0.345314 0.652565 0.5
467 31 0.378981 0.658413 0.5
773 21 0.408275 0.63544 0.5
708 26 0.436305 0.643609 0.5
817 36 0.412473 0.668593 0.5
355 31 0.445164 0.677923 0.5
604 22 0.461902 0.623199 0.5
59 23 0.489705 0.632205 0.5
741 34 0.468478 0.652848 0.5
562 37 0.505061 0.663481 0.5
268 43 0.526178 0.631834 0.5
482 29 0.537056 0.673144 0.5
858 33 0.55786 0.645058 0.5
719 23 0.613164 0.619164 0.5
173 30 0.584331 0.630686 0.5
52 37 0.575212 0.674622 0.5
243 33 0.606565 0.655725 0.5
669 40 0.670829 0.625901 0.5
302 26 0.636125 0.639879 0.5
55 28 0.634289 0.673313 0.5
299 25 0.663062 0.657136 0.5
520 31 0.731289 0.636625 0.5
158 35 0.697396 0.652782 0.5
558 31 0.729127 0.670935 0.5
969 29 0.760505 0.623783 0.5
200 34 0.759721 0.658123 0.5
924 26 0.788175 0.644063 0.5
76 26 0.788404 0.674426 0.5
396 31 0.818261 0.625959 0.5
697 36 0.852067 0.635858 0.5
258 38 0.820889 0.661007 0.5
644 30 0.855434 0.667803 0.5
931 30 0.913662 0.630487 0.5
436 31 0.8848 0.647997 0.5
89 30 0.885318 0.683089 0.5
891 33 0.91592 0.663841 0.5
642 31 0.972132 0.625825 0.5
367 28 0.943815 0.645338 0.5
987 35 0.975744 0.657956 0.5
490 32 0.0454045 0.679956 0.5
510 35 0.0210041 0.703218 0.5
685 30 0.0255817 0.739218 0.5
466 42 0.0561838 0.721524 0.5
462 29 0.0723907 0.688881 0.5
617 33 0.0933649 0.712991 0.5
455 31 0.115901 0.736567 0.5
775 33 0.126721 0.701957 0.5
180 33 0.191451 0.693433 0.5
172 21 0.157044 0.698759 0.5
743 32 0.14773 0.729783 0.5
706 32 0.181071 0.724209 0.5
61 32 0.22562 0.688455 0.5
461 32 0.215768 0.719361 0.5
339 36 0.251124 0.714546 0.5
921 37 0.260188 0.683732 0.5
884 36 0.290634 0.703997 0.5
738 32 0.276057 0.738337 0.5
390 32 0.308157 0.734022 0.5
844 33 0.354272 0.682251 0.5
256 33 0.327838 0.706978 0.5
444 33 0.363444 0.717008 0.5
898 28 0.340328 0.737886 0.5
993 30 0.387488 0.692654 0.5
107 29 0.397536 0.723694 0.5
537 27 0.422058 0.699807 0.5
178 23 0.429791 0.730849 0.5
159 34 0.47922 0.688689 0.5
453 25 0.452585 0.709918 0.5
598 34 0.485561 0.721491 0.5
798 34 0.460243 0.742104 0.5
373 35 0.514935 0.700002 0.5
192 36 0.552204 0.704525 0.5
782 28 0.517433 0.732513 0.5
990 40 0.54854 0.737653 0.5
591 26 0.608385 0.690168 0.5
499 19 0.584489 0.707675 0.5
836 29 0.611988 0.72002 0.5
153 37 0.583799 0.740139 0.5
314 31 0.666516 0.686592 0.5
221 23 0.637511 0.702822 0.5
746 24 0.641147 0.733386 0.5
340 22 0.663758 0.715149 0.5
689 30 0.699522 0.687767 0.5
676 31 0.695683 0.719234 0.5
588 26 0.727661 0.703845 0.5
397 33 0.727953 0.736074 0.5
502 25 0.758385 0.69054 0.5
75 21 0.812972 0.691777 0.5
955 28 0.756979 0.723019 0.5
219 28 0.787038 0.70653 0.5
780 29 0.78789 0.737696 0.5
143 30 0.81768 0.721976 0.5
943 44 0.847846 0.697354 0.5
272 36 0.850272 0.733467 0.5
663 33 0.883956 0.715936 0.5
528 33 0.914097 0.698981 0.5
656 21 0.91032 0.732325 0.5
379 27 0.93967 0.71777 0.5
710 37 0.946773 0.682469 0.5
262 32 0.986086 0.690043 0.5
33 30 0.993583 0.722614 0.5
350 16 0.964819 0.708878 0.5
846 34 0.966653 0.740378 0.5
161 27 0.0581414 0.761815 0.5
380 38 0.0258092 0.774941 0.5
894 27 0.0550124 0.796005 0.5
498 29 0.0840523 0.745899 0.5
215 28 0.084398 0.780679 0.5
673 27 0.10942 0.768977 0.5
442 35 0.114742 0.801036 0.5
941 29 0.168014 0.757012 0.5
81 27 0.137303 0.762314 0.5
517 36 0.151939 0.790763 0.5
670 34 0.188763 0.78367 0.5
451 33 0.201075 0.750553 0.5
255 29 0.237984 0.744374 0.5
659 35 0.225523 0.775804 0.5
374 35 0.250584 0.802101 0.5
623 36 0.263038 0.768028 0.5
330 27 0.285589 0.795687 0.5
535 25 0.298357 0.76441 0.5
58 27 0.371095 0.74755 0.5
189 13 0.325557 0.760265 0.5
71 34 0.320122 0.788913 0.5
493 25 0.350504 0.768368 0.5
769 29 0.35409 0.800091 0.5
629 25 0.379889 0.780189 0.5
835 33 0.401909 0.754423 0.5
763 34 0.435803 0.763891 0.5
957 36 0.411729 0.788112 0.5
682 36 0.445719 0.799931 0.5
551 30 0.495677 0.754448 0.5
979 35 0.46991 0.776792 0.5
609 30 0.503768 0.787388 0.5
102 22 0.52697 0.76434 0.5
961 30 0.535119 0.794737 0.5
250 30 0.558789 0.771305 0.5
930 26 0.567511 0.802815 0.5
561 32 0.616407 0.756023 0.5
214 34 0.591187 0.77715 0.5
103 33 0.62474 0.789546 0.5
749 28 0.671166 0.744102 0.5
270 31 0.648472 0.765755 0.5
742 31 0.655998 0.800191 0.5
332 27 0.67801 0.774552 0.5
580 27 0.702617 0.752638 0.5
420 34 0.733021 0.767541 0.5
569 33 0.707414 0.78677 0.5
356 25 0.735906 0.801744 0.5
583 24 0.763144 0.75456 0.5
703 30 0.818908 0.755701 0.5
622 28 0.762097 0.786204 0.5
895 29 0.791033 0.771765 0.5
229 32 0.786139 0.806208 0.5
308 26 0.817236 0.789247 0.5
733 37 0.849019 0.771785 0.5
378 31 0.846833 0.803473 0.5
483 28 0.877116 0.788499 0.5
393 38 0.884337 0.752983 0.5
298 38 0.935829 0.753672 0.5
905 30 0.909079 0.770706 0.5
700 26 0.937004 0.790882 0.5
249 34 0.994763 0.756639 0.5
513 27 0.99201 0.792512 0.5
813 30 0.965156 0.775181 0.5
516 40 0.0208565 0.809762 0.5
694 31 0.0483214 0.831053 0.5
596 27 0.044886 0.864592 0.5
37 29 0.0176302 0.845145 0.5
66 31 0.0823732 0.815366 0.5
290 31 0.0761935 0.850736 0.5
469 36 0.109812 0.837583 0.5
819 30 0.176486 0.81718 0.5
927 32 0.142755 0.823078 0.5
939 37 0.134487 0.859073 0.5
487 30 0.164738 0.84744 0.5
559 33 0.212241 0.809366 0.5
511 38 0.200441 0.841724 0.5
473 31 0.233697 0.835042 0.5
227 32 0.25494 0.858325 0.5
218 23 0.304539 0.817406 0.5
577 36 0.274365 0.830606 0.5
860 30 0.285256 0.869829 0.5
14 28 0.307873 0.846184 0.5
896 29 0.333359 0.823456 0.5
996 26 0.338533 0.854731 0.5
831 29 0.36261 0.835447 0.5
222 33 0.386439 0.812052 0.5
492 39 0.395789 0.847547 0.5
430 33 0.421729 0.824434 0.5
366 29 0.42857 0.85865 0.5
16 32 0.480151 0.809616 0.5
445 35 0.452926 0.834461 0.5
824 31 0.459898 0.868557 0.5
704 34 0.484898 0.840957 0.5
986 28 0.512638 0.821881 0.5
358 28 0.544908 0.827357 0.5
912 38 0.517757 0.855857 0.5
425 32 0.553641 0.85912 0.5
982 32 0.600295 0.812815 0.5
752 26 0.575703 0.835057 0.5
301 36 0.608728 0.847032 0.5
241 33 0.687286 0.809978 0.5
877 29 0.633241 0.823466 0.5
211 19 0.664263 0.829747 0.5
926 34 0.646174 0.856006 0.5
106 20 0.673558 0.87194 0.5
182 33 0.690292 0.846344 0.5
408 28 0.71649 0.822044 0.5
139 29 0.726477 0.851822 0.5
737 34 0.753373 0.828442 0.5
940 27 0.759592 0.861731 0.5
34 31 0.786711 0.841547 0.5
63 29 0.816955 0.82288 0.5
919 24 0.818496 0.854789 0.5
164 33 0.876874 0.822255 0.5
768 31 0.846826 0.837697 0.5
68 31 0.877806 0.856456 0.5
242 35 0.907487 0.806018 0.5
115 23 0.935866 0.823866 0.5
857 39 0.907862 0.841948 0.5
938 23 0.935791 0.86439 0.5
886 28 0.962445 0.809405 0.5
279 32 0.988452 0.827636 0.5
936 25 0.991382 0.861048 0.5
538 34 0.960703 0.846295 0.5
87 28 0.0694134 0.885986 0.5
245 22 0.0159857 0.876814 0.5
648 25 0.0393819 0.893506 0.5
80 29 0.0249796 0.919739 0.5
851 31 0.0605882 0.918603 0.5
252 35 0.101112 0.875567 0.5
976 22 0.0923051 0.908023 0.5
260 28 0.130063 0.893536 0.5
168 37 0.120089 0.923089 0.5
488 26 0.190326 0.873061 0.5
762 33 0.159735 0.881442 0.5
130 28 0.154267 0.91468 0.5
389 39 0.190275 0.906168 0.5
847 37 0.221871 0.874046 0.5
280 38 0.228404 0.9096 0.5
274 27 0.316979 0.877083 0.5
181 32 0.259356 0.891549 0.5
385 32 0.265079 0.924864 0.5
203 39 0.291312 0.905957 0.5
414 34 0.370276 0.869331 0.5
536 28 0.325556 0.911529 0.5
649 35 0.349245 0.889858 0.5
900 25 0.356032 0.923238 0.5
699 23 0.381334 0.902412 0.5
509 27 0.403649 0.880827 0.5
934 25 0.436715 0.889684 0.5
950 32 0.413947 0.909831 0.5
31 23 0.488751 0.873481 0.5
104 25 0.446738 0.919973 0.5
464 30 0.473139 0.900227 0.5
305 29 0.473707 0.933799 0.5
360 17 0.497802 0.918714 0.5
715 23 0.53501 0.886112 0.5
582 28 0.506804 0.892587 0.5
57 32 0.529472 0.917888 0.5
317 37 0.561075 0.897059 0.5
307 32 0.56288 0.929767 0.5
208 32 0.584324 0.86938 0.5
744 33 0.616287 0.880017 0.5
994 28 0.593323 0.904848 0.5
521 32 0.625752 0.915613 0.5
312 38 0.64895 0.893385 0.5
655 29 0.65829 0.927586 0.5
603 29 0.681516 0.90293 0.5
660 28 0.704393 0.877993 0.5
138 31 0.73596 0.882564 0.5
382 37 0.715889 0.91168 0.5
363 25 0.748785 0.927792 0.5
922 36 0.791071 0.874549 0.5
677 39 0.763447 0.897364 0.5
838 23 0.794721 0.905609 0.5
310 33 0.848244 0.871244 0.5
653 24 0.820758 0.890075 0.5
456 31 0.817959 0.920979 0.5
210 28 0.876875 0.891078 0.5
855 31 0.848567 0.906203 0.5
589 24 0.877615 0.922797 0.5
712 29 0.907273 0.877744 0.5
998 31 0.906463 0.909229 0.5
705 29 0.936859 0.893477 0.5
766 29 0.935921 0.92617 0.5
97 23 0.966582 0.880685 0.5
448 32 0.995835 0.895615 0.5
170 33 0.99441 0.933288 0.5
155 30 0.9648 0.912561 0.5
770 41 0.0226093 0.954329 0.5
881 27 0.0552971 0.951038 0.5
429 27 0.0465645 0.98145 0.5
897 31 0.0154387 0.991387 0.5
28 27 0.0869425 0.938249 0.5
995 25 0.079132 0.971727 0.5
848 28 0.10279 0.993571 0.5
162 32 0.11056 0.959033 0.5
809 27 0.175051 0.935957 0.5
756 28 0.143237 0.946101 0.5
802 35 0.134431 0.980965 0.5
124 28 0.163001 0.969657 0.5
167 27 0.191877 0.960026 0.5
273 28 0.192788 0.988971 0.5
597 24 0.207185 0.935596 0.5
823 28 0.239424 0.944775 0.5
564 27 0.21824 0.966928 0.5
457 37 0.248382 0.977911 0.5
169 21 0.296028 0.937532 0.5
592 25 0.279521 0.990965 0.5
409 30 0.271574 0.957665 0.5
114 26 0.30257 0.969 0.5
991 33 0.3275 0.944521 0.5
626 35 0.33642 0.976516 0.5
845 27 0.362443 0.953616 0.5
871 28 0.365686 0.987729 0.5
440 39 0.388066 0.933662 0.5
795 35 0.417343 0.944746 0.5
671 25 0.391338 0.969571 0.5
73 31 0.422767 0.979536 0.5
452 33 0.45645 0.988649 0.5
788 33 0.449581 0.9554 0.5
174 31 0.482124 0.966343 0.5
413 26 0.505961 0.945074 0.5
571 43 0.514271 0.980609 0.5
508 28 0.536402 0.952609 0.5
666 32 0.550737 0.986221 0.5
779 37 0.599106 0.939363 0.5
265 41 0.572218 0.962453 0.5
568 31 0.609546 0.973219 0.5
799 27 0.630841 0.949338 0.5
530 29 0.639717 0.982339 0.5
952 34 0.663731 0.960274 0.5
797 31 0.691548 0.936363 0.5
879 33 0.696156 0.97037 0.5
745 35 0.723651 0.947329 0.5
540 35 0.727896 0.980956 0.5
859 39 0.781318 0.936697 0.5
661 30 0.761562 0.99288 0.5
365 27 0.755523 0.960957 0.5
165 22 0.784957 0.971343 0.5
615 28 0.813036 0.984935 0.5
346 29 0.813551 0.95434 0.5
416 34 0.846772 0.938192 0.5
933 29 0.842626 0.970146 0.5
54 29 0.871513 0.989413 0.5
923 33 0.874301 0.95665 0.5
24 29 0.905014 0.941799 0.5
614 29 0.901148 0.976046 0.5
920 29 0.932236 0.959244 0.5
964 33 0.962375 0.946522 0.5
2 28 0.989372 0.968742 0.5
171 34 0.957895 0.982663 0.5
