ITEM: TIMESTEP
250000
ITEM: NUMBER OF ATOMS
1000
ITEM: BOX BOUNDS pp pp pp
-1.5211456999999999e+01 1.5211456999999999e+01
-1.5211456999999999e+01 1.5211456999999999e+01
-5.0000000000000000e-01 5.0000000000000000e-01
ITEM: ATOMS id type xs ys zs
196 31 0.0377611 0.0291081 0.5
787 27 0.0696559 0.0221607 0.5
720 28 0.0583324 0.0534017 0.5
856 28 0.0495334 -0.00403948 0.5
542 32 0.0156992 0.00389025 0.5
848 29 0.101578 0.0172957 0.5
882 35 0.0904814 0.0489319 0.5
54 29 0.122372 0.0456635 0.5
28 27 0.0801235 -0.0084875 0.5
290 31 0.133692 0.0131777 0.5
966 25 0.153932 0.0397139 0.5
405 29 0.186602 0.0351341 0.5
555 30 0.166593 0.00893537 0.5
785 33 0.220175 0.0290049 0.5
385 32 0.25485 0.0202376 0.5
389 38 0.241168 0.0561826 0.5
96 30 0.199418 0.00350543 0.5
608 29 0.232104 -0.0027092 0.5
802 35 0.299157 0.0202995 0.5
690 27 0.274444 0.0446605 0.5
144 33 0.326682 0.0411921 0.5
621 28 0.331638 0.00949474 0.5
841 31 0.359593 0.0290069 0.5
274 28 0.363788 -0.000231438 0.5
372 27 0.385049 0.0485549 0.5
434 25 0.390048 0.016934 0.5
914 26 0.417415 0.0325194 0.5
950 32 0.445764 0.0507326 0.5
424 23 0.444588 0.0187725 0.5
112 25 0.417943 0.00242555 0.5
4 32 0.47328 0.0358447 0.5
508 28 0.503259 0.0200919 0.5
497 32 0.504839 0.0553429 0.5
73 31 0.474036 0.00203616 0.5
658 35 0.53522 0.0375368 0.5
278 33 0.564191 0.0198902 0.5
402 37 0.566686 0.0580244 0.5
566 31 0.530929 0.00108642 0.5
225 34 0.593285 0.0379057 0.5
91 25 0.621273 0.0540703 0.5
874 37 0.623278 0.0175926 0.5
307 32 0.594106 0.00129242 0.5
329 34 0.650783 0.0381738 0.5
603 29 0.683233 0.0305974 0.5
571 42 0.658033 0.0010761 0.5
165 23 0.693859 0.004119 0.5
892 23 0.707278 0.0518363 0.5
443 28 0.716181 0.0225301 0.5
6 16 0.734727 0.0434553 0.5
521 32 0.743018 0.00279126 0.5
100 33 0.762396 0.0290675 0.5
661 30 0.794959 0.0163309 0.5
803 31 0.786136 0.052711 0.5
365 27 0.818179 0.0414292 0.5
346 29 0.826929 0.00956146 0.5
283 36 0.850354 0.034032 0.5
264 31 0.885108 0.0276814 0.5
964 33 0.86072 0.00202077 0.5
377 27 0.917551 0.0215002 0.5
418 34 0.909471 0.0546564 0.5
686 30 0.941605 0.0479649 0.5
751 25 0.893886 -0.00329317 0.5
614 29 0.949455 0.0160916 0.5
428 28 1.00637 0.0376322 0.5
24 30 0.97353 0.041941 0.5
762 32 0.982777 0.011908 0.5
259 21 0.0272181 0.0591833 0.5
723 29 0.0482946 0.0872267 0.5
881 27 0.0659647 0.114715 0.5
369 34 0.0165846 0.0914575 0.5
837 33 0.077776 0.0810493 0.5
564 27 0.111255 0.0764517 0.5
917 38 0.0981049 0.108887 0.5
427 31 0.133259 0.102752 0.5
597 25 0.143912 0.0708616 0.5
728 33 0.17503 0.0667015 0.5
8 26 0.164023 0.0958602 0.5
232 28 0.207417 0.0627118 0.5
995 25 0.196761 0.0941808 0.5
376 39 0.23343 0.0881347 0.5
651 25 0.298351 0.0584496 0.5
935 26 0.268028 0.0741658 0.5
263 29 0.297326 0.0911207 0.5
228 27 0.268383 0.105106 0.5
664 31 0.355608 0.0640822 0.5
991 32 0.324678 0.0767566 0.5
888 28 0.322767 0.110976 0.5
72 26 0.351555 0.0960635 0.5
707 44 0.379575 0.117316 0.5
734 32 0.383628 0.0817107 0.5
607 37 0.414007 0.0648049 0.5
674 28 0.412599 0.099016 0.5
977 35 0.441714 0.0858925 0.5
949 34 0.442754 0.119498 0.5
368 33 0.474106 0.0691022 0.5
581 24 0.471478 0.100742 0.5
21 31 0.5018 0.0897007 0.5
121 32 0.53275 0.0732843 0.5
593 25 0.530228 0.104932 0.5
383 35 0.561611 0.0928237 0.5
217 32 0.596898 0.0763069 0.5
500 40 0.5916 0.111926 0.5
887 32 0.630679 0.0994259 0.5
491 30 0.676443 0.0626698 0.5
94 25 0.645327 0.0711984 0.5
176 32 0.665768 0.0954681 0.5
44 33 0.697342 0.0876627 0.5
540 34 0.756134 0.0653516 0.5
879 33 0.724761 0.0745338 0.5
17 27 0.717819 0.112077 0.5
557 37 0.748634 0.101505 0.5
141 32 0.810376 0.075793 0.5
375 30 0.780129 0.0868013 0.5
606 34 0.800206 0.11378 0.5
313 33 0.875299 0.0616441 0.5
12 34 0.842833 0.0693177 0.5
381 32 0.834698 0.102336 0.5
177 25 0.866602 0.0941606 0.5
544 28 0.889049 0.118707 0.5
574 23 0.929275 0.0797386 0.5
345 32 0.898421 0.0861445 0.5
2 29 0.918729 0.111241 0.5
672 31 0.995494 0.0673298 0.5
611 36 0.950545 0.103614 0.5
233 27 0.962876 0.0713693 0.5
84 27 0.982486 0.0967013 0.5
407 26 0.0365801 0.118856 0.5
586 41 0.0386049 0.180926 0.5
983 32 0.0518988 0.145996 0.5
897 31 0.0175839 0.153811 0.5
781 29 0.0726238 0.17548 0.5
534 33 0.118007 0.13694 0.5
750 32 0.0842921 0.143448 0.5
783 26 0.105051 0.169374 0.5
201 33 0.180825 0.124239 0.5
293 35 0.151696 0.131706 0.5
812 27 0.13817 0.163705 0.5
140 30 0.170478 0.158743 0.5
965 30 0.21476 0.120531 0.5
885 25 0.246021 0.121169 0.5
458 36 0.203571 0.151903 0.5
815 30 0.236235 0.150188 0.5
532 28 0.226036 0.180142 0.5
556 29 0.25768 0.173362 0.5
331 27 0.293638 0.123267 0.5
303 29 0.269812 0.14231 0.5
77 21 0.288054 0.164423 0.5
814 31 0.315678 0.148674 0.5
645 33 0.346774 0.134124 0.5
105 31 0.346157 0.168107 0.5
384 41 0.378822 0.152465 0.5
875 34 0.412855 0.133749 0.5
251 32 0.407316 0.17037 0.5
333 30 0.436557 0.154738 0.5
476 22 0.491917 0.120414 0.5
988 20 0.467518 0.138531 0.5
348 27 0.465961 0.169441 0.5
619 32 0.494005 0.152564 0.5
531 27 0.519023 0.132825 0.5
832 40 0.555978 0.130143 0.5
157 32 0.528673 0.164364 0.5
688 27 0.560134 0.168296 0.5
952 33 0.620333 0.134427 0.5
431 31 0.58696 0.147918 0.5
277 27 0.61335 0.168007 0.5
805 28 0.657125 0.123956 0.5
156 25 0.689937 0.119347 0.5
364 32 0.645854 0.155628 0.5
101 27 0.679163 0.148733 0.5
821 26 0.69974 0.174621 0.5
980 28 0.740612 0.135463 0.5
426 23 0.709906 0.143319 0.5
578 29 0.730363 0.166375 0.5
519 24 0.770556 0.128452 0.5
41 31 0.762939 0.16022 0.5
438 27 0.792653 0.149826 0.5
533 35 0.815834 0.172395 0.5
191 36 0.859472 0.127055 0.5
652 40 0.825508 0.137065 0.5
575 32 0.85075 0.164578 0.5
288 35 0.884074 0.156579 0.5
698 22 0.910522 0.140284 0.5
849 35 0.941299 0.139695 0.5
729 24 0.921782 0.16557 0.5
85 23 0.900876 0.183757 0.5
548 36 1.00363 0.124477 0.5
188 31 0.972979 0.126582 0.5
973 22 0.951857 0.171181 0.5
545 38 0.981495 0.158877 0.5
234 34 0.0249351 0.217682 0.5
959 27 0.0483284 0.244563 0.5
447 36 0.0611461 0.209048 0.5
792 31 0.126317 0.195012 0.5
631 30 0.0940033 0.202087 0.5
687 33 0.0807268 0.234965 0.5
786 37 0.115829 0.229557 0.5
616 30 0.191875 0.185229 0.5
154 28 0.157242 0.190224 0.5
357 36 0.15017 0.224252 0.5
709 30 0.181334 0.216014 0.5
300 36 0.202927 0.241586 0.5
541 33 0.249131 0.205363 0.5
902 30 0.214937 0.210613 0.5
92 28 0.237903 0.236787 0.5
20 34 0.312768 0.184353 0.5
794 31 0.28232 0.196429 0.5
65 31 0.272544 0.231518 0.5
504 38 0.309751 0.22155 0.5
692 28 0.374265 0.186457 0.5
928 33 0.343322 0.200382 0.5
479 21 0.341486 0.231318 0.5
595 35 0.370586 0.219183 0.5
587 35 0.435627 0.18812 0.5
36 36 0.402711 0.205789 0.5
730 31 0.396316 0.240614 0.5
175 42 0.43387 0.228439 0.5
665 40 0.495358 0.186401 0.5
626 35 0.467176 0.206285 0.5
740 34 0.471608 0.240892 0.5
296 30 0.500239 0.219552 0.5
478 29 0.525863 0.198933 0.5
910 30 0.531728 0.229713 0.5
206 32 0.55707 0.202893 0.5
866 29 0.562182 0.23834 0.5
421 34 0.586969 0.185989 0.5
309 33 0.61577 0.201499 0.5
47 31 0.589265 0.220974 0.5
166 30 0.619958 0.232992 0.5
471 25 0.640114 0.185916 0.5
39 27 0.669521 0.179781 0.5
679 42 0.653551 0.216756 0.5
343 33 0.689023 0.208394 0.5
633 30 0.753137 0.191612 0.5
784 28 0.721551 0.198763 0.5
818 26 0.713103 0.233288 0.5
585 32 0.74373 0.224779 0.5
807 23 0.786045 0.182381 0.5
632 30 0.775252 0.213423 0.5
341 26 0.801595 0.237448 0.5
601 31 0.808036 0.206796 0.5
929 33 0.870958 0.189708 0.5
911 29 0.840462 0.197434 0.5
869 32 0.833714 0.227646 0.5
971 21 0.866488 0.2211 0.5
480 26 0.895168 0.212452 0.5
862 25 0.889805 0.244645 0.5
822 34 0.930757 0.198356 0.5
748 35 0.923414 0.231223 0.5
713 36 1.00341 0.187672 0.5
628 31 0.969779 0.196264 0.5
579 28 0.992174 0.221629 0.5
503 37 0.956745 0.22784 0.5
22 34 0.0163123 0.250006 0.5
925 23 0.0390007 0.274333 0.5
26 39 0.0263496 0.307273 0.5
600 35 0.0621102 0.299423 0.5
179 31 0.0705998 0.268438 0.5
51 31 0.104357 0.262415 0.5
116 23 0.0935947 0.293737 0.5
563 35 0.125824 0.287898 0.5
275 32 0.139464 0.258636 0.5
636 23 0.171906 0.249143 0.5
693 29 0.160912 0.282506 0.5
620 28 0.19431 0.273099 0.5
29 29 0.184695 0.305487 0.5
475 26 0.227445 0.267846 0.5
550 25 0.216235 0.299053 0.5
948 36 0.250599 0.294868 0.5
594 33 0.295821 0.25773 0.5
129 36 0.261853 0.263173 0.5
543 33 0.283881 0.292189 0.5
349 40 0.319573 0.289279 0.5
446 28 0.329254 0.258126 0.5
128 31 0.363803 0.254877 0.5
767 39 0.358696 0.291098 0.5
893 30 0.390153 0.274863 0.5
958 23 0.418435 0.261571 0.5
771 26 0.42194 0.287656 0.5
125 30 0.505806 0.252791 0.5
549 30 0.448651 0.265332 0.5
108 33 0.454391 0.300164 0.5
42 40 0.480468 0.275426 0.5
297 30 0.51021 0.286892 0.5
133 32 0.535992 0.264026 0.5
118 26 0.542615 0.297499 0.5
83 31 0.567248 0.273183 0.5
9 28 0.592413 0.254043 0.5
727 35 0.573891 0.306764 0.5
70 28 0.622519 0.265355 0.5
282 28 0.599954 0.287216 0.5
267 27 0.647333 0.253626 0.5
136 37 0.678954 0.242402 0.5
318 35 0.633689 0.29647 0.5
137 33 0.667772 0.279542 0.5
904 34 0.697998 0.303292 0.5
590 25 0.734697 0.257837 0.5
625 32 0.702871 0.2684 0.5
46 33 0.729499 0.288096 0.5
974 26 0.758852 0.280503 0.5
999 36 0.768251 0.248468 0.5
553 32 0.790869 0.271023 0.5
772 32 0.78287 0.303668 0.5
35 37 0.815649 0.293045 0.5
336 35 0.856796 0.2534 0.5
135 29 0.824057 0.260974 0.5
119 29 0.849731 0.28559 0.5
271 30 0.884011 0.277159 0.5
716 30 0.914348 0.264699 0.5
212 25 0.902862 0.303725 0.5
962 45 0.933228 0.293615 0.5
512 31 0.980751 0.253367 0.5
791 27 0.947428 0.260622 0.5
854 28 1.00195 0.281462 0.5
294 30 0.969356 0.286387 0.5
641 29 0.0478497 0.334944 0.5
422 30 0.0403372 0.366046 0.5
111 29 0.0712218 0.36153 0.5
465 27 0.0142473 0.338428 0.5
361 33 0.116726 0.322118 0.5
764 36 0.0821254 0.32629 0.5
714 29 0.104148 0.355665 0.5
524 33 0.149417 0.315841 0.5
680 29 0.135537 0.351982 0.5
410 39 0.173059 0.343294 0.5
826 30 0.20369 0.330547 0.5
7 34 0.235701 0.327342 0.5
640 36 0.218102 0.35952 0.5
702 28 0.253612 0.352752 0.5
942 26 0.268597 0.323258 0.5
412 29 0.302509 0.32202 0.5
796 27 0.284611 0.349968 0.5
117 31 0.316752 0.352055 0.5
506 36 0.337744 0.321114 0.5
732 28 0.369371 0.326849 0.5
956 33 0.348359 0.354206 0.5
371 29 0.376044 0.357731 0.5
324 38 0.397023 0.309507 0.5
840 26 0.428272 0.320606 0.5
816 32 0.401845 0.343145 0.5
432 29 0.432816 0.351605 0.5
864 25 0.484859 0.310514 0.5
126 32 0.460464 0.332978 0.5
406 30 0.492907 0.343933 0.5
1000 35 0.516308 0.321116 0.5
404 31 0.525957 0.353049 0.5
711 34 0.551309 0.332465 0.5
810 31 0.561031 0.36468 0.5
311 28 0.605277 0.318328 0.5
850 24 0.580439 0.337505 0.5
23 28 0.605676 0.350894 0.5
522 35 0.631262 0.367123 0.5
573 30 0.633737 0.331821 0.5
599 33 0.664879 0.314766 0.5
997 34 0.659752 0.35288 0.5
64 31 0.688693 0.337918 0.5
968 37 0.75163 0.317229 0.5
289 23 0.721752 0.329785 0.5
683 34 0.715565 0.361206 0.5
435 24 0.746594 0.35165 0.5
269 32 0.772449 0.372702 0.5
778 25 0.775375 0.338289 0.5
861 35 0.803811 0.361117 0.5
725 38 0.808671 0.326945 0.5
696 27 0.872876 0.30959 0.5
187 33 0.842978 0.320045 0.5
916 26 0.834014 0.35191 0.5
853 20 0.863122 0.345866 0.5
906 38 0.891932 0.339498 0.5
946 30 0.924161 0.330179 0.5
724 39 0.913944 0.369093 0.5
793 29 0.991771 0.312754 0.5
868 37 0.958053 0.319907 0.5
790 32 0.949988 0.354295 0.5
359 33 0.983122 0.344317 0.5
951 30 0.0628194 0.393721 0.5
495 33 0.0288391 0.397534 0.5
789 28 0.0510908 0.425895 0.5
95 32 0.0180242 0.428003 0.5
60 27 0.125435 0.381786 0.5
833 32 0.0828603 0.420106 0.5
668 23 0.093926 0.386464 0.5
726 29 0.112856 0.411324 0.5
913 29 0.157314 0.375987 0.5
441 30 0.189993 0.375449 0.5
872 38 0.145602 0.40957 0.5
972 29 0.180959 0.404402 0.5
634 19 0.238994 0.381015 0.5
151 37 0.201446 0.432706 0.5
909 28 0.214835 0.399868 0.5
19 28 0.249439 0.407703 0.5
576 33 0.268126 0.380911 0.5
449 26 0.262547 0.43738 0.5
286 31 0.300329 0.380908 0.5
883 35 0.285209 0.411862 0.5
45 28 0.318538 0.416082 0.5
423 34 0.33326 0.385388 0.5
306 27 0.364979 0.388362 0.5
765 24 0.34957 0.416467 0.5
281 26 0.382995 0.413962 0.5
79 37 0.399482 0.38226 0.5
394 30 0.431691 0.381865 0.5
758 23 0.41598 0.410966 0.5
347 43 0.467257 0.371691 0.5
870 30 0.504025 0.376905 0.5
486 37 0.451279 0.407227 0.5
604 23 0.484213 0.403703 0.5
337 29 0.513869 0.406783 0.5
411 31 0.537917 0.387701 0.5
195 36 0.542764 0.423454 0.5
454 32 0.568591 0.398694 0.5
184 27 0.595308 0.378609 0.5
899 23 0.598259 0.409491 0.5
323 30 0.62407 0.397925 0.5
981 30 0.684931 0.375814 0.5
654 25 0.656815 0.389106 0.5
496 30 0.647557 0.42135 0.5
584 26 0.678685 0.408991 0.5
338 29 0.703286 0.429213 0.5
110 30 0.741348 0.383595 0.5
392 30 0.709497 0.394608 0.5
142 31 0.735274 0.41777 0.5
880 39 0.77002 0.407413 0.5
867 36 0.804012 0.393249 0.5
960 39 0.797672 0.429654 0.5
643 28 0.874433 0.371886 0.5
109 41 0.840141 0.380575 0.5
514 26 0.830514 0.416657 0.5
777 27 0.861588 0.407054 0.5
865 22 0.891558 0.396263 0.5
285 30 0.889859 0.426628 0.5
450 24 0.944523 0.38447 0.5
93 41 0.924682 0.41108 0.5
830 29 1.00652 0.371298 0.5
186 31 0.975678 0.378901 0.5
624 24 0.995154 0.402004 0.5
515 29 0.963189 0.408691 0.5
240 29 0.0691151 0.452571 0.5
947 33 0.0369214 0.457749 0.5
344 22 0.0285101 0.488335 0.5
684 25 0.0601201 0.48297 0.5
399 34 0.102909 0.448091 0.5
127 24 0.0908804 0.477882 0.5
145 25 0.125171 0.472505 0.5
74 35 0.135372 0.441605 0.5
205 28 0.168257 0.435411 0.5
460 34 0.16062 0.469219 0.5
235 35 0.19364 0.467009 0.5
954 24 0.232035 0.431891 0.5
627 33 0.230427 0.463226 0.5
472 27 0.214732 0.493393 0.5
903 31 0.246568 0.493838 0.5
985 25 0.262696 0.466042 0.5
40 38 0.294806 0.449758 0.5
287 35 0.28375 0.486886 0.5
62 28 0.315837 0.474332 0.5
13 31 0.330361 0.444363 0.5
266 35 0.366106 0.441508 0.5
739 42 0.352248 0.475782 0.5
362 32 0.436732 0.437457 0.5
470 30 0.402139 0.440548 0.5
388 26 0.387744 0.470635 0.5
226 31 0.421344 0.468379 0.5
800 24 0.471536 0.432647 0.5
602 26 0.504317 0.431982 0.5
11 37 0.456824 0.463985 0.5
572 33 0.490406 0.461013 0.5
915 27 0.477268 0.493141 0.5
25 33 0.509984 0.489866 0.5
292 28 0.522736 0.456107 0.5
335 33 0.542406 0.485136 0.5
820 29 0.553793 0.456315 0.5
691 38 0.582091 0.438912 0.5
678 30 0.617817 0.43154 0.5
49 28 0.580059 0.477819 0.5
354 34 0.610579 0.466856 0.5
50 32 0.669794 0.440634 0.5
163 26 0.642904 0.454991 0.5
221 23 0.635861 0.485031 0.5
908 22 0.664821 0.476742 0.5
759 35 0.695121 0.462226 0.5
319 29 0.728951 0.448912 0.5
774 33 0.721514 0.479639 0.5
878 32 0.753933 0.470405 0.5
474 28 0.760899 0.439404 0.5
43 35 0.822975 0.45263 0.5
612 27 0.787322 0.45955 0.5
295 33 0.779312 0.491776 0.5
489 22 0.810369 0.479935 0.5
918 39 0.856916 0.440423 0.5
231 32 0.854082 0.473893 0.5
146 25 0.885141 0.456484 0.5
675 27 0.883148 0.485582 0.5
477 31 0.916747 0.448178 0.5
237 34 0.910912 0.482371 0.5
801 26 0.942033 0.473212 0.5
190 39 0.951465 0.440779 0.5
160 29 0.985015 0.431963 0.5
352 27 1.00553 0.459567 0.5
401 25 0.976268 0.464802 0.5
207 31 0.997474 0.490356 0.5
907 27 0.0466295 0.511906 0.5
342 38 0.034329 0.543641 0.5
462 29 0.0656729 0.539185 0.5
552 30 0.0140932 0.515879 0.5
48 26 0.077208 0.508002 0.5
398 37 0.110685 0.503562 0.5
827 40 0.100013 0.534921 0.5
610 30 0.135134 0.532375 0.5
204 34 0.145515 0.499044 0.5
1 26 0.179182 0.498748 0.5
731 34 0.168113 0.528481 0.5
220 30 0.186638 0.558 0.5
339 35 0.202897 0.525444 0.5
863 27 0.221547 0.550889 0.5
639 22 0.236668 0.524 0.5
99 25 0.255644 0.548083 0.5
667 27 0.267929 0.517592 0.5
32 22 0.300456 0.51419 0.5
717 30 0.28763 0.543938 0.5
417 26 0.374874 0.502718 0.5
82 33 0.331565 0.505158 0.5
152 34 0.322918 0.536832 0.5
284 35 0.358968 0.530729 0.5
547 33 0.406361 0.499437 0.5
370 36 0.442418 0.496005 0.5
804 29 0.393598 0.530206 0.5
246 33 0.427731 0.528985 0.5
78 21 0.411902 0.557139 0.5
230 31 0.448999 0.554748 0.5
321 31 0.462375 0.523297 0.5
3 33 0.482114 0.551347 0.5
560 29 0.497168 0.521238 0.5
932 27 0.515386 0.548411 0.5
185 36 0.563196 0.509153 0.5
782 28 0.528635 0.517886 0.5
481 30 0.54884 0.543495 0.5
268 43 0.602854 0.505211 0.5
159 34 0.583974 0.537506 0.5
327 31 0.618598 0.53903 0.5
760 26 0.688207 0.494915 0.5
635 23 0.66108 0.507469 0.5
123 19 0.635547 0.514134 0.5
570 34 0.652003 0.537916 0.5
669 39 0.685765 0.532325 0.5
975 27 0.713055 0.510589 0.5
88 40 0.745366 0.508439 0.5
322 23 0.721076 0.540916 0.5
605 25 0.751117 0.542572 0.5
546 32 0.805327 0.512506 0.5
248 26 0.77416 0.525514 0.5
436 31 0.796749 0.544965 0.5
539 31 0.83532 0.497499 0.5
697 36 0.864934 0.510564 0.5
236 40 0.835163 0.533655 0.5
647 30 0.874592 0.542289 0.5
970 23 0.934567 0.502812 0.5
518 30 0.899363 0.516068 0.5
718 21 0.92703 0.529094 0.5
308 26 0.905571 0.548187 0.5
747 24 0.936624 0.553271 0.5
351 31 0.965013 0.495557 0.5
223 20 0.953098 0.526004 0.5
10 29 1.0007 0.54489 0.5
433 25 0.981452 0.522449 0.5
459 35 0.968077 0.550667 0.5
439 28 0.0502059 0.570919 0.5
213 32 0.0364156 0.603965 0.5
617 33 0.0694931 0.597903 0.5
468 27 0.0193447 0.574691 0.5
721 27 0.0857349 0.567214 0.5
37 29 0.118905 0.565489 0.5
419 33 0.106387 0.594933 0.5
180 33 0.127652 0.622748 0.5
53 35 0.151856 0.559717 0.5
315 28 0.140137 0.592493 0.5
567 29 0.171788 0.588122 0.5
387 29 0.161478 0.617557 0.5
811 27 0.193265 0.611892 0.5
15 33 0.242131 0.578825 0.5
316 37 0.209043 0.584127 0.5
189 14 0.231331 0.60933 0.5
722 33 0.311153 0.568681 0.5
304 28 0.260806 0.601805 0.5
554 29 0.277099 0.573561 0.5
523 22 0.298222 0.597697 0.5
937 32 0.380149 0.560468 0.5
526 30 0.346469 0.56466 0.5
507 29 0.33085 0.594559 0.5
386 36 0.366501 0.592861 0.5
808 27 0.388176 0.620042 0.5
825 36 0.401981 0.590299 0.5
494 23 0.419588 0.617514 0.5
69 35 0.434546 0.584856 0.5
366 29 0.453272 0.612886 0.5
735 28 0.501449 0.57887 0.5
978 23 0.469033 0.582981 0.5
302 26 0.486392 0.608053 0.5
453 26 0.5202 0.603939 0.5
755 25 0.532607 0.57415 0.5
30 32 0.567912 0.569907 0.5
741 33 0.551701 0.600535 0.5
562 36 0.603 0.568579 0.5
638 46 0.58871 0.600447 0.5
527 28 0.625406 0.596588 0.5
56 27 0.637881 0.569978 0.5
334 33 0.671712 0.569437 0.5
340 23 0.655935 0.598551 0.5
842 28 0.688234 0.59944 0.5
147 30 0.703525 0.566601 0.5
149 28 0.736869 0.568286 0.5
843 34 0.722304 0.598274 0.5
876 31 0.772495 0.56497 0.5
254 33 0.757411 0.597753 0.5
134 34 0.81627 0.56896 0.5
757 38 0.792637 0.595271 0.5
501 34 0.831025 0.59887 0.5
98 35 0.851645 0.567594 0.5
161 27 0.865038 0.602452 0.5
931 30 0.884829 0.574968 0.5
630 32 0.91821 0.579476 0.5
367 28 0.896912 0.605459 0.5
839 28 0.930067 0.61208 0.5
200 34 0.951189 0.583241 0.5
261 37 0.987002 0.580002 0.5
642 31 1.00435 0.609969 0.5
510 35 0.966807 0.613248 0.5
989 34 0.0549494 0.632333 0.5
193 28 0.0213263 0.636539 0.5
320 33 0.0410103 0.66339 0.5
873 32 0.0102284 0.668069 0.5
257 33 0.0904147 0.628251 0.5
466 42 0.0768909 0.661961 0.5
565 27 0.113338 0.653312 0.5
197 29 0.132673 0.680119 0.5
374 34 0.148316 0.651045 0.5
941 29 0.167749 0.676293 0.5
984 32 0.181243 0.642658 0.5
198 35 0.251558 0.632515 0.5
490 32 0.20105 0.668274 0.5
738 32 0.217462 0.636682 0.5
61 32 0.235434 0.665233 0.5
222 33 0.317515 0.62439 0.5
5 33 0.284451 0.628025 0.5
86 30 0.270055 0.661586 0.5
623 36 0.304658 0.657308 0.5
682 35 0.353737 0.623152 0.5
535 25 0.325118 0.68433 0.5
650 29 0.337638 0.653702 0.5
59 24 0.356348 0.681517 0.5
256 33 0.372225 0.6503 0.5
150 38 0.391199 0.67354 0.5
890 33 0.438822 0.642402 0.5
773 21 0.406921 0.643092 0.5
390 32 0.424686 0.67135 0.5
209 26 0.473238 0.636251 0.5
437 32 0.50473 0.635486 0.5
979 34 0.459963 0.667776 0.5
525 26 0.491801 0.667171 0.5
817 35 0.536665 0.633931 0.5
355 31 0.522633 0.668569 0.5
395 28 0.554998 0.663339 0.5
373 35 0.569209 0.632354 0.5
598 34 0.605401 0.633101 0.5
107 29 0.589578 0.662392 0.5
877 29 0.624161 0.661167 0.5
484 34 0.63963 0.628269 0.5
836 29 0.675403 0.627428 0.5
52 37 0.658154 0.658249 0.5
314 31 0.692671 0.658493 0.5
463 27 0.707317 0.628127 0.5
858 33 0.742012 0.628324 0.5
945 34 0.727751 0.657438 0.5
299 25 0.774615 0.627529 0.5
922 36 0.809498 0.625975 0.5
183 28 0.760938 0.656436 0.5
276 34 0.795006 0.656287 0.5
613 28 0.827139 0.657377 0.5
663 33 0.845523 0.629286 0.5
502 26 0.878701 0.630167 0.5
656 22 0.861582 0.655317 0.5
889 28 0.892343 0.656441 0.5
695 22 0.908639 0.632818 0.5
328 23 0.922555 0.656943 0.5
34 31 0.944627 0.677992 0.5
992 36 0.95244 0.642362 0.5
131 28 0.987747 0.640478 0.5
262 32 0.977534 0.672603 0.5
498 29 0.0629235 0.692548 0.5
172 21 0.0293414 0.69508 0.5
891 33 0.0482393 0.72113 0.5
113 35 0.0156134 0.726846 0.5
505 33 0.100029 0.686041 0.5
194 31 0.0842663 0.716674 0.5
81 28 0.116936 0.713319 0.5
775 33 0.139341 0.741087 0.5
559 33 0.188333 0.702667 0.5
451 33 0.152203 0.705699 0.5
577 36 0.17465 0.734616 0.5
670 34 0.221793 0.69474 0.5
657 25 0.257914 0.690215 0.5
391 25 0.209063 0.729161 0.5
659 35 0.241983 0.721837 0.5
58 27 0.28952 0.687547 0.5
852 34 0.276323 0.718673 0.5
860 30 0.29639 0.743121 0.5
835 33 0.310821 0.711791 0.5
896 30 0.329904 0.738534 0.5
291 27 0.343915 0.708693 0.5
921 36 0.363918 0.734302 0.5
537 27 0.377095 0.704228 0.5
592 25 0.445063 0.698644 0.5
444 33 0.412807 0.70091 0.5
993 30 0.397784 0.729847 0.5
752 26 0.430924 0.728137 0.5
551 30 0.477653 0.696497 0.5
926 33 0.463884 0.727413 0.5
102 23 0.49806 0.724329 0.5
253 29 0.510996 0.696961 0.5
681 24 0.543189 0.693927 0.5
930 26 0.528971 0.722475 0.5
499 19 0.548705 0.744692 0.5
708 26 0.560485 0.71883 0.5
482 29 0.57535 0.690485 0.5
520 31 0.607648 0.692436 0.5
415 25 0.592373 0.721666 0.5
591 26 0.607983 0.749846 0.5
173 30 0.624617 0.722445 0.5
420 34 0.641407 0.692264 0.5
243 33 0.676006 0.691634 0.5
483 28 0.659438 0.72161 0.5
955 28 0.692624 0.721364 0.5
76 26 0.7435 0.684608 0.5
153 37 0.710902 0.691952 0.5
719 24 0.724685 0.723083 0.5
689 30 0.775512 0.68497 0.5
746 25 0.808685 0.684008 0.5
258 38 0.756876 0.717103 0.5
969 29 0.792004 0.714273 0.5
219 28 0.844465 0.68257 0.5
89 30 0.876405 0.683078 0.5
857 39 0.82755 0.713243 0.5
780 29 0.860464 0.711803 0.5
143 30 0.878198 0.739379 0.5
38 29 0.91211 0.682725 0.5
710 36 0.896576 0.711665 0.5
249 34 0.914481 0.742059 0.5
828 29 0.932296 0.710109 0.5
905 30 0.950324 0.737077 0.5
238 25 0.995502 0.700067 0.5
846 33 0.982474 0.732702 0.5
224 30 0.963098 0.705424 0.5
987 34 0.0346875 0.754298 0.5
67 30 0.0227331 0.791318 0.5
516 39 0.0577941 0.78178 0.5
279 32 0.0714207 0.747966 0.5
596 28 0.105464 0.743136 0.5
380 37 0.0940674 0.777005 0.5
754 31 0.114622 0.803759 0.5
455 31 0.129532 0.770299 0.5
148 34 0.193888 0.759859 0.5
218 23 0.160801 0.767086 0.5
469 36 0.148289 0.79742 0.5
766 29 0.183111 0.791449 0.5
255 29 0.231237 0.753194 0.5
884 36 0.218469 0.785664 0.5
247 24 0.251981 0.780594 0.5
122 30 0.264167 0.751386 0.5
831 29 0.284927 0.776433 0.5
927 32 0.271482 0.806978 0.5
753 32 0.30576 0.804362 0.5
844 33 0.31753 0.770835 0.5
509 27 0.35002 0.766588 0.5
701 37 0.339062 0.799186 0.5
769 29 0.372486 0.79348 0.5
824 31 0.41855 0.758765 0.5
467 31 0.384665 0.761804 0.5
649 35 0.405548 0.789719 0.5
934 25 0.437497 0.783252 0.5
871 28 0.451029 0.757384 0.5
704 34 0.487469 0.753969 0.5
445 35 0.46915 0.783417 0.5
16 32 0.503761 0.786257 0.5
192 36 0.521937 0.75801 0.5
580 27 0.537776 0.796132 0.5
986 29 0.557225 0.774677 0.5
250 30 0.577677 0.748663 0.5
609 30 0.5903 0.779979 0.5
583 25 0.607715 0.809885 0.5
990 39 0.625356 0.780698 0.5
158 35 0.64212 0.750139 0.5
588 27 0.674854 0.748989 0.5
139 29 0.661611 0.77957 0.5
214 34 0.645179 0.80834 0.5
919 24 0.679375 0.806748 0.5
660 28 0.693807 0.779402 0.5
703 30 0.708269 0.748547 0.5
768 31 0.744769 0.748452 0.5
182 32 0.728084 0.776286 0.5
558 31 0.712222 0.807587 0.5
528 33 0.748299 0.803962 0.5
940 27 0.777708 0.745669 0.5
63 29 0.808347 0.742298 0.5
622 28 0.764564 0.776271 0.5
378 31 0.797707 0.773165 0.5
924 26 0.783289 0.801878 0.5
164 33 0.815963 0.801302 0.5
396 31 0.843586 0.742782 0.5
106 21 0.828442 0.771442 0.5
68 31 0.848467 0.799325 0.5
379 27 0.859601 0.768838 0.5
456 31 0.880388 0.796989 0.5
644 30 0.894789 0.767181 0.5
397 32 0.937939 0.769058 0.5
998 31 0.915965 0.794703 0.5
242 35 0.952173 0.802036 0.5
685 30 1.00286 0.763286 0.5
55 28 0.970492 0.765358 0.5
943 43 0.989412 0.797098 0.5
298 37 0.0479184 0.816201 0.5
976 23 0.0365477 0.848227 0.5
124 28 0.0709367 0.841808 0.5
215 28 0.0143378 0.824756 0.5
894 27 0.0801163 0.809419 0.5
673 27 0.101527 0.83556 0.5
513 27 0.0925764 0.868644 0.5
170 33 0.123818 0.861924 0.5
487 30 0.136126 0.831355 0.5
461 32 0.170598 0.823688 0.5
66 31 0.157972 0.855741 0.5
694 31 0.192961 0.848765 0.5
473 31 0.205023 0.816235 0.5
14 29 0.23945 0.812125 0.5
743 32 0.225616 0.843964 0.5
330 28 0.247997 0.872592 0.5
706 32 0.261114 0.841008 0.5
763 34 0.296074 0.835864 0.5
280 37 0.284015 0.867423 0.5
957 35 0.318139 0.862945 0.5
167 27 0.327516 0.832336 0.5
414 34 0.362809 0.828395 0.5
961 30 0.352423 0.857482 0.5
493 25 0.384868 0.854537 0.5
898 28 0.424162 0.815235 0.5
464 30 0.393643 0.822799 0.5
629 26 0.414831 0.846609 0.5
492 39 0.440774 0.870717 0.5
31 24 0.452545 0.808951 0.5
795 35 0.483132 0.818045 0.5
715 23 0.446243 0.837183 0.5
982 32 0.473337 0.852904 0.5
178 24 0.515223 0.813346 0.5
912 38 0.508258 0.843787 0.5
305 30 0.539715 0.830937 0.5
452 33 0.534299 0.86615 0.5
655 29 0.563006 0.847193 0.5
798 34 0.571684 0.8105 0.5
208 32 0.59508 0.837976 0.5
211 19 0.585466 0.867419 0.5
744 33 0.628252 0.837898 0.5
408 28 0.664308 0.837806 0.5
360 18 0.647215 0.860551 0.5
742 31 0.67903 0.868062 0.5
895 29 0.69683 0.834768 0.5
229 32 0.730612 0.833171 0.5
317 36 0.713365 0.862697 0.5
382 37 0.748214 0.865133 0.5
272 36 0.768522 0.833287 0.5
75 22 0.801671 0.829792 0.5
202 38 0.785084 0.863227 0.5
737 34 0.819838 0.858054 0.5
115 23 0.834827 0.828029 0.5
938 23 0.864589 0.82643 0.5
615 28 0.853544 0.856578 0.5
923 33 0.884089 0.853625 0.5
920 29 0.897997 0.824955 0.5
350 17 0.927346 0.821697 0.5
589 24 0.917995 0.846827 0.5
33 30 0.950033 0.838748 0.5
648 25 0.983381 0.831504 0.5
886 28 1.0046 0.854669 0.5
448 32 0.972692 0.862412 0.5
662 32 0.058908 0.87123 0.5
851 31 0.0278798 0.879411 0.5
936 25 0.0488862 0.902875 0.5
260 28 0.0180321 0.913347 0.5
87 28 0.0717426 0.929564 0.5
809 27 0.081631 0.899297 0.5
273 28 0.113197 0.893954 0.5
227 32 0.102398 0.926627 0.5
511 37 0.178502 0.883276 0.5
538 33 0.135998 0.920542 0.5
819 30 0.146157 0.888922 0.5
488 26 0.168286 0.915707 0.5
71 34 0.215174 0.876657 0.5
823 28 0.199895 0.909071 0.5
181 32 0.237812 0.903978 0.5
517 36 0.2715 0.899364 0.5
409 30 0.305547 0.897248 0.5
953 29 0.294705 0.927127 0.5
104 26 0.374266 0.882835 0.5
114 26 0.327144 0.922032 0.5
440 38 0.342211 0.892064 0.5
403 26 0.359999 0.919443 0.5
536 28 0.405603 0.877534 0.5
430 33 0.393443 0.90925 0.5
582 29 0.424034 0.901059 0.5
900 25 0.419872 0.931238 0.5
413 26 0.501662 0.877153 0.5
90 39 0.45385 0.915316 0.5
358 28 0.471522 0.886107 0.5
788 33 0.493526 0.913689 0.5
963 27 0.560528 0.882271 0.5
57 32 0.527306 0.897323 0.5
312 38 0.527346 0.931773 0.5
568 31 0.558956 0.914305 0.5
301 36 0.616956 0.872397 0.5
485 34 0.588805 0.897353 0.5
265 41 0.588185 0.934989 0.5
677 38 0.620511 0.911133 0.5
569 33 0.650743 0.890941 0.5
676 31 0.705993 0.892698 0.5
425 32 0.678284 0.908273 0.5
749 28 0.707056 0.924493 0.5
859 39 0.737337 0.902216 0.5
241 33 0.773205 0.89738 0.5
994 28 0.762242 0.929461 0.5
653 25 0.806882 0.891342 0.5
393 38 0.795758 0.926581 0.5
733 37 0.829981 0.920273 0.5
855 31 0.840214 0.885985 0.5
806 27 0.873354 0.884081 0.5
797 31 0.862263 0.914096 0.5
155 30 0.9408 0.8706 0.5
27 33 0.906637 0.875704 0.5
80 29 0.894639 0.907956 0.5
705 29 0.928913 0.901909 0.5
736 26 0.950843 0.925837 0.5
776 31 0.996509 0.88865 0.5
933 29 0.962081 0.895879 0.5
130 28 0.983222 0.920099 0.5
770 40 0.0408988 0.935386 0.5
939 37 0.0296456 0.969801 0.5
756 28 0.0627994 0.964263 0.5
429 27 0.127826 0.951895 0.5
120 30 0.0925172 0.95724 0.5
199 36 0.112782 0.98491 0.5
245 22 0.158542 0.9457 0.5
996 26 0.188518 0.939512 0.5
252 35 0.147362 0.977223 0.5
847 37 0.17879 0.973299 0.5
216 41 0.225572 0.934725 0.5
203 39 0.262155 0.934086 0.5
18 41 0.210632 0.967972 0.5
168 36 0.24845 0.96643 0.5
239 35 0.31379 0.953097 0.5
442 35 0.270398 0.99174 0.5
169 22 0.283231 0.960982 0.5
325 32 0.305355 0.987671 0.5
646 28 0.347551 0.946174 0.5
834 31 0.335625 0.978363 0.5
944 29 0.368989 0.967829 0.5
457 37 0.387978 0.943674 0.5
400 34 0.394482 0.982684 0.5
671 26 0.420569 0.962047 0.5
174 31 0.443833 0.98535 0.5
699 24 0.475379 0.939686 0.5
761 29 0.44725 0.950765 0.5
666 32 0.502515 0.954698 0.5
845 27 0.474323 0.970252 0.5
637 28 0.503469 0.986997 0.5
103 32 0.55746 0.951979 0.5
838 23 0.53053 0.96838 0.5
779 37 0.560627 0.985779 0.5
745 34 0.621601 0.949641 0.5
416 34 0.591385 0.969293 0.5
529 28 0.624518 0.982258 0.5
310 33 0.65075 0.928198 0.5
138 31 0.679599 0.944756 0.5
799 28 0.652956 0.963835 0.5
332 27 0.685499 0.977579 0.5
356 25 0.733405 0.938156 0.5
363 26 0.717686 0.985951 0.5
270 31 0.711655 0.957207 0.5
901 36 0.747672 0.968338 0.5
97 24 0.817638 0.954015 0.5
829 25 0.774561 0.99277 0.5
561 32 0.782439 0.958562 0.5
353 29 0.805589 0.982961 0.5
132 31 0.883705 0.941417 0.5
700 26 0.850977 0.947025 0.5
530 29 0.838223 0.977002 0.5
813 30 0.872218 0.972351 0.5
210 28 0.91771 0.932738 0.5
618 35 0.928503 0.989371 0.5
712 29 0.905762 0.965936 0.5
326 42 0.94079 0.95756 0.5
244 29 1.00437 0.945 0.5
171 33 0.972884 0.951812 0.5
162 32 0.993981 0.978274 0.5
967 25 0.962892 0.986355 0.5
