ITEM: TIMESTEP
250000
ITEM: NUMBER OF ATOMS
1000
ITEM: BOX BOUNDS pp pp pp
-1.5958665000000000e+01 1.5958665000000000e+01
-1.5958665000000000e+01 1.5958665000000000e+01
-5.0000000000000000e-01 5.0000000000000000e-01
ITEM: ATOMS id type xs ys zs
66 31 0.0226348 0.0218032 0.5
259 21 0.0526429 0.0399978 0.5
376 39 0.0519996 0.00596626 0.5
130 28 0.0845848 0.0201351 0.5
756 28 0.0810091 0.0510625 0.5
239 35 0.114051 0.0372372 0.5
448 32 0.110602 6.16822e-05 0.5
293 35 0.150599 0.0500486 0.5
132 31 0.172832 0.0250968 0.5
802 35 0.142567 0.0108341 0.5
140 30 0.205045 0.0290347 0.5
621 28 0.238863 0.0282398 0.5
403 26 0.190876 0.00139212 0.5
888 28 0.27139 0.0299962 0.5
935 26 0.25818 0.00315039 0.5
671 26 0.302795 0.0323991 0.5
856 28 0.338004 0.0302663 0.5
841 31 0.317369 0.00404347 0.5
834 31 0.351354 0.00489652 0.5
434 25 0.400871 0.016792 0.5
457 36 0.37211 0.0294202 0.5
424 24 0.421572 0.0377914 0.5
348 28 0.451784 0.0389547 0.5
4 32 0.433849 0.0105393 0.5
874 37 0.467023 0.00397049 0.5
90 38 0.486584 0.0330086 0.5
265 40 0.521393 0.023715 0.5
944 29 0.498004 -0.00223004 0.5
788 33 0.555119 0.0152593 0.5
666 32 0.546895 0.0484631 0.5
658 35 0.581514 0.0390197 0.5
402 36 0.590324 0.00443432 0.5
799 28 0.61812 0.0309632 0.5
12 34 0.649862 0.020546 0.5
443 28 0.684914 0.0191212 0.5
44 33 0.671113 0.0496771 0.5
165 23 0.702937 0.0422889 0.5
270 31 0.720516 0.0192748 0.5
283 36 0.730656 0.0533982 0.5
652 40 0.757349 0.0249788 0.5
529 29 0.788687 0.0396635 0.5
618 35 0.816056 0.0189038 0.5
829 25 0.785542 0.00877946 0.5
762 32 0.847883 0.028551 0.5
244 29 0.878101 0.044348 0.5
698 22 0.875793 0.0134436 0.5
365 28 0.840655 -0.00440964 0.5
141 32 0.903586 0.0237024 0.5
923 33 0.933045 0.0406454 0.5
155 30 0.934466 0.00561321 0.5
751 25 0.992708 0.0363162 0.5
672 31 0.962563 0.0207055 0.5
199 35 0.992215 0.00355022 0.5
313 33 0.024668 0.0526333 0.5
837 32 0.0245738 0.0883463 0.5
966 26 0.0528859 0.0696073 0.5
427 31 0.0541282 0.10296 0.5
124 28 0.108799 0.0682546 0.5
628 31 0.0816358 0.0839461 0.5
881 27 0.114926 0.100938 0.5
555 30 0.137551 0.0810221 0.5
875 33 0.169932 0.0818728 0.5
564 27 0.185837 0.0563048 0.5
96 30 0.218749 0.0581019 0.5
84 27 0.183889 0.110849 0.5
162 32 0.202285 0.0855463 0.5
785 33 0.237779 0.0859838 0.5
794 31 0.254197 0.0573524 0.5
902 30 0.287177 0.0594378 0.5
651 25 0.272215 0.0864111 0.5
400 34 0.321038 0.0605813 0.5
847 37 0.357107 0.0614768 0.5
36 36 0.303795 0.0917775 0.5
73 31 0.341214 0.0928808 0.5
707 43 0.395422 0.0593818 0.5
368 33 0.37603 0.0944013 0.5
251 32 0.413439 0.0959439 0.5
497 32 0.433144 0.0679734 0.5
665 40 0.471505 0.0695728 0.5
674 28 0.445518 0.0987818 0.5
645 32 0.509021 0.0654347 0.5
581 24 0.487548 0.0994983 0.5
21 31 0.51859 0.101546 0.5
94 25 0.537209 0.0775435 0.5
121 32 0.568766 0.0731414 0.5
566 31 0.553516 0.103749 0.5
952 33 0.588687 0.102182 0.5
821 27 0.637772 0.0545384 0.5
176 32 0.602711 0.0646464 0.5
329 34 0.628024 0.0855568 0.5
557 36 0.66221 0.0786222 0.5
289 23 0.68327 0.103654 0.5
679 41 0.700325 0.0759182 0.5
661 30 0.764413 0.061363 0.5
353 29 0.737042 0.0874073 0.5
729 24 0.822361 0.0516126 0.5
983 31 0.769777 0.093655 0.5
416 33 0.796994 0.0746791 0.5
418 34 0.801558 0.11 0.5
85 24 0.852083 0.0600001 0.5
27 33 0.828343 0.0832654 0.5
901 36 0.869013 0.110202 0.5
776 31 0.878 0.0757874 0.5
936 25 0.906574 0.0561201 0.5
97 24 0.908202 0.0846551 0.5
345 32 0.937489 0.0758592 0.5
2 29 0.933266 0.107186 0.5
662 32 0.964438 0.0569382 0.5
686 30 0.995204 0.0697011 0.5
369 34 0.99554 0.104047 0.5
480 26 0.968573 0.0879996 0.5
407 27 0.0266473 0.121647 0.5
336 35 0.0280321 0.156997 0.5
548 36 0.0555782 0.1392 0.5
252 35 0.0851397 0.117002 0.5
917 38 0.0883078 0.152607 0.5
720 29 0.118363 0.133157 0.5
786 37 0.149091 0.112932 0.5
812 27 0.143691 0.151822 0.5
967 25 0.169798 0.137551 0.5
897 31 0.174315 0.168784 0.5
690 27 0.217008 0.113432 0.5
51 31 0.199036 0.141469 0.5
331 27 0.218189 0.166386 0.5
728 33 0.234894 0.140077 0.5
815 30 0.257099 0.113654 0.5
303 29 0.288686 0.122242 0.5
556 29 0.2486 0.174946 0.5
201 33 0.267654 0.146595 0.5
105 31 0.321697 0.120052 0.5
333 30 0.356144 0.12278 0.5
977 35 0.303871 0.149635 0.5
296 30 0.338304 0.151489 0.5
734 32 0.393969 0.12317 0.5
664 31 0.371905 0.152549 0.5
593 25 0.403949 0.152769 0.5
500 40 0.463867 0.12586 0.5
626 34 0.427004 0.129826 0.5
77 21 0.447236 0.15492 0.5
101 28 0.478577 0.157008 0.5
421 34 0.498908 0.130457 0.5
866 29 0.514159 0.15929 0.5
892 24 0.531827 0.130613 0.5
531 27 0.544783 0.163662 0.5
125 30 0.562508 0.137207 0.5
478 29 0.578676 0.165406 0.5
988 21 0.616021 0.114332 0.5
521 32 0.650885 0.112416 0.5
206 31 0.596804 0.135186 0.5
217 32 0.6304 0.140782 0.5
431 31 0.611346 0.16734 0.5
177 25 0.66226 0.143014 0.5
225 34 0.692903 0.136347 0.5
381 32 0.714071 0.110524 0.5
156 25 0.747339 0.114139 0.5
426 24 0.72419 0.142042 0.5
100 33 0.758047 0.14549 0.5
6 16 0.773698 0.120403 0.5
625 32 0.792215 0.142887 0.5
375 30 0.822115 0.145835 0.5
233 27 0.835069 0.11609 0.5
41 31 0.854646 0.14346 0.5
781 29 0.902877 0.112316 0.5
545 37 0.889449 0.1421 0.5
960 39 0.929987 0.143833 0.5
534 33 0.962979 0.12211 0.5
326 41 0.995768 0.138226 0.5
288 35 0.963604 0.158292 0.5
542 32 0.0593699 0.172638 0.5
196 31 0.0315052 0.192624 0.5
234 33 0.0352444 0.228252 0.5
636 23 0.0602762 0.205536 0.5
750 32 0.117801 0.168828 0.5
687 33 0.0892756 0.187397 0.5
600 35 0.0884246 0.222765 0.5
792 31 0.118824 0.203592 0.5
787 27 0.146612 0.182982 0.5
563 35 0.14701 0.220608 0.5
8 26 0.173073 0.20209 0.5
885 25 0.199501 0.187432 0.5
668 24 0.203584 0.217106 0.5
532 29 0.226617 0.198315 0.5
92 28 0.233115 0.229798 0.5
965 30 0.281174 0.178352 0.5
458 36 0.25958 0.207624 0.5
709 30 0.291699 0.213928 0.5
357 36 0.353147 0.180467 0.5
175 42 0.315717 0.183626 0.5
616 30 0.323814 0.219882 0.5
692 28 0.353847 0.230564 0.5
491 30 0.389808 0.179943 0.5
228 28 0.372616 0.206204 0.5
949 34 0.406971 0.207629 0.5
893 30 0.425409 0.175339 0.5
476 23 0.458477 0.181416 0.5
349 39 0.439864 0.209203 0.5
412 29 0.471312 0.214809 0.5
278 33 0.490939 0.186467 0.5
309 33 0.525753 0.192261 0.5
42 39 0.508092 0.218927 0.5
587 35 0.559731 0.193046 0.5
112 26 0.541511 0.222558 0.5
1000 35 0.574356 0.225333 0.5
383 35 0.593516 0.196448 0.5
70 28 0.645423 0.170264 0.5
727 35 0.627028 0.199481 0.5
805 28 0.608092 0.228044 0.5
282 28 0.643967 0.228267 0.5
267 27 0.67714 0.170544 0.5
166 30 0.707687 0.167404 0.5
47 31 0.660623 0.19896 0.5
264 31 0.694184 0.201466 0.5
980 28 0.674567 0.229008 0.5
35 36 0.738964 0.172928 0.5
277 27 0.726887 0.202072 0.5
438 28 0.759014 0.20353 0.5
364 32 0.775204 0.175165 0.5
519 25 0.806228 0.176277 0.5
39 27 0.78891 0.205542 0.5
606 34 0.821337 0.204846 0.5
544 28 0.838423 0.174012 0.5
822 34 0.873089 0.174959 0.5
716 30 0.855095 0.201264 0.5
135 29 0.872138 0.22955 0.5
428 28 0.907333 0.171334 0.5
807 24 0.93673 0.17848 0.5
973 23 0.887557 0.202654 0.5
971 21 0.916788 0.20017 0.5
632 30 0.905802 0.229012 0.5
723 29 0.939159 0.220731 0.5
586 41 0.996136 0.176773 0.5
188 31 1.0046 0.21335 0.5
26 38 0.965523 0.19767 0.5
826 30 0.0363028 0.264453 0.5
179 31 0.00803785 0.248651 0.5
972 29 0.0091023 0.281854 0.5
111 29 0.0630121 0.246812 0.5
748 34 0.0656311 0.280187 0.5
422 30 0.0936558 0.260329 0.5
882 35 0.119762 0.239951 0.5
232 28 0.178051 0.233179 0.5
951 30 0.124097 0.275985 0.5
7 34 0.150709 0.254546 0.5
985 25 0.154216 0.284771 0.5
154 29 0.181903 0.266634 0.5
928 32 0.208109 0.249479 0.5
594 33 0.212691 0.281317 0.5
65 31 0.266097 0.24091 0.5
116 24 0.240979 0.26129 0.5
226 31 0.271422 0.275214 0.5
361 33 0.29823 0.249724 0.5
740 33 0.333359 0.256657 0.5
384 40 0.307779 0.287261 0.5
126 31 0.345838 0.287754 0.5
620 28 0.386918 0.234415 0.5
62 29 0.367328 0.257711 0.5
560 29 0.400322 0.265649 0.5
504 38 0.379437 0.292419 0.5
814 31 0.420063 0.238513 0.5
404 31 0.453155 0.243004 0.5
406 30 0.433023 0.268661 0.5
128 31 0.467117 0.275979 0.5
133 32 0.486217 0.247237 0.5
767 38 0.501057 0.27713 0.5
688 27 0.524391 0.249371 0.5
157 32 0.538352 0.279193 0.5
9 28 0.556973 0.252011 0.5
772 32 0.573481 0.282258 0.5
23 28 0.591918 0.254789 0.5
46 33 0.625895 0.256129 0.5
870 30 0.607967 0.285816 0.5
974 26 0.641145 0.283925 0.5
17 27 0.708848 0.230802 0.5
590 25 0.657714 0.256506 0.5
585 32 0.69049 0.256384 0.5
338 29 0.67138 0.286227 0.5
136 36 0.741634 0.234289 0.5
578 29 0.722119 0.261965 0.5
916 26 0.756083 0.263895 0.5
471 25 0.774793 0.23429 0.5
119 29 0.806149 0.234936 0.5
553 32 0.788606 0.265622 0.5
191 36 0.824806 0.262687 0.5
575 32 0.839772 0.231829 0.5
341 26 0.858685 0.260278 0.5
818 26 0.888921 0.25611 0.5
713 36 0.921986 0.260396 0.5
212 25 0.897203 0.283959 0.5
533 34 0.978331 0.231417 0.5
929 33 0.95197 0.250959 0.5
465 28 0.953814 0.284741 0.5
186 31 0.97997 0.267112 0.5
789 28 0.0377737 0.296557 0.5
524 33 0.0408633 0.330015 0.5
631 30 0.0100952 0.314877 0.5
541 32 0.0951877 0.29621 0.5
783 26 0.068361 0.312938 0.5
60 27 0.0694769 0.343872 0.5
925 24 0.0994837 0.326807 0.5
550 26 0.123623 0.309156 0.5
45 28 0.12636 0.340415 0.5
40 38 0.155469 0.319417 0.5
702 28 0.184704 0.298871 0.5
475 26 0.217118 0.31389 0.5
410 39 0.188676 0.334749 0.5
543 33 0.246285 0.294996 0.5
423 33 0.245289 0.328219 0.5
275 32 0.275976 0.309364 0.5
506 36 0.274826 0.348668 0.5
765 25 0.329045 0.313383 0.5
732 28 0.30264 0.329396 0.5
948 36 0.333717 0.346067 0.5
864 25 0.415436 0.294385 0.5
11 36 0.360954 0.325128 0.5
306 27 0.395403 0.319626 0.5
758 23 0.401581 0.349437 0.5
619 32 0.446984 0.303863 0.5
411 31 0.423617 0.327045 0.5
347 43 0.458345 0.339396 0.5
549 30 0.481772 0.308315 0.5
910 30 0.499783 0.335492 0.5
730 31 0.521255 0.30802 0.5
595 35 0.534327 0.338018 0.5
83 31 0.555175 0.310552 0.5
322 24 0.569793 0.338073 0.5
118 27 0.588099 0.312534 0.5
311 28 0.618929 0.314731 0.5
904 34 0.600136 0.343895 0.5
584 26 0.703751 0.287921 0.5
711 34 0.655072 0.316124 0.5
981 30 0.688929 0.317129 0.5
784 28 0.670321 0.345585 0.5
137 33 0.736618 0.291918 0.5
522 35 0.719451 0.320996 0.5
999 36 0.750445 0.323993 0.5
110 30 0.769885 0.29371 0.5
911 29 0.804669 0.294889 0.5
725 37 0.78658 0.32472 0.5
294 30 0.823084 0.32372 0.5
633 30 0.837808 0.293527 0.5
862 25 0.868635 0.289007 0.5
777 27 0.854752 0.320085 0.5
95 32 0.875759 0.345211 0.5
503 36 0.924938 0.299012 0.5
22 33 0.888975 0.314048 0.5
962 44 0.919659 0.337059 0.5
641 30 0.981225 0.300244 0.5
793 29 0.954553 0.318664 0.5
959 27 0.981085 0.332766 0.5
680 29 0.0107675 0.347592 0.5
447 36 0.0410543 0.364524 0.5
833 32 0.0444568 0.399718 0.5
913 29 0.0123618 0.384257 0.5
441 30 0.0993867 0.360108 0.5
791 27 0.0715037 0.378634 0.5
151 37 0.102815 0.395178 0.5
287 35 0.159589 0.355409 0.5
129 36 0.130429 0.373725 0.5
204 34 0.161951 0.389558 0.5
286 31 0.218664 0.351179 0.5
13 31 0.191613 0.371321 0.5
722 33 0.223924 0.386759 0.5
20 34 0.19306 0.404478 0.5
958 24 0.246725 0.367349 0.5
266 34 0.275607 0.3848 0.5
693 29 0.249877 0.406038 0.5
883 35 0.306411 0.365291 0.5
386 36 0.309846 0.401082 0.5
446 29 0.338989 0.380767 0.5
300 36 0.369753 0.361523 0.5
394 30 0.366113 0.397089 0.5
297 30 0.399713 0.379252 0.5
371 29 0.427315 0.362639 0.5
79 37 0.458006 0.378887 0.5
602 26 0.426979 0.396347 0.5
771 26 0.486523 0.363122 0.5
573 30 0.492085 0.392977 0.5
691 37 0.51929 0.370998 0.5
323 30 0.554979 0.363093 0.5
432 29 0.545347 0.392166 0.5
816 32 0.584408 0.375326 0.5
43 34 0.636435 0.346447 0.5
635 24 0.616606 0.373272 0.5
496 30 0.60431 0.403439 0.5
318 35 0.637355 0.39881 0.5
474 28 0.704316 0.351497 0.5
760 27 0.656135 0.373097 0.5
654 26 0.687089 0.376906 0.5
295 33 0.669884 0.404498 0.5
853 21 0.737741 0.355431 0.5
861 34 0.719378 0.379422 0.5
271 30 0.753227 0.384651 0.5
601 31 0.769427 0.354998 0.5
343 33 0.806284 0.354667 0.5
968 37 0.789677 0.385059 0.5
906 37 0.840395 0.352386 0.5
109 41 0.831386 0.392593 0.5
946 30 0.864739 0.37799 0.5
696 28 0.89478 0.396481 0.5
579 28 0.895635 0.365215 0.5
187 33 0.925589 0.375882 0.5
512 31 0.954889 0.353365 0.5
830 29 0.98625 0.367062 0.5
872 38 0.958399 0.388489 0.5
450 25 0.98844 0.403711 0.5
854 28 0.0156526 0.417705 0.5
351 31 0.047959 0.434422 0.5
190 38 0.0200936 0.452258 0.5
359 33 0.0748089 0.413436 0.5
460 34 0.105325 0.430819 0.5
19 28 0.0787313 0.448878 0.5
401 25 0.105955 0.464863 0.5
714 29 0.133744 0.410186 0.5
29 29 0.162375 0.424011 0.5
907 27 0.135656 0.443028 0.5
82 33 0.164322 0.459161 0.5
942 26 0.222652 0.421478 0.5
74 34 0.192991 0.438552 0.5
739 41 0.220159 0.45631 0.5
235 35 0.281036 0.41928 0.5
667 27 0.25158 0.437497 0.5
152 34 0.285777 0.452903 0.5
796 27 0.340358 0.416109 0.5
388 27 0.314312 0.435 0.5
117 31 0.340325 0.449223 0.5
127 24 0.31331 0.465754 0.5
246 33 0.39759 0.413618 0.5
470 30 0.368326 0.430318 0.5
956 33 0.373295 0.464107 0.5
481 30 0.400322 0.446959 0.5
479 22 0.454484 0.411004 0.5
321 31 0.428615 0.429606 0.5
184 27 0.459824 0.440784 0.5
932 27 0.427149 0.463383 0.5
281 26 0.519004 0.406789 0.5
198 35 0.484884 0.423744 0.5
209 27 0.51551 0.437442 0.5
520 31 0.488521 0.457957 0.5
454 32 0.5729 0.407785 0.5
915 27 0.544566 0.423002 0.5
899 24 0.568511 0.440341 0.5
820 29 0.542629 0.455525 0.5
997 34 0.597827 0.437244 0.5
123 20 0.624181 0.428292 0.5
850 24 0.631473 0.45608 0.5
778 25 0.70107 0.405926 0.5
108 33 0.653179 0.433598 0.5
334 33 0.687391 0.438414 0.5
64 31 0.661857 0.466456 0.5
867 36 0.732108 0.413693 0.5
695 22 0.750596 0.438979 0.5
683 34 0.722033 0.450503 0.5
546 32 0.767594 0.413242 0.5
918 38 0.803051 0.420122 0.5
269 31 0.780492 0.444898 0.5
675 28 0.811779 0.452699 0.5
207 31 0.863345 0.411934 0.5
643 28 0.83881 0.434587 0.5
684 26 0.869105 0.447613 0.5
764 36 0.927826 0.409381 0.5
869 32 0.894866 0.428731 0.5
237 34 0.898813 0.463347 0.5
231 31 0.9282 0.445788 0.5
790 32 0.960114 0.424116 0.5
1 26 0.989777 0.437674 0.5
472 27 0.958486 0.457739 0.5
131 28 0.0514288 0.466011 0.5
724 39 0.0223529 0.486919 0.5
439 28 0.0234477 0.521947 0.5
747 25 0.0520743 0.500998 0.5
552 30 0.0784524 0.483248 0.5
145 25 0.0822221 0.514905 0.5
617 33 0.108981 0.495329 0.5
10 29 0.136769 0.475344 0.5
433 25 0.139359 0.507641 0.5
909 28 0.165489 0.493435 0.5
344 22 0.171011 0.522367 0.5
48 26 0.190564 0.475737 0.5
399 33 0.197288 0.508368 0.5
804 29 0.225843 0.492145 0.5
954 24 0.227855 0.524227 0.5
640 36 0.253906 0.470221 0.5
717 30 0.256954 0.504389 0.5
291 27 0.285477 0.48533 0.5
572 33 0.286316 0.518863 0.5
370 36 0.343799 0.48205 0.5
486 36 0.315052 0.499221 0.5
417 26 0.347195 0.517322 0.5
507 29 0.402788 0.482196 0.5
890 33 0.373779 0.50004 0.5
25 32 0.403243 0.51584 0.5
638 45 0.458156 0.476942 0.5
526 30 0.43115 0.501069 0.5
337 29 0.463786 0.514851 0.5
292 29 0.515949 0.472625 0.5
810 31 0.489859 0.49556 0.5
195 36 0.521776 0.507012 0.5
908 22 0.571982 0.469543 0.5
755 26 0.546081 0.486492 0.5
335 33 0.552501 0.520928 0.5
373 35 0.577993 0.500432 0.5
324 37 0.604382 0.473564 0.5
678 30 0.61111 0.510179 0.5
50 32 0.636723 0.486916 0.5
759 35 0.643982 0.521828 0.5
843 34 0.69521 0.473603 0.5
392 30 0.667482 0.50004 0.5
880 39 0.703564 0.508205 0.5
276 34 0.754735 0.470343 0.5
605 25 0.728094 0.486498 0.5
435 24 0.755062 0.501131 0.5
612 27 0.786809 0.473993 0.5
254 33 0.786673 0.508305 0.5
495 32 0.814497 0.488076 0.5
868 37 0.843186 0.46754 0.5
839 28 0.87502 0.48596 0.5
93 41 0.848219 0.503939 0.5
398 37 0.878072 0.522469 0.5
624 25 0.93231 0.476412 0.5
98 34 0.90661 0.49665 0.5
146 25 0.937804 0.508726 0.5
477 31 0.988882 0.470707 0.5
468 27 0.960586 0.488818 0.5
827 39 0.990217 0.507049 0.5
567 29 0.0533947 0.532381 0.5
647 30 0.0274476 0.554882 0.5
610 30 0.0586518 0.561405 0.5
160 29 0.112451 0.526931 0.5
205 28 0.0858103 0.544661 0.5
213 32 0.0882364 0.577744 0.5
721 28 0.115056 0.559132 0.5
320 33 0.143724 0.539078 0.5
352 27 0.147195 0.570362 0.5
576 33 0.175789 0.553486 0.5
634 19 0.201767 0.536481 0.5
339 35 0.204365 0.569063 0.5
657 26 0.232964 0.553729 0.5
69 34 0.258571 0.538595 0.5
32 23 0.265927 0.571111 0.5
535 26 0.290044 0.550481 0.5
284 34 0.319513 0.533393 0.5
731 34 0.32003 0.566776 0.5
437 32 0.350116 0.550264 0.5
800 24 0.377834 0.5354 0.5
863 27 0.379738 0.566831 0.5
840 26 0.404672 0.546917 0.5
362 32 0.406021 0.580781 0.5
3 33 0.43535 0.534055 0.5
159 34 0.436324 0.568208 0.5
327 31 0.466254 0.548229 0.5
945 34 0.465468 0.583016 0.5
877 29 0.493932 0.529433 0.5
30 32 0.496623 0.564976 0.5
183 28 0.524779 0.542692 0.5
527 28 0.529397 0.577986 0.5
570 33 0.585739 0.534767 0.5
185 36 0.556828 0.554935 0.5
56 28 0.590323 0.568522 0.5
463 27 0.617979 0.54529 0.5
484 34 0.621829 0.577204 0.5
774 33 0.650219 0.556518 0.5
354 34 0.676102 0.532611 0.5
142 31 0.683266 0.565085 0.5
49 28 0.708364 0.543778 0.5
149 28 0.734074 0.523129 0.5
599 33 0.764231 0.534336 0.5
163 26 0.713339 0.575405 0.5
842 28 0.739412 0.557079 0.5
613 28 0.770392 0.566991 0.5
134 34 0.816558 0.5231 0.5
514 26 0.793385 0.546791 0.5
219 28 0.800708 0.577633 0.5
876 31 0.849247 0.541264 0.5
489 22 0.821653 0.555182 0.5
285 30 0.867444 0.568344 0.5
801 27 0.914058 0.527625 0.5
889 28 0.896156 0.553475 0.5
630 31 0.894676 0.585419 0.5
236 40 0.931141 0.561125 0.5
200 34 0.957772 0.53316 0.5
342 38 0.994373 0.542023 0.5
894 27 1.00088 0.574689 0.5
992 36 0.968874 0.567051 0.5
970 23 0.028944 0.586484 0.5
315 28 0.0362352 0.621723 0.5
380 37 0.0585541 0.598129 0.5
518 30 0.00901512 0.608706 0.5
989 34 0.119697 0.592575 0.5
987 34 0.0663068 0.632061 0.5
811 27 0.0918252 0.610269 0.5
194 31 0.121244 0.625785 0.5
865 23 0.178719 0.586511 0.5
419 33 0.149861 0.603894 0.5
554 29 0.177968 0.619434 0.5
222 32 0.23752 0.585073 0.5
627 33 0.207471 0.60308 0.5
559 33 0.206267 0.637369 0.5
451 33 0.236526 0.619803 0.5
86 30 0.291537 0.584334 0.5
122 30 0.26443 0.602904 0.5
639 23 0.265222 0.634075 0.5
5 33 0.291275 0.61874 0.5
99 26 0.351289 0.583648 0.5
304 28 0.322179 0.599412 0.5
547 33 0.321655 0.633292 0.5
220 30 0.352613 0.614216 0.5
978 24 0.380757 0.597959 0.5
494 24 0.382234 0.629563 0.5
937 32 0.410159 0.612626 0.5
604 23 0.438524 0.599447 0.5
59 24 0.439957 0.62848 0.5
395 28 0.468721 0.617417 0.5
562 36 0.498859 0.597561 0.5
173 30 0.501003 0.633285 0.5
52 37 0.531485 0.613308 0.5
669 39 0.562206 0.590996 0.5
153 36 0.561893 0.630173 0.5
681 25 0.598106 0.600149 0.5
975 27 0.629872 0.610413 0.5
415 25 0.606979 0.628081 0.5
501 34 0.655851 0.588329 0.5
955 28 0.686523 0.597249 0.5
147 30 0.660335 0.622849 0.5
420 34 0.693657 0.631449 0.5
726 29 0.74445 0.58904 0.5
919 25 0.717169 0.606018 0.5
319 30 0.752824 0.621048 0.5
221 24 0.726215 0.635684 0.5
878 32 0.777512 0.597019 0.5
308 26 0.807296 0.60863 0.5
238 26 0.784555 0.629813 0.5
757 38 0.834394 0.58677 0.5
539 31 0.867425 0.602194 0.5
483 28 0.843177 0.621846 0.5
396 31 0.877668 0.635405 0.5
515 29 0.921027 0.595371 0.5
223 20 0.902429 0.619544 0.5
459 35 0.934914 0.625398 0.5
240 29 0.953172 0.59912 0.5
718 21 0.981796 0.597239 0.5
466 41 0.972718 0.629075 0.5
248 26 0.0407641 0.653546 0.5
261 37 0.00769067 0.641371 0.5
461 32 0.0432808 0.685754 0.5
498 30 0.0159894 0.673265 0.5
565 27 0.09969 0.646691 0.5
743 32 0.0712269 0.663654 0.5
490 31 0.100431 0.678906 0.5
218 24 0.0737656 0.694458 0.5
53 34 0.151036 0.638283 0.5
903 31 0.179357 0.658071 0.5
462 29 0.128191 0.662049 0.5
197 29 0.127855 0.695306 0.5
449 26 0.154782 0.677389 0.5
256 33 0.23875 0.653539 0.5
330 28 0.183554 0.69057 0.5
391 26 0.209567 0.670121 0.5
78 21 0.295263 0.650524 0.5
941 29 0.242065 0.688114 0.5
650 29 0.267489 0.664826 0.5
670 33 0.295787 0.684861 0.5
150 37 0.351387 0.650168 0.5
15 33 0.322691 0.668869 0.5
844 32 0.352026 0.686878 0.5
192 35 0.412753 0.645643 0.5
268 42 0.382073 0.666045 0.5
979 34 0.41429 0.683034 0.5
782 28 0.473364 0.64853 0.5
817 35 0.443138 0.663833 0.5
741 33 0.4738 0.681488 0.5
302 27 0.531589 0.648475 0.5
482 29 0.502848 0.663037 0.5
16 32 0.503822 0.698456 0.5
708 26 0.529694 0.681834 0.5
453 26 0.588452 0.64881 0.5
986 29 0.558019 0.665569 0.5
366 29 0.560886 0.698493 0.5
355 31 0.587328 0.680827 0.5
746 25 0.636459 0.643265 0.5
76 27 0.614516 0.661059 0.5
836 29 0.616413 0.695744 0.5
940 28 0.640435 0.674242 0.5
558 31 0.665749 0.653295 0.5
436 31 0.670622 0.686235 0.5
299 26 0.69531 0.664553 0.5
622 29 0.703373 0.696442 0.5
780 29 0.759246 0.65153 0.5
88 40 0.728887 0.670247 0.5
858 33 0.762747 0.684905 0.5
258 37 0.816157 0.641776 0.5
969 29 0.788672 0.661331 0.5
660 28 0.791685 0.697168 0.5
663 33 0.817778 0.676851 0.5
922 35 0.848707 0.656978 0.5
895 29 0.848826 0.690217 0.5
510 34 0.910009 0.650036 0.5
113 35 0.88427 0.67457 0.5
38 29 0.924052 0.681665 0.5
642 31 0.945288 0.657315 0.5
931 30 0.957591 0.68991 0.5
828 29 0.980258 0.666183 0.5
891 33 0.99189 0.696336 0.5
161 27 0.0218688 0.711098 0.5
67 30 0.054823 0.716751 0.5
224 30 0.0335206 0.741149 0.5
298 37 0.0704498 0.746961 0.5
659 34 0.0964172 0.716105 0.5
227 31 0.104232 0.752221 0.5
947 33 0.158401 0.710411 0.5
255 29 0.130043 0.729984 0.5
257 33 0.165458 0.74361 0.5
623 36 0.215343 0.703224 0.5
387 29 0.18926 0.72274 0.5
189 15 0.217384 0.736333 0.5
577 36 0.198806 0.757505 0.5
984 32 0.24161 0.722496 0.5
884 36 0.269984 0.70776 0.5
860 30 0.268242 0.743223 0.5
473 31 0.297765 0.727822 0.5
738 32 0.298327 0.760672 0.5
148 33 0.323777 0.705369 0.5
203 38 0.329378 0.738958 0.5
598 33 0.382857 0.702499 0.5
523 23 0.355164 0.719489 0.5
467 31 0.358458 0.758308 0.5
825 35 0.382743 0.736298 0.5
735 28 0.443486 0.699196 0.5
993 30 0.473256 0.715066 0.5
982 32 0.413576 0.717435 0.5
808 27 0.41749 0.750585 0.5
537 27 0.443515 0.730563 0.5
930 26 0.473032 0.746003 0.5
926 33 0.534048 0.714757 0.5
250 30 0.503867 0.730176 0.5
773 22 0.532738 0.748139 0.5
655 29 0.590016 0.715441 0.5
749 28 0.560168 0.731543 0.5
138 31 0.589771 0.747646 0.5
314 31 0.646768 0.708996 0.5
591 26 0.620214 0.730127 0.5
241 33 0.651117 0.746621 0.5
719 24 0.678441 0.717752 0.5
583 25 0.68693 0.747177 0.5
588 27 0.71028 0.726577 0.5
703 30 0.734015 0.705924 0.5
139 29 0.73935 0.740186 0.5
397 32 0.764921 0.717905 0.5
920 29 0.770395 0.752545 0.5
998 31 0.821207 0.710226 0.5
644 30 0.795936 0.730716 0.5
182 32 0.826717 0.745357 0.5
656 22 0.874635 0.703459 0.5
55 28 0.851646 0.721604 0.5
379 27 0.85844 0.753416 0.5
89 30 0.881805 0.732544 0.5
689 30 0.905568 0.707464 0.5
502 26 0.936665 0.715967 0.5
905 30 0.914251 0.74034 0.5
516 39 0.94871 0.748385 0.5
697 35 0.999715 0.731985 0.5
143 30 0.967904 0.721438 0.5
964 33 0.0124841 0.767488 0.5
712 29 0.0455921 0.774207 0.5
193 28 0.0184175 0.80028 0.5
511 37 0.0567521 0.806661 0.5
81 28 0.0784414 0.778478 0.5
172 22 0.0898784 0.805497 0.5
215 28 0.11061 0.783444 0.5
775 33 0.121352 0.813801 0.5
316 37 0.136158 0.76289 0.5
247 25 0.171282 0.776348 0.5
37 29 0.147664 0.796012 0.5
487 30 0.179148 0.808102 0.5
442 34 0.236334 0.759316 0.5
61 32 0.207507 0.78909 0.5
455 31 0.239193 0.798022 0.5
279 32 0.268796 0.777078 0.5
168 36 0.273192 0.812344 0.5
14 29 0.300535 0.793457 0.5
921 36 0.329757 0.776068 0.5
230 31 0.331203 0.809194 0.5
525 26 0.360161 0.790799 0.5
682 35 0.389861 0.772087 0.5
900 26 0.393525 0.804135 0.5
509 27 0.446956 0.76366 0.5
649 35 0.423424 0.786233 0.5
831 29 0.453364 0.801097 0.5
253 30 0.503513 0.76295 0.5
961 30 0.474712 0.77813 0.5
102 23 0.501221 0.791519 0.5
107 30 0.51893 0.814212 0.5
243 33 0.560379 0.763144 0.5
390 32 0.530346 0.782894 0.5
75 22 0.560337 0.794097 0.5
561 31 0.590674 0.780072 0.5
609 30 0.586318 0.812895 0.5
164 33 0.621526 0.763369 0.5
582 29 0.617675 0.799193 0.5
301 35 0.649928 0.785493 0.5
990 39 0.685999 0.778832 0.5
356 25 0.670938 0.808795 0.5
569 33 0.702729 0.812687 0.5
924 26 0.715037 0.759175 0.5
528 33 0.745257 0.775303 0.5
499 20 0.718859 0.787266 0.5
340 23 0.740254 0.808626 0.5
838 24 0.770714 0.812344 0.5
249 33 0.800801 0.766132 0.5
332 27 0.775745 0.784568 0.5
943 42 0.805764 0.804905 0.5
700 27 0.831834 0.777028 0.5
242 35 0.86443 0.786939 0.5
115 24 0.841213 0.811006 0.5
262 32 0.890616 0.766152 0.5
873 32 0.924682 0.773753 0.5
710 36 0.900756 0.799313 0.5
34 31 0.933077 0.809329 0.5
328 24 0.981467 0.759563 0.5
538 33 0.956049 0.784642 0.5
505 32 0.987729 0.791415 0.5
685 30 0.966918 0.817107 0.5
694 31 0.0299053 0.831433 0.5
260 29 0.0384034 0.865658 0.5
290 31 0.00642827 0.857689 0.5
488 26 0.0954008 0.834205 0.5
18 40 0.0638371 0.842327 0.5
180 32 0.0966685 0.865266 0.5
513 28 0.153759 0.82664 0.5
996 27 0.124674 0.846576 0.5
280 37 0.156263 0.860177 0.5
167 27 0.213646 0.820989 0.5
819 30 0.186381 0.837861 0.5
852 33 0.218107 0.853548 0.5
273 28 0.188461 0.871365 0.5
753 32 0.244237 0.832803 0.5
58 28 0.247434 0.870448 0.5
927 32 0.274192 0.849962 0.5
414 34 0.301944 0.8274 0.5
769 29 0.304758 0.863648 0.5
896 30 0.331476 0.842441 0.5
430 33 0.335611 0.876879 0.5
934 26 0.362746 0.820692 0.5
898 28 0.36169 0.852502 0.5
763 34 0.391203 0.835032 0.5
629 26 0.388274 0.868851 0.5
835 33 0.424139 0.82092 0.5
824 31 0.418529 0.856403 0.5
178 24 0.455656 0.830373 0.5
715 24 0.450833 0.8582 0.5
444 33 0.48397 0.817108 0.5
551 30 0.481689 0.850023 0.5
798 34 0.51736 0.845575 0.5
312 37 0.55024 0.826416 0.5
994 28 0.552202 0.859762 0.5
214 33 0.581961 0.844803 0.5
408 28 0.643442 0.820141 0.5
963 27 0.613717 0.832747 0.5
603 29 0.610775 0.864439 0.5
485 34 0.643008 0.852987 0.5
158 34 0.67746 0.839963 0.5
797 31 0.668054 0.875485 0.5
912 37 0.701513 0.86729 0.5
310 33 0.71972 0.836519 0.5
229 32 0.738505 0.865493 0.5
208 31 0.753736 0.837618 0.5
676 31 0.770329 0.869745 0.5
68 31 0.787666 0.839416 0.5
378 31 0.820761 0.841604 0.5
272 36 0.876913 0.821204 0.5
63 29 0.85164 0.841173 0.5
346 29 0.83936 0.869292 0.5
393 38 0.883759 0.858256 0.5
210 28 0.90954 0.833935 0.5
33 30 0.916226 0.867562 0.5
976 23 0.937955 0.843523 0.5
367 28 0.99752 0.824034 0.5
614 29 0.946991 0.878521 0.5
846 33 0.970534 0.847846 0.5
80 30 0.0167744 0.888324 0.5
245 23 0.045136 0.904613 0.5
939 36 0.0185592 0.923603 0.5
754 31 0.0651983 0.881475 0.5
517 35 0.0966441 0.897337 0.5
813 30 0.0714909 0.918166 0.5
597 25 0.101285 0.931885 0.5
469 36 0.127547 0.88285 0.5
953 29 0.157358 0.896953 0.5
809 27 0.127494 0.914362 0.5
608 30 0.159151 0.928569 0.5
71 34 0.218737 0.888647 0.5
54 29 0.189104 0.905098 0.5
385 31 0.220204 0.9225 0.5
536 28 0.275111 0.883452 0.5
592 25 0.249258 0.904564 0.5
991 32 0.279285 0.917907 0.5
325 32 0.250736 0.937703 0.5
701 37 0.306988 0.896789 0.5
957 35 0.340341 0.912567 0.5
181 31 0.310998 0.932418 0.5
699 24 0.363661 0.883848 0.5
445 35 0.403085 0.897024 0.5
493 26 0.374056 0.912669 0.5
104 26 0.397255 0.932562 0.5
464 30 0.433853 0.887041 0.5
413 27 0.467943 0.88132 0.5
425 32 0.427764 0.91986 0.5
372 27 0.457617 0.911443 0.5
358 28 0.498295 0.875366 0.5
211 20 0.526839 0.876158 0.5
492 38 0.489816 0.909045 0.5
580 28 0.519595 0.90332 0.5
704 34 0.580619 0.879461 0.5
752 27 0.550593 0.892344 0.5
637 28 0.544446 0.924112 0.5
57 32 0.575784 0.914352 0.5
795 35 0.636022 0.886253 0.5
737 34 0.606382 0.899887 0.5
832 40 0.634847 0.925498 0.5
360 19 0.661413 0.904648 0.5
530 29 0.689977 0.899583 0.5
744 33 0.673546 0.931134 0.5
779 36 0.707807 0.930963 0.5
768 31 0.721344 0.896496 0.5
106 21 0.751165 0.892802 0.5
571 41 0.745154 0.925766 0.5
677 38 0.804562 0.877958 0.5
859 38 0.780032 0.906827 0.5
589 25 0.809799 0.914674 0.5
350 18 0.86449 0.882318 0.5
938 24 0.834165 0.896829 0.5
933 29 0.863898 0.910969 0.5
456 31 0.837545 0.927368 0.5
648 26 0.891532 0.893031 0.5
733 37 0.922313 0.902008 0.5
377 27 0.893994 0.925165 0.5
24 30 0.980462 0.878836 0.5
770 40 0.958678 0.9149 0.5
886 28 0.992333 0.907209 0.5
673 27 0.0475618 0.93899 0.5
120 30 0.021645 0.986951 0.5
736 26 0.0203601 0.9554 0.5
87 29 0.0489012 0.970281 0.5
823 29 0.0788317 0.951785 0.5
706 32 0.0787781 0.98639 0.5
851 31 0.106939 0.965904 0.5
28 27 0.13222 0.946119 0.5
429 27 0.134985 0.977049 0.5
169 22 0.162051 0.96027 0.5
995 26 0.163729 0.98673 0.5
389 38 0.191358 0.939658 0.5
405 29 0.191532 0.971887 0.5
848 29 0.223904 0.957124 0.5
216 40 0.22388 0.995063 0.5
409 30 0.282953 0.950927 0.5
144 33 0.253473 0.970829 0.5
374 34 0.285427 0.988728 0.5
31 24 0.338335 0.944524 0.5
607 36 0.314257 0.969067 0.5
440 38 0.352091 0.972836 0.5
114 26 0.368071 0.940966 0.5
914 26 0.381783 0.99345 0.5
274 28 0.387693 0.964253 0.5
263 29 0.411801 0.985665 0.5
871 29 0.452632 0.945656 0.5
950 31 0.419683 0.952657 0.5
103 32 0.444197 0.977388 0.5
646 28 0.485042 0.942095 0.5
845 28 0.51473 0.934374 0.5
72 26 0.477003 0.972761 0.5
508 28 0.506718 0.965989 0.5
761 29 0.530192 0.990516 0.5
305 30 0.570273 0.945409 0.5
174 31 0.539347 0.956066 0.5
452 33 0.56179 0.979731 0.5
742 31 0.600719 0.935264 0.5
887 32 0.594212 0.97083 0.5
540 34 0.62894 0.991485 0.5
91 25 0.621937 0.959216 0.5
568 31 0.651293 0.958063 0.5
317 36 0.665419 0.989245 0.5
307 32 0.687917 0.961808 0.5
745 34 0.70326 0.990789 0.5
855 31 0.739819 0.992063 0.5
363 26 0.718388 0.961303 0.5
653 25 0.747601 0.959733 0.5
615 28 0.774815 0.944068 0.5
857 38 0.808532 0.948649 0.5
382 37 0.773923 0.979142 0.5
611 35 0.809678 0.984247 0.5
574 23 0.868324 0.941368 0.5
879 33 0.843699 0.961766 0.5
803 31 0.871044 0.982847 0.5
202 37 0.92692 0.93879 0.5
806 28 0.904055 0.990783 0.5
849 35 0.896594 0.958557 0.5
170 33 0.932747 0.973025 0.5
766 29 0.987365 0.938438 0.5
705 29 0.960994 0.954651 0.5
171 33 0.991102 0.97038 0.5
596 28 0.963236 0.986398 0.5
