ITEM: TIMESTEP
2100000
ITEM: NUMBER OF ATOMS
1000
ITEM: BOX BOUNDS pp pp pp
-1.6661811000000000e+01 1.6661811000000000e+01
-1.6661811000000000e+01 1.6661811000000000e+01
-5.0000000000000000e-01 5.0000000000000000e-01
ITEM: ATOMS id type xs ys zs
249 35 0.0143156 0.0360705 0.5
589 21 0.0285697 0.010209 0.5
648 22 0.0406862 0.0631504 0.5
115 19 -0.00051576 0.00907918 0.5
663 34 0.0541163 0.0350754 0.5
931 29 0.0860913 0.0253902 0.5
743 33 0.107769 0.0479304 0.5
378 32 0.117029 0.0154379 0.5
238 22 0.144252 0.0288596 0.5
143 30 0.138666 0.0566537 0.5
891 34 0.170221 0.0446768 0.5
33 30 0.202346 0.027808 0.5
538 35 0.175447 0.00881576 0.5
516 44 0.256295 0.0358514 0.5
37 28 0.227909 0.0123623 0.5
466 48 0.292219 0.0172126 0.5
172 16 0.332539 0.0287701 0.5
490 32 0.322084 -0.00407207 0.5
673 25 0.368285 0.0313226 0.5
67 30 0.354186 0.00431231 0.5
180 34 0.354984 0.0596261 0.5
351 31 0.40654 0.0355012 0.5
31 20 0.435469 0.0272042 0.5
315 27 0.432011 -0.000479189 0.5
706 33 0.462031 0.0183697 0.5
852 35 0.489093 -0.00135857 0.5
239 37 0.492647 0.0323158 0.5
280 41 0.517738 0.0580944 0.5
769 28 0.518881 0.0149388 0.5
181 32 0.544101 0.0360571 0.5
961 29 0.576451 0.0323367 0.5
896 29 0.584555 0.000753001 0.5
808 24 0.604939 0.0325115 0.5
230 31 0.649212 0.0240299 0.5
701 41 0.627451 0.0559501 0.5
327 31 0.681955 0.0222746 0.5
558 32 0.707089 0.00361611 0.5
494 19 0.691444 0.0544255 0.5
355 32 0.66232 0.0533007 0.5
752 24 0.750435 0.0409814 0.5
921 40 0.741997 0.00749471 0.5
649 38 0.717616 0.0389871 0.5
741 35 0.813203 0.0131608 0.5
824 32 0.776264 0.0246896 0.5
243 34 0.809227 0.0471812 0.5
301 39 0.842347 0.0361604 0.5
356 22 0.87083 0.0245531 0.5
561 32 0.881518 0.0511947 0.5
307 33 0.902734 0.0271118 0.5
332 25 0.933435 0.0185586 0.5
655 28 0.911609 0.0571857 0.5
990 44 0.966461 0.0172016 0.5
569 34 0.943046 0.0474757 0.5
939 40 0.00904561 0.0704883 0.5
677 42 0.0494824 0.0934498 0.5
964 34 0.0166746 0.105172 0.5
113 37 0.0756257 0.0615848 0.5
920 28 0.0830374 0.095405 0.5
242 38 0.113713 0.0814645 0.5
89 30 0.140235 0.100968 0.5
998 31 0.163063 0.0770917 0.5
155 30 0.195027 0.0654491 0.5
272 39 0.185525 0.101599 0.5
382 41 0.223021 0.0892467 0.5
766 28 0.225205 0.05522 0.5
940 26 0.250819 0.0692679 0.5
976 19 0.273576 0.0857902 0.5
662 33 0.3209 0.0552163 0.5
846 35 0.28717 0.0587244 0.5
705 28 0.304782 0.0860052 0.5
995 23 0.319799 0.11572 0.5
215 26 0.335688 0.0846589 0.5
439 27 0.37362 0.0869313 0.5
197 28 0.394963 0.113655 0.5
167 25 0.38789 0.0584097 0.5
169 17 0.423281 0.0557617 0.5
257 35 0.404647 0.0835643 0.5
14 28 0.4364 0.0796055 0.5
511 41 0.45483 0.0520446 0.5
559 34 0.465927 0.09335 0.5
650 28 0.484537 0.0691217 0.5
996 24 0.502297 0.0908475 0.5
389 43 0.537957 0.0909042 0.5
385 32 0.559751 0.0636139 0.5
455 31 0.59165 0.0620912 0.5
831 28 0.575822 0.0910358 0.5
15 35 0.612564 0.0893482 0.5
763 36 0.649919 0.0857897 0.5
178 20 0.67837 0.0773685 0.5
993 29 0.708795 0.0754781 0.5
900 22 0.699215 0.101898 0.5
715 19 0.674785 0.100784 0.5
537 25 0.737053 0.0666058 0.5
445 37 0.729503 0.104965 0.5
592 22 0.758768 0.0828422 0.5
57 33 0.776622 0.0573805 0.5
898 27 0.796525 0.082427 0.5
926 35 0.825038 0.102162 0.5
102 19 0.825439 0.069981 0.5
485 36 0.854357 0.0697194 0.5
413 24 0.858069 0.100312 0.5
779 40 0.887232 0.0845565 0.5
55 27 0.92827 0.0833333 0.5
737 36 0.911562 0.111153 0.5
858 34 0.975946 0.0522245 0.5
938 20 0.952991 0.0752626 0.5
930 24 0.979744 0.084696 0.5
530 28 0.955334 0.103218 0.5
676 31 0.0392184 0.133968 0.5
365 26 0.00775377 0.136799 0.5
745 37 0.0248192 0.165396 0.5
656 17 -0.00391094 0.167077 0.5
34 31 0.0705383 0.125976 0.5
329 36 0.0937972 0.14924 0.5
855 31 0.0600613 0.160071 0.5
393 42 0.109917 0.117612 0.5
85 19 0.12307 0.146662 0.5
923 35 0.152956 0.13054 0.5
350 10 0.20749 0.117665 0.5
712 29 0.17496 0.162464 0.5
97 20 0.181659 0.132015 0.5
933 28 0.206665 0.142313 0.5
456 31 0.254708 0.105642 0.5
193 27 0.231514 0.125694 0.5
542 32 0.235339 0.156916 0.5
310 34 0.267996 0.136011 0.5
813 30 0.288956 0.112335 0.5
279 33 0.305648 0.142791 0.5
227 32 0.351661 0.110732 0.5
290 31 0.337824 0.139439 0.5
298 41 0.372774 0.139782 0.5
469 39 0.427963 0.115975 0.5
596 26 0.40479 0.148198 0.5
18 46 0.440142 0.151308 0.5
927 33 0.490672 0.121478 0.5
81 26 0.460597 0.124098 0.5
953 28 0.475252 0.148563 0.5
325 33 0.523902 0.122737 0.5
71 35 0.507393 0.15251 0.5
203 43 0.54371 0.152362 0.5
682 38 0.564362 0.121012 0.5
621 26 0.57671 0.151644 0.5
694 31 0.59896 0.118829 0.5
525 24 0.621931 0.137968 0.5
856 26 0.634516 0.113229 0.5
78 15 0.645132 0.144096 0.5
536 26 0.660621 0.12318 0.5
58 26 0.671028 0.151444 0.5
944 29 0.691987 0.129402 0.5
493 22 0.69794 0.156894 0.5
390 33 0.723434 0.143222 0.5
372 25 0.750391 0.130411 0.5
90 43 0.752498 0.167122 0.5
256 34 0.782828 0.110522 0.5
551 30 0.780287 0.143126 0.5
788 35 0.810665 0.133142 0.5
699 20 0.798387 0.166076 0.5
795 38 0.845446 0.133468 0.5
103 34 0.874238 0.155402 0.5
425 33 0.878101 0.122455 0.5
208 32 0.837186 0.167171 0.5
580 26 0.905105 0.144055 0.5
806 26 0.953943 0.16092 0.5
138 32 0.938948 0.134804 0.5
229 33 0.984579 0.114685 0.5
644 30 0.979539 0.145971 0.5
528 34 0.0108745 0.199943 0.5
571 48 0.0490958 0.201666 0.5
408 26 0.0256899 0.228017 0.5
776 31 0.08577 0.188397 0.5
346 29 0.08156 0.221852 0.5
164 35 0.111401 0.209199 0.5
653 22 0.143962 0.161946 0.5
130 27 0.115064 0.174223 0.5
733 41 0.142462 0.193258 0.5
886 27 0.203433 0.171138 0.5
260 27 0.175544 0.191537 0.5
736 23 0.204519 0.199453 0.5
700 24 0.227649 0.186471 0.5
170 34 0.264488 0.171886 0.5
66 32 0.254803 0.202621 0.5
210 26 0.295519 0.171467 0.5
171 35 0.288104 0.201826 0.5
685 30 0.325089 0.167674 0.5
245 18 0.317568 0.193249 0.5
720 27 0.34358 0.202577 0.5
849 37 0.358728 0.174416 0.5
756 27 0.373401 0.202324 0.5
448 33 0.393387 0.179564 0.5
513 26 0.403202 0.209663 0.5
577 39 0.428857 0.189991 0.5
936 22 0.432356 0.220837 0.5
442 37 0.46407 0.181145 0.5
87 27 0.489833 0.215864 0.5
957 38 0.503093 0.186511 0.5
671 23 0.535576 0.185722 0.5
607 40 0.55922 0.212887 0.5
414 36 0.522891 0.216961 0.5
845 26 0.564547 0.17796 0.5
734 33 0.589847 0.195711 0.5
798 36 0.607915 0.167699 0.5
464 30 0.640694 0.171012 0.5
409 30 0.621291 0.197444 0.5
114 23 0.65337 0.196725 0.5
452 34 0.640878 0.225908 0.5
934 22 0.716877 0.175096 0.5
467 32 0.680693 0.182011 0.5
434 22 0.700431 0.20558 0.5
497 33 0.673395 0.218492 0.5
629 23 0.726635 0.201009 0.5
742 31 0.756607 0.204428 0.5
994 27 0.783541 0.188063 0.5
492 43 0.816571 0.195859 0.5
744 34 0.789335 0.21948 0.5
955 27 0.862608 0.184093 0.5
430 34 0.88046 0.211605 0.5
768 31 0.893741 0.180398 0.5
363 23 0.848767 0.208154 0.5
986 27 0.923842 0.166492 0.5
749 27 0.943149 0.18787 0.5
704 36 0.916657 0.205902 0.5
797 32 0.97357 0.182904 0.5
270 32 0.981643 0.215361 0.5
859 43 0.0251943 0.261553 0.5
244 28 0.0524411 0.238742 0.5
259 15 0.0772244 0.248393 0.5
2 28 0.059272 0.26985 0.5
326 48 0.0940323 0.277775 0.5
574 18 0.137748 0.223991 0.5
762 33 0.105271 0.243041 0.5
345 33 0.155534 0.248369 0.5
597 21 0.127331 0.269347 0.5
429 25 0.198653 0.226453 0.5
729 20 0.166795 0.220162 0.5
405 28 0.18618 0.251914 0.5
792 31 0.228469 0.219165 0.5
202 42 0.224881 0.255769 0.5
369 36 0.260637 0.236571 0.5
929 35 0.268239 0.272515 0.5
252 37 0.315716 0.225174 0.5
803 31 0.290916 0.248799 0.5
917 42 0.330699 0.258341 0.5
787 25 0.351559 0.230899 0.5
812 25 0.381883 0.230698 0.5
179 31 0.36661 0.256938 0.5
24 29 0.393966 0.270921 0.5
614 29 0.41051 0.238114 0.5
54 28 0.428376 0.266716 0.5
823 27 0.446196 0.243849 0.5
809 25 0.461415 0.219144 0.5
80 29 0.459799 0.269955 0.5
834 31 0.479049 0.244198 0.5
488 24 0.492427 0.269699 0.5
871 27 0.50892 0.245155 0.5
273 27 0.526523 0.271014 0.5
274 26 0.54053 0.244243 0.5
400 36 0.563948 0.278875 0.5
263 28 0.56974 0.245813 0.5
914 23 0.590635 0.265746 0.5
440 43 0.600936 0.231117 0.5
500 46 0.625809 0.262399 0.5
121 33 0.660205 0.25212 0.5
658 38 0.693536 0.246528 0.5
531 24 0.694966 0.278183 0.5
358 27 0.726228 0.22914 0.5
4 34 0.725143 0.261651 0.5
874 41 0.758192 0.238582 0.5
443 27 0.755235 0.273897 0.5
104 23 0.79461 0.249972 0.5
317 40 0.824177 0.232786 0.5
508 26 0.815256 0.267443 0.5
603 28 0.859886 0.237605 0.5
566 32 0.844792 0.2654 0.5
176 33 0.875712 0.273111 0.5
63 28 0.949867 0.215982 0.5
521 33 0.890767 0.244282 0.5
265 46 0.926673 0.245788 0.5
377 25 0.998462 0.240459 0.5
698 17 0.99185 0.266154 0.5
312 42 0.966972 0.24727 0.5
751 22 0.019537 0.318717 0.5
548 39 0.0400904 0.295972 0.5
27 34 0.046245 0.332065 0.5
416 35 0.0050803 0.292847 0.5
606 36 0.0733584 0.31138 0.5
611 39 0.112148 0.314015 0.5
428 27 0.143697 0.292981 0.5
618 38 0.170165 0.311053 0.5
124 26 0.172553 0.277542 0.5
233 25 0.200333 0.277107 0.5
781 28 0.202855 0.306646 0.5
985 22 0.221091 0.326686 0.5
770 45 0.236246 0.29258 0.5
897 31 0.274697 0.304562 0.5
199 39 0.301815 0.28207 0.5
672 31 0.306761 0.315692 0.5
687 34 0.33293 0.29664 0.5
367 26 0.364398 0.287961 0.5
586 47 0.375158 0.32217 0.5
140 29 0.402628 0.298873 0.5
293 38 0.435169 0.29847 0.5
84 25 0.412818 0.332475 0.5
174 31 0.472862 0.298099 0.5
162 32 0.487345 0.325661 0.5
802 37 0.507029 0.298074 0.5
132 31 0.539605 0.3017 0.5
72 23 0.556783 0.329133 0.5
608 29 0.577937 0.307592 0.5
427 31 0.605828 0.291983 0.5
674 26 0.611185 0.328966 0.5
368 34 0.633864 0.307396 0.5
568 32 0.662621 0.32271 0.5
136 40 0.661782 0.286352 0.5
952 35 0.692318 0.309834 0.5
980 27 0.71916 0.330034 0.5
402 40 0.726591 0.296862 0.5
761 29 0.7685 0.304846 0.5
529 27 0.799929 0.304489 0.5
666 33 0.785374 0.277542 0.5
289 19 0.824466 0.295537 0.5
418 36 0.828164 0.324344 0.5
277 24 0.854233 0.293413 0.5
305 29 0.881457 0.303916 0.5
838 19 0.859598 0.325919 0.5
165 19 0.906582 0.317378 0.5
799 26 0.910474 0.27645 0.5
963 25 0.937724 0.278128 0.5
829 22 0.927801 0.305334 0.5
887 33 0.986879 0.328416 0.5
141 33 0.96954 0.284569 0.5
353 28 0.956093 0.312792 0.5
983 32 0.0152716 0.347938 0.5
901 39 0.0443041 0.366528 0.5
615 27 0.0134847 0.377956 0.5
41 31 0.0758884 0.343754 0.5
696 26 0.10623 0.347547 0.5
652 46 0.0901804 0.380205 0.5
716 30 0.124542 0.373994 0.5
545 42 0.138543 0.34112 0.5
26 43 0.15899 0.382249 0.5
881 25 0.17271 0.3515 0.5
959 25 0.196929 0.338585 0.5
882 38 0.195993 0.372487 0.5
851 32 0.251434 0.328476 0.5
636 19 0.22503 0.353528 0.5
750 33 0.25727 0.359712 0.5
111 28 0.226956 0.383061 0.5
407 24 0.278343 0.338712 0.5
303 28 0.306867 0.350961 0.5
965 29 0.28395 0.376388 0.5
376 44 0.337791 0.335009 0.5
8 23 0.331412 0.368387 0.5
534 35 0.367181 0.358736 0.5
786 41 0.402315 0.363 0.5
28 26 0.437035 0.351072 0.5
815 30 0.453254 0.326464 0.5
754 31 0.465573 0.36515 0.5
646 26 0.49688 0.354214 0.5
457 40 0.522717 0.334857 0.5
991 34 0.522934 0.3696 0.5
96 30 0.583658 0.34027 0.5
950 32 0.555379 0.361432 0.5
977 38 0.58537 0.377193 0.5
91 22 0.635502 0.33975 0.5
645 34 0.61762 0.362546 0.5
360 11 0.61171 0.388756 0.5
333 30 0.638885 0.387243 0.5
217 33 0.657883 0.357817 0.5
44 34 0.690746 0.343392 0.5
637 27 0.716632 0.359924 0.5
9 26 0.687493 0.374844 0.5
21 31 0.748789 0.328259 0.5
251 32 0.748279 0.361743 0.5
832 45 0.783193 0.336348 0.5
540 36 0.812144 0.359045 0.5
879 35 0.783608 0.381071 0.5
772 33 0.844878 0.354211 0.5
679 48 0.887507 0.345877 0.5
544 27 0.877 0.379744 0.5
343 35 0.846394 0.386694 0.5
375 30 0.907742 0.375212 0.5
166 30 0.926313 0.337644 0.5
519 21 0.940166 0.369806 0.5
100 34 0.957277 0.343905 0.5
12 36 0.984461 0.365722 0.5
364 33 0.961606 0.396682 0.5
264 31 0.057234 0.397944 0.5
283 39 0.051881 0.434479 0.5
661 30 0.023706 0.406243 0.5
553 32 0.0173617 0.438329 0.5
196 31 0.0876238 0.417082 0.5
962 53 0.127035 0.41196 0.5
126 32 0.162044 0.426601 0.5
628 31 0.186252 0.404099 0.5
7 36 0.219463 0.419057 0.5
631 30 0.1934 0.438201 0.5
524 35 0.252839 0.426524 0.5
120 30 0.257939 0.393399 0.5
458 39 0.287134 0.418137 0.5
785 34 0.314272 0.391947 0.5
77 15 0.32784 0.416966 0.5
357 39 0.349073 0.397017 0.5
783 24 0.380951 0.394306 0.5
902 29 0.365447 0.426294 0.5
686 30 0.346794 0.45098 0.5
709 30 0.425253 0.389892 0.5
564 25 0.398943 0.417511 0.5
966 22 0.42933 0.420287 0.5
885 22 0.446032 0.448268 0.5
144 35 0.491437 0.384432 0.5
216 46 0.458623 0.400303 0.5
848 28 0.470298 0.434929 0.5
555 30 0.497532 0.415743 0.5
73 31 0.525014 0.402008 0.5
753 33 0.530273 0.436839 0.5
841 31 0.556353 0.392732 0.5
517 39 0.565567 0.426469 0.5
665 46 0.603616 0.416539 0.5
424 20 0.638889 0.415069 0.5
384 47 0.670822 0.406417 0.5
348 26 0.640734 0.441552 0.5
426 19 0.665922 0.45133 0.5
225 36 0.693054 0.438564 0.5
727 38 0.716442 0.392123 0.5
157 33 0.723718 0.426152 0.5
619 32 0.751033 0.392802 0.5
47 31 0.758309 0.424039 0.5
582 27 0.787377 0.4141 0.5
278 34 0.815335 0.399273 0.5
43 37 0.813348 0.434729 0.5
267 25 0.842892 0.421554 0.5
476 18 0.870941 0.404971 0.5
910 30 0.870357 0.431577 0.5
341 23 0.930805 0.394219 0.5
557 40 0.901655 0.409408 0.5
960 44 0.940446 0.427908 0.5
137 34 0.902421 0.444414 0.5
94 22 0.996201 0.401948 0.5
191 39 0.984621 0.430823 0.5
869 33 0.0354032 0.465676 0.5
60 25 0.0463085 0.493483 0.5
187 34 0.0144412 0.491513 0.5
533 37 0.0952706 0.448665 0.5
822 37 0.0686866 0.472031 0.5
793 28 0.101172 0.481439 0.5
789 27 0.0800448 0.502585 0.5
600 38 0.133467 0.454911 0.5
575 33 0.135289 0.490592 0.5
288 38 0.168636 0.461102 0.5
925 19 0.168872 0.495559 0.5
234 35 0.200198 0.474463 0.5
336 38 0.227792 0.498516 0.5
872 42 0.232318 0.458977 0.5
22 35 0.260298 0.487798 0.5
833 33 0.268246 0.4557 0.5
541 34 0.31575 0.4442 0.5
690 25 0.298273 0.477487 0.5
641 29 0.287552 0.505835 0.5
92 26 0.329998 0.477347 0.5
702 26 0.316451 0.505885 0.5
506 39 0.364598 0.478639 0.5
154 27 0.384508 0.448354 0.5
616 29 0.415759 0.445026 0.5
20 37 0.403347 0.47529 0.5
888 27 0.437891 0.475302 0.5
837 34 0.499608 0.448152 0.5
556 28 0.469531 0.464834 0.5
707 52 0.502027 0.494916 0.5
935 23 0.525108 0.466245 0.5
331 25 0.54376 0.486823 0.5
664 32 0.55785 0.460608 0.5
847 41 0.591705 0.454586 0.5
403 23 0.583534 0.487012 0.5
101 26 0.610286 0.485315 0.5
6 7 0.619281 0.449414 0.5
383 37 0.642028 0.473965 0.5
730 32 0.632321 0.505852 0.5
593 22 0.687491 0.467888 0.5
175 49 0.673018 0.500008 0.5
133 32 0.717741 0.46151 0.5
281 23 0.704947 0.488529 0.5
626 37 0.754392 0.467874 0.5
892 19 0.782811 0.495563 0.5
206 32 0.783307 0.448621 0.5
821 24 0.825888 0.462702 0.5
118 24 0.797707 0.47411 0.5
177 21 0.848986 0.45075 0.5
864 22 0.849985 0.481793 0.5
632 30 0.87565 0.464924 0.5
578 28 0.87436 0.495502 0.5
911 28 0.929565 0.462039 0.5
778 22 0.898319 0.481087 0.5
853 14 0.91977 0.492132 0.5
974 24 0.944596 0.486979 0.5
713 39 0.964778 0.463024 0.5
777 25 0.983125 0.488754 0.5
973 18 0.9972 0.458386 0.5
807 20 0.0304528 0.515397 0.5
450 21 0.0194614 0.539683 0.5
601 31 0.0449489 0.554735 0.5
480 24 0.0788103 0.552626 0.5
95 33 0.0577313 0.523678 0.5
472 25 0.0915495 0.527867 0.5
862 22 0.109566 0.508602 0.5
447 39 0.121628 0.541273 0.5
212 22 0.152956 0.544967 0.5
791 25 0.144999 0.518802 0.5
967 22 0.192436 0.505476 0.5
951 29 0.177093 0.531084 0.5
764 40 0.212131 0.531165 0.5
342 43 0.258272 0.523713 0.5
460 36 0.240829 0.557478 0.5
948 39 0.276048 0.556502 0.5
286 31 0.303382 0.532569 0.5
928 34 0.33546 0.542211 0.5
51 32 0.347664 0.509664 0.5
563 38 0.368993 0.535382 0.5
693 28 0.386198 0.505791 0.5
532 27 0.423377 0.499797 0.5
201 35 0.439745 0.529534 0.5
275 32 0.403393 0.532465 0.5
361 34 0.455964 0.499909 0.5
36 39 0.476579 0.53071 0.5
651 21 0.53048 0.514236 0.5
794 31 0.509976 0.5343 0.5
296 29 0.538514 0.543623 0.5
949 36 0.563962 0.511008 0.5
232 26 0.601233 0.548028 0.5
740 35 0.598125 0.514615 0.5
620 26 0.567174 0.544434 0.5
765 21 0.625563 0.53417 0.5
893 29 0.637177 0.56278 0.5
805 26 0.65541 0.538575 0.5
549 29 0.667809 0.565306 0.5
471 22 0.682072 0.534042 0.5
581 20 0.706641 0.537717 0.5
590 22 0.712958 0.513348 0.5
522 38 0.739528 0.549732 0.5
999 39 0.741491 0.501587 0.5
195 39 0.766403 0.526948 0.5
421 35 0.820867 0.494062 0.5
110 30 0.799073 0.518141 0.5
70 26 0.824403 0.532604 0.5
625 33 0.799079 0.550697 0.5
46 35 0.848482 0.513536 0.5
478 29 0.877632 0.527559 0.5
282 26 0.853441 0.548257 0.5
338 28 0.901401 0.509291 0.5
39 25 0.936354 0.548751 0.5
438 26 0.907727 0.546906 0.5
313 34 0.932956 0.515757 0.5
790 33 0.993467 0.525222 0.5
156 22 0.962159 0.511872 0.5
723 28 0.966456 0.540004 0.5
188 32 0.0184411 0.574528 0.5
495 34 0.0322295 0.603389 0.5
827 45 0.0642666 0.584123 0.5
913 28 0.0985091 0.574379 0.5
512 32 0.129138 0.577574 0.5
748 37 0.109801 0.606291 0.5
826 30 0.154121 0.603426 0.5
186 32 0.195269 0.560651 0.5
972 28 0.16272 0.574749 0.5
316 41 0.192034 0.599646 0.5
145 22 0.226434 0.616524 0.5
970 19 0.219122 0.581076 0.5
475 24 0.260646 0.585621 0.5
634 12 0.240796 0.597344 0.5
422 30 0.309237 0.563794 0.5
40 43 0.293477 0.5964 0.5
446 27 0.325738 0.58751 0.5
151 41 0.354553 0.571662 0.5
45 27 0.380391 0.597655 0.5
105 31 0.389814 0.566846 0.5
771 23 0.413763 0.586907 0.5
875 35 0.422906 0.558431 0.5
958 19 0.440053 0.581911 0.5
228 26 0.453404 0.557852 0.5
796 25 0.484562 0.564771 0.5
406 29 0.465893 0.588195 0.5
412 28 0.494724 0.594399 0.5
728 35 0.516781 0.567301 0.5
1000 38 0.550258 0.576355 0.5
65 32 0.523538 0.603441 0.5
128 31 0.608779 0.576546 0.5
479 16 0.582965 0.566695 0.5
573 30 0.583856 0.597086 0.5
491 29 0.647654 0.592563 0.5
692 27 0.611071 0.610788 0.5
688 25 0.67685 0.592328 0.5
587 38 0.705293 0.567964 0.5
17 25 0.705579 0.601511 0.5
42 45 0.739007 0.58726 0.5
866 28 0.770828 0.564884 0.5
988 14 0.773469 0.589125 0.5
997 36 0.801649 0.583793 0.5
431 31 0.830707 0.567884 0.5
968 41 0.833524 0.602819 0.5
294 29 0.861094 0.584524 0.5
760 24 0.881532 0.564851 0.5
599 34 0.891796 0.59389 0.5
271 29 0.867619 0.613696 0.5
318 37 0.920371 0.575544 0.5
818 23 0.917572 0.610808 0.5
381 33 0.960409 0.570266 0.5
585 33 0.990659 0.558603 0.5
725 42 0.989452 0.593804 0.5
109 47 0.951443 0.606793 0.5
675 26 0.0184351 0.633336 0.5
514 23 0.0457837 0.63405 0.5
546 33 0.0305873 0.661332 0.5
680 29 0.106786 0.64017 0.5
854 27 0.0706671 0.617335 0.5
190 44 0.0726601 0.653043 0.5
129 39 0.140034 0.633425 0.5
204 35 0.16708 0.660732 0.5
830 28 0.174521 0.628217 0.5
684 23 0.196891 0.660094 0.5
19 27 0.205646 0.634286 0.5
594 34 0.263615 0.616046 0.5
205 26 0.220445 0.67619 0.5
441 29 0.237757 0.648806 0.5
410 44 0.272747 0.651194 0.5
668 19 0.297721 0.627568 0.5
29 28 0.324547 0.625628 0.5
10 29 0.310893 0.658584 0.5
246 34 0.344482 0.650371 0.5
117 32 0.3488 0.607406 0.5
504 43 0.377559 0.635831 0.5
732 27 0.403959 0.613614 0.5
349 45 0.440695 0.615218 0.5
62 27 0.415789 0.639684 0.5
595 37 0.448374 0.653701 0.5
11 40 0.478768 0.62406 0.5
266 37 0.482496 0.659782 0.5
324 42 0.513596 0.636413 0.5
767 44 0.550869 0.646932 0.5
125 30 0.555125 0.612615 0.5
404 31 0.581325 0.628353 0.5
23 26 0.598434 0.652243 0.5
814 31 0.64799 0.62321 0.5
306 25 0.623404 0.640098 0.5
432 28 0.647853 0.655449 0.5
899 19 0.620341 0.668756 0.5
83 31 0.678798 0.623473 0.5
904 36 0.706839 0.643646 0.5
678 29 0.729012 0.620397 0.5
64 32 0.76044 0.616747 0.5
496 30 0.740951 0.650453 0.5
711 36 0.7764 0.646388 0.5
392 30 0.794968 0.619053 0.5
981 29 0.807132 0.660845 0.5
269 32 0.828669 0.637405 0.5
142 31 0.862724 0.643794 0.5
876 31 0.894361 0.628201 0.5
784 27 0.923427 0.639698 0.5
135 28 0.896648 0.658151 0.5
465 26 0.986118 0.626962 0.5
918 43 0.957473 0.64657 0.5
503 40 0.995714 0.658786 0.5
237 37 0.0134245 0.692537 0.5
240 28 0.045417 0.691247 0.5
489 17 0.0630552 0.712884 0.5
328 20 0.0720115 0.690545 0.5
38 29 0.0970487 0.68018 0.5
200 36 0.0918517 0.712873 0.5
906 42 0.13176 0.671495 0.5
398 41 0.13017 0.709705 0.5
344 17 0.156258 0.693187 0.5
714 29 0.162076 0.720663 0.5
74 37 0.187599 0.689984 0.5
419 34 0.193603 0.723532 0.5
647 30 0.221141 0.707236 0.5
722 34 0.25129 0.679506 0.5
617 34 0.25267 0.712719 0.5
284 37 0.28915 0.683969 0.5
423 35 0.33613 0.686679 0.5
116 19 0.310951 0.704206 0.5
543 35 0.369573 0.672255 0.5
883 38 0.363207 0.709738 0.5
942 23 0.399328 0.662698 0.5
572 35 0.423178 0.681362 0.5
956 34 0.395405 0.698849 0.5
386 39 0.429608 0.715261 0.5
226 32 0.457242 0.687118 0.5
388 24 0.486535 0.691039 0.5
53 37 0.470578 0.717562 0.5
347 50 0.518151 0.677251 0.5
526 30 0.538979 0.710628 0.5
758 18 0.553273 0.681778 0.5
112 23 0.576582 0.667981 0.5
311 26 0.596553 0.686589 0.5
371 29 0.573328 0.705903 0.5
604 18 0.602263 0.711734 0.5
394 29 0.651058 0.686958 0.5
840 24 0.62297 0.696189 0.5
323 30 0.681093 0.665531 0.5
691 42 0.711959 0.679155 0.5
782 26 0.678253 0.698596 0.5
816 33 0.753976 0.680456 0.5
474 27 0.732054 0.710719 0.5
454 32 0.766015 0.712095 0.5
481 30 0.813636 0.691552 0.5
870 29 0.784439 0.684768 0.5
560 28 0.797548 0.720156 0.5
35 40 0.846005 0.675969 0.5
695 17 0.875903 0.675993 0.5
119 28 0.867666 0.70277 0.5
867 40 0.834067 0.719209 0.5
633 30 0.90035 0.693521 0.5
861 37 0.926818 0.670949 0.5
295 34 0.933359 0.708158 0.5
314 32 0.900435 0.724752 0.5
93 48 0.96459 0.687708 0.5
231 32 0.989919 0.717196 0.5
726 29 0.038497 0.721506 0.5
971 16 0.0113527 0.733336 0.5
880 44 0.00931475 0.765205 0.5
435 20 0.0365077 0.74938 0.5
759 38 0.064968 0.741553 0.5
539 31 0.0710068 0.773768 0.5
992 40 0.100164 0.747302 0.5
98 37 0.139281 0.744446 0.5
399 35 0.15547 0.778216 0.5
401 22 0.120455 0.773229 0.5
99 23 0.169343 0.748952 0.5
127 20 0.18442 0.785197 0.5
82 35 0.199092 0.760074 0.5
352 25 0.229113 0.734865 0.5
535 22 0.22383 0.77638 0.5
801 24 0.244703 0.759942 0.5
721 26 0.270407 0.748965 0.5
576 34 0.285976 0.719031 0.5
451 34 0.303066 0.74864 0.5
300 39 0.331358 0.725919 0.5
627 34 0.363708 0.744132 0.5
32 18 0.33932 0.759908 0.5
804 28 0.391057 0.729798 0.5
550 22 0.420112 0.746165 0.5
287 38 0.393026 0.762295 0.5
507 28 0.430592 0.77623 0.5
884 39 0.450848 0.747329 0.5
235 37 0.487021 0.749733 0.5
640 39 0.506381 0.715631 0.5
638 55 0.528017 0.751247 0.5
470 29 0.561392 0.733017 0.5
184 25 0.590545 0.735826 0.5
198 37 0.564471 0.772361 0.5
602 23 0.594641 0.763841 0.5
820 29 0.64773 0.716816 0.5
309 35 0.620932 0.735513 0.5
915 25 0.650475 0.747462 0.5
321 31 0.623653 0.769371 0.5
50 33 0.687072 0.754863 0.5
800 20 0.675689 0.72845 0.5
30 33 0.70244 0.716839 0.5
49 26 0.745057 0.736729 0.5
932 25 0.718384 0.746196 0.5
52 40 0.747764 0.770047 0.5
254 34 0.775258 0.745245 0.5
147 30 0.810505 0.749748 0.5
605 22 0.80219 0.776842 0.5
322 19 0.837635 0.754014 0.5
683 36 0.869323 0.735257 0.5
501 36 0.863065 0.769591 0.5
868 41 0.933164 0.747196 0.5
843 36 0.894924 0.757144 0.5
183 27 0.918189 0.779538 0.5
223 14 0.987029 0.743358 0.5
579 26 0.960629 0.725501 0.5
584 23 0.964874 0.755128 0.5
916 23 0.978786 0.778503 0.5
889 27 0.0349362 0.788557 0.5
502 23 0.00305849 0.797503 0.5
689 30 0.0334433 0.821437 0.5
149 26 0.00309975 0.831997 0.5
477 31 0.0620693 0.807369 0.5
839 26 0.0951661 0.826074 0.5
946 29 0.099585 0.792204 0.5
724 44 0.128163 0.813147 0.5
86 30 0.152957 0.843787 0.5
610 30 0.164779 0.810759 0.5
459 38 0.194361 0.831179 0.5
657 22 0.204085 0.801196 0.5
747 21 0.254341 0.785719 0.5
194 31 0.234628 0.807751 0.5
48 23 0.274953 0.808779 0.5
554 28 0.283622 0.774761 0.5
387 28 0.309733 0.801098 0.5
954 21 0.320144 0.776161 0.5
909 26 0.323256 0.826735 0.5
69 37 0.361426 0.779682 0.5
291 25 0.34364 0.805931 0.5
667 25 0.376364 0.81922 0.5
79 41 0.407049 0.799806 0.5
220 30 0.439007 0.812084 0.5
835 34 0.402906 0.834201 0.5
739 48 0.466727 0.784087 0.5
520 32 0.460091 0.834661 0.5
13 32 0.506033 0.782372 0.5
978 19 0.537882 0.784887 0.5
3 34 0.488128 0.81772 0.5
825 39 0.524247 0.811292 0.5
152 36 0.593999 0.794437 0.5
486 40 0.559915 0.809159 0.5
509 25 0.601082 0.824405 0.5
370 40 0.630058 0.805658 0.5
25 34 0.657287 0.776876 0.5
373 37 0.660905 0.824874 0.5
335 35 0.682464 0.798473 0.5
681 21 0.691406 0.828007 0.5
810 31 0.718394 0.81668 0.5
334 34 0.715537 0.784458 0.5
411 31 0.751721 0.808292 0.5
297 30 0.771491 0.837634 0.5
755 23 0.777571 0.784867 0.5
635 19 0.783343 0.812087 0.5
654 22 0.809127 0.805929 0.5
570 35 0.832641 0.787812 0.5
975 25 0.83613 0.818554 0.5
878 32 0.864675 0.804164 0.5
622 27 0.890953 0.789504 0.5
515 28 0.921009 0.808526 0.5
354 36 0.892999 0.823212 0.5
285 30 0.950873 0.820819 0.5
134 36 0.94856 0.786909 0.5
612 25 0.977694 0.806795 0.5
719 20 0.976417 0.8343 0.5
236 45 0.0271528 0.857236 0.5
922 39 0.00779446 0.889499 0.5
299 22 0.0409102 0.89371 0.5
969 28 0.058466 0.841347 0.5
308 24 0.0586465 0.874669 0.5
207 31 0.0862357 0.854182 0.5
420 36 0.111268 0.87824 0.5
146 22 0.124631 0.846339 0.5
828 28 0.14203 0.871373 0.5
643 26 0.169001 0.885687 0.5
449 24 0.179953 0.859119 0.5
552 29 0.211868 0.863034 0.5
320 34 0.259126 0.833308 0.5
248 23 0.231014 0.842565 0.5
624 21 0.241335 0.867116 0.5
819 29 0.268601 0.863047 0.5
433 22 0.225323 0.891644 0.5
623 39 0.292766 0.838192 0.5
468 26 0.294548 0.877965 0.5
330 26 0.323062 0.854784 0.5
670 35 0.353084 0.839155 0.5
984 33 0.351265 0.872017 0.5
717 30 0.379145 0.857843 0.5
659 37 0.389662 0.891191 0.5
5 35 0.425701 0.88891 0.5
811 24 0.406616 0.8654 0.5
941 28 0.433204 0.847445 0.5
247 21 0.454965 0.863638 0.5
523 18 0.480278 0.855876 0.5
417 23 0.504268 0.844273 0.5
547 34 0.500859 0.874578 0.5
189 5 0.520207 0.857933 0.5
562 39 0.541522 0.842832 0.5
362 33 0.546439 0.88549 0.5
395 26 0.572491 0.869794 0.5
209 24 0.572447 0.839253 0.5
159 36 0.604951 0.882363 0.5
292 27 0.633522 0.839421 0.5
863 24 0.597943 0.852503 0.5
108 34 0.639803 0.876023 0.5
444 35 0.676731 0.854951 0.5
163 23 0.695305 0.879045 0.5
609 30 0.718424 0.847535 0.5
304 26 0.668447 0.885483 0.5
850 20 0.743575 0.835588 0.5
276 37 0.757608 0.868342 0.5
253 29 0.724786 0.878694 0.5
221 20 0.800465 0.830792 0.5
463 25 0.822835 0.843396 0.5
185 39 0.795565 0.860382 0.5
669 44 0.861286 0.840996 0.5
106 15 0.868806 0.873404 0.5
774 35 0.84102 0.87122 0.5
630 32 0.89138 0.859497 0.5
703 30 0.919948 0.84044 0.5
158 37 0.921275 0.875119 0.5
75 17 0.896684 0.889747 0.5
436 31 0.950123 0.851394 0.5
359 35 0.980159 0.867378 0.5
219 26 0.952828 0.881008 0.5
588 24 0.0397813 0.920756 0.5
258 41 0.00435407 0.924938 0.5
583 21 0.0286373 0.947041 0.5
123 12 0.059556 0.907298 0.5
905 30 0.0809362 0.893748 0.5
757 42 0.105642 0.946699 0.5
182 33 0.0749099 0.929895 0.5
224 29 0.140915 0.902341 0.5
642 31 0.108791 0.912303 0.5
518 30 0.136103 0.932343 0.5
718 15 0.165439 0.910726 0.5
1 24 0.198037 0.888804 0.5
396 32 0.193289 0.917882 0.5
775 34 0.259666 0.897117 0.5
505 34 0.230811 0.920876 0.5
131 26 0.26084 0.927899 0.5
738 33 0.323987 0.889522 0.5
731 36 0.292766 0.909996 0.5
339 38 0.324576 0.926336 0.5
61 33 0.351288 0.90656 0.5
462 28 0.379297 0.921151 0.5
903 31 0.41563 0.920153 0.5
380 41 0.450565 0.9159 0.5
437 33 0.470384 0.887659 0.5
639 18 0.491906 0.912931 0.5
567 28 0.480573 0.939317 0.5
168 39 0.513956 0.943135 0.5
473 31 0.520226 0.903135 0.5
150 42 0.547894 0.926287 0.5
979 37 0.575893 0.903146 0.5
890 35 0.581993 0.9416 0.5
844 34 0.607227 0.915748 0.5
817 38 0.643132 0.912592 0.5
218 20 0.65903 0.940158 0.5
773 16 0.636222 0.944208 0.5
302 24 0.680869 0.911512 0.5
214 35 0.712686 0.910042 0.5
268 49 0.691908 0.944608 0.5
482 29 0.747788 0.902017 0.5
153 40 0.763501 0.933685 0.5
88 46 0.783432 0.898639 0.5
76 24 0.814096 0.885121 0.5
908 17 0.792855 0.930063 0.5
836 28 0.819427 0.943163 0.5
919 21 0.819784 0.911247 0.5
319 29 0.857826 0.899995 0.5
107 29 0.849258 0.930151 0.5
484 35 0.885267 0.916894 0.5
250 30 0.917633 0.907177 0.5
660 26 0.906503 0.940888 0.5
340 18 0.93973 0.94021 0.5
483 27 0.978614 0.902328 0.5
591 24 0.950557 0.909316 0.5
68 32 0.967289 0.933364 0.5
857 43 0.0222573 0.978122 0.5
746 21 0.0500776 0.960692 0.5
943 50 0.0612708 0.998339 0.5
379 25 0.0765786 0.962596 0.5
510 37 0.0987529 0.987629 0.5
842 27 0.14476 1.00088 0.5
697 39 0.133155 0.970821 0.5
710 40 0.168353 0.941722 0.5
987 36 0.198865 0.960344 0.5
213 32 0.169755 0.97668 0.5
161 25 0.203669 0.99451 0.5
487 30 0.260062 1.00157 0.5
780 29 0.231744 0.952631 0.5
262 32 0.262415 0.959758 0.5
498 29 0.233635 0.98314 0.5
947 35 0.291224 0.944233 0.5
873 33 0.291685 0.980249 0.5
989 36 0.320581 0.960825 0.5
261 41 0.388412 1.0054 0.5
222 34 0.35553 0.945024 0.5
565 26 0.34807 0.974832 0.5
391 22 0.374669 0.977258 0.5
907 25 0.41854 0.950309 0.5
894 25 0.388797 0.948557 0.5
160 28 0.402104 0.974931 0.5
865 17 0.431014 0.971964 0.5
461 33 0.45137 0.950887 0.5
860 30 0.458539 0.985704 0.5
255 29 0.490672 0.966975 0.5
148 35 0.518868 0.983864 0.5
374 36 0.551312 0.999769 0.5
453 23 0.54158 0.96342 0.5
122 30 0.570205 0.971131 0.5
735 26 0.603604 0.978005 0.5
366 29 0.615362 1.00535 0.5
59 20 0.613662 0.951765 0.5
937 32 0.633669 0.976954 0.5
877 28 0.66042 0.995984 0.5
415 22 0.663801 0.967907 0.5
708 24 0.687435 0.978819 0.5
16 32 0.715771 0.972395 0.5
173 30 0.730474 0.936852 0.5
598 35 0.750096 0.967663 0.5
192 38 0.778084 0.991483 0.5
982 33 0.814805 0.980079 0.5
337 28 0.786983 0.958622 0.5
912 42 0.850822 1.00009 0.5
241 34 0.845554 0.961089 0.5
499 13 0.875325 0.976292 0.5
895 28 0.876417 0.950016 0.5
139 28 0.886499 0.998467 0.5
527 27 0.916697 0.996229 0.5
211 13 0.898313 0.965364 0.5
945 36 0.925809 0.965323 0.5
56 26 0.944353 0.991291 0.5
924 23 0.997798 0.956534 0.5
397 33 0.982745 0.982143 0.5
613 26 0.958719 0.96179 0.5
