ITEM: TIMESTEP
2000000
ITEM: NUMBER OF ATOMS
1000
ITEM: BOX BOUNDS pp pp pp
-1.6661811000000000e+01 1.6661811000000000e+01
-1.6661811000000000e+01 1.6661811000000000e+01
-5.0000000000000000e-01 5.0000000000000000e-01
ITEM: ATOMS id type xs ys zs
990 44 0.0156023 0.0187207 0.5
648 22 0.042782 0.040041 0.5
663 34 0.0507209 0.0046305 0.5
113 37 0.0738758 0.0370758 0.5
238 22 0.0972765 0.0131827 0.5
743 33 0.112355 0.0404654 0.5
538 35 0.129786 0.0122097 0.5
891 34 0.145206 0.0445412 0.5
213 32 0.162104 0.0155474 0.5
161 25 0.179499 0.0427778 0.5
37 28 0.214169 0.0418491 0.5
498 29 0.197883 0.0143964 0.5
516 44 0.256961 0.0403029 0.5
466 48 0.260675 -0.00122095 0.5
487 30 0.228491 0.0147427 0.5
261 41 0.319607 0.00879779 0.5
490 32 0.290324 0.027513 0.5
67 30 0.315006 0.0512337 0.5
865 17 0.338896 0.0400852 0.5
811 24 0.353596 0.0203074 0.5
255 29 0.370372 0.0453409 0.5
567 28 0.378595 0.007435 0.5
860 30 0.400479 0.0408152 0.5
168 39 0.417602 0.00392513 0.5
706 33 0.433343 0.0338467 0.5
769 28 0.470088 0.0298797 0.5
650 28 0.503436 0.0243848 0.5
453 23 0.531143 0.0208421 0.5
896 29 0.55249 0.000800079 0.5
280 41 0.523693 0.051053 0.5
181 32 0.555353 0.0367717 0.5
831 28 0.582859 0.0219977 0.5
808 24 0.607935 0.00293436 0.5
694 31 0.587866 0.0516019 0.5
455 31 0.612261 0.0323225 0.5
537 25 0.642981 0.0134638 0.5
701 41 0.644905 0.0463507 0.5
921 40 0.677802 0.019838 0.5
192 38 0.69735 0.0494188 0.5
982 33 0.714425 0.0113935 0.5
824 32 0.73192 0.0400023 0.5
741 35 0.765021 0.0334554 0.5
499 13 0.743792 0.0127837 0.5
243 34 0.800641 0.031394 0.5
301 39 0.835088 0.0335365 0.5
655 28 0.886034 0.00652606 0.5
561 32 0.872414 0.0351902 0.5
307 33 0.855212 0.0033749 0.5
55 27 0.914207 0.0131237 0.5
229 33 0.924303 0.0416972 0.5
332 25 0.942738 0.0175413 0.5
397 33 0.976149 0.0189869 0.5
930 24 0.957329 0.0442336 0.5
858 34 0.990651 0.0483503 0.5
365 26 0.0250815 0.0619079 0.5
939 40 0.0358339 0.0962087 0.5
644 30 -0.000568321 0.0799233 0.5
656 17 0.00783067 0.107133 0.5
920 28 0.0598142 0.0679284 0.5
242 38 0.0959684 0.0703493 0.5
34 31 0.0746566 0.0959976 0.5
89 30 0.113871 0.100101 0.5
143 30 0.130413 0.0745516 0.5
998 31 0.148504 0.10626 0.5
155 30 0.164725 0.0700511 0.5
33 30 0.196388 0.0673978 0.5
766 28 0.219195 0.0871817 0.5
382 41 0.182025 0.0988131 0.5
976 19 0.234312 0.0629972 0.5
662 33 0.256671 0.0785158 0.5
846 35 0.28542 0.0625135 0.5
215 26 0.289133 0.0988548 0.5
439 27 0.31322 0.0812467 0.5
227 32 0.324368 0.111846 0.5
180 34 0.341843 0.0676556 0.5
197 28 0.358955 0.0949855 0.5
351 31 0.382584 0.075425 0.5
315 27 0.418729 0.0641325 0.5
673 25 0.411507 0.091807 0.5
14 28 0.44323 0.0917443 0.5
559 34 0.488874 0.054364 0.5
239 37 0.456342 0.0629291 0.5
511 41 0.476872 0.0923272 0.5
996 24 0.508222 0.0792615 0.5
385 32 0.535992 0.0953817 0.5
927 33 0.506943 0.109424 0.5
682 38 0.55843 0.0698081 0.5
621 26 0.589987 0.0826457 0.5
325 33 0.566679 0.1067 0.5
525 24 0.619076 0.067246 0.5
798 36 0.614714 0.101014 0.5
15 35 0.644628 0.0834744 0.5
592 22 0.672865 0.0687143 0.5
752 24 0.698718 0.0841968 0.5
993 29 0.673895 0.0997173 0.5
102 19 0.721093 0.0715386 0.5
256 34 0.732171 0.0991794 0.5
57 33 0.75337 0.0695615 0.5
898 27 0.765079 0.0979894 0.5
485 36 0.815652 0.0627625 0.5
413 24 0.78476 0.0597899 0.5
926 35 0.797641 0.0916003 0.5
425 33 0.832545 0.0911976 0.5
779 40 0.856883 0.0654515 0.5
737 36 0.874828 0.0959923 0.5
569 34 0.898629 0.0648269 0.5
530 28 0.906882 0.0950102 0.5
138 32 0.934328 0.0736251 0.5
806 26 0.949882 0.10078 0.5
964 34 0.968082 0.0729952 0.5
938 20 0.976006 0.100817 0.5
528 34 0.0155233 0.138415 0.5
677 42 0.0502244 0.13248 0.5
745 37 0.0394331 0.166803 0.5
393 42 0.08972 0.127288 0.5
855 31 0.073098 0.163584 0.5
85 19 0.108087 0.152898 0.5
923 35 0.125835 0.130213 0.5
653 22 0.128179 0.170179 0.5
272 39 0.158454 0.141788 0.5
940 26 0.188984 0.131143 0.5
456 31 0.183196 0.165413 0.5
705 28 0.212752 0.115462 0.5
193 27 0.211758 0.152913 0.5
995 23 0.270742 0.120956 0.5
310 34 0.243703 0.109009 0.5
813 30 0.240317 0.140501 0.5
172 16 0.295764 0.123948 0.5
279 33 0.285228 0.149098 0.5
298 41 0.322822 0.147741 0.5
469 39 0.35393 0.127616 0.5
596 26 0.353772 0.163077 0.5
257 35 0.386505 0.114094 0.5
513 26 0.377949 0.14862 0.5
31 20 0.424419 0.122468 0.5
18 46 0.434733 0.15483 0.5
167 25 0.404301 0.140254 0.5
169 17 0.482384 0.12519 0.5
81 26 0.451726 0.119744 0.5
953 28 0.468746 0.147342 0.5
87 27 0.503302 0.141207 0.5
389 43 0.535972 0.130457 0.5
957 38 0.525648 0.168237 0.5
71 35 0.591148 0.127899 0.5
671 23 0.564868 0.145316 0.5
203 43 0.594367 0.164 0.5
845 26 0.646236 0.118876 0.5
856 26 0.621325 0.141315 0.5
78 15 0.645893 0.146935 0.5
445 37 0.701634 0.115817 0.5
763 36 0.673148 0.135654 0.5
178 20 0.700147 0.148286 0.5
715 19 0.751713 0.121802 0.5
390 33 0.732256 0.145024 0.5
900 22 0.76253 0.149205 0.5
788 35 0.814441 0.124189 0.5
551 30 0.778769 0.123895 0.5
492 43 0.831917 0.15574 0.5
372 25 0.795063 0.150538 0.5
208 32 0.849091 0.118286 0.5
795 38 0.86785 0.148336 0.5
580 26 0.890827 0.12503 0.5
744 34 0.9012 0.156172 0.5
103 34 0.922757 0.130889 0.5
955 27 0.936666 0.15802 0.5
986 27 0.953676 0.128839 0.5
676 31 0.983335 0.128884 0.5
704 36 0.969936 0.161344 0.5
797 32 0.00337013 0.17021 0.5
408 26 0.0254991 0.194866 0.5
270 32 0.00283016 0.219344 0.5
571 48 0.0617953 0.199061 0.5
329 36 0.0974458 0.185439 0.5
733 41 0.129925 0.201008 0.5
712 29 0.156788 0.180296 0.5
350 10 0.158727 0.209531 0.5
260 27 0.209945 0.182092 0.5
933 28 0.18843 0.20124 0.5
736 23 0.21728 0.208695 0.5
97 20 0.233225 0.16943 0.5
542 32 0.260829 0.172198 0.5
886 27 0.24414 0.200824 0.5
210 26 0.302072 0.175752 0.5
170 34 0.278608 0.199875 0.5
685 30 0.312144 0.207127 0.5
290 31 0.33089 0.182106 0.5
720 27 0.352774 0.211573 0.5
849 37 0.378689 0.18537 0.5
448 33 0.405559 0.20398 0.5
823 27 0.433678 0.192099 0.5
936 22 0.404246 0.167906 0.5
273 27 0.437416 0.22527 0.5
442 37 0.462604 0.179487 0.5
834 31 0.491262 0.198703 0.5
274 26 0.465218 0.212245 0.5
809 25 0.493148 0.169824 0.5
871 27 0.52111 0.201737 0.5
263 28 0.550031 0.207586 0.5
414 36 0.559585 0.175221 0.5
607 40 0.584827 0.206112 0.5
464 30 0.631014 0.171853 0.5
409 30 0.619641 0.200489 0.5
58 26 0.655476 0.191162 0.5
467 32 0.675753 0.168253 0.5
493 22 0.691117 0.195293 0.5
114 23 0.672587 0.214407 0.5
944 29 0.714437 0.173264 0.5
536 26 0.743034 0.173676 0.5
629 23 0.771773 0.173442 0.5
434 22 0.722701 0.200348 0.5
934 22 0.754375 0.198398 0.5
358 27 0.739573 0.222874 0.5
90 43 0.80498 0.18348 0.5
874 41 0.824322 0.218643 0.5
742 31 0.784564 0.212673 0.5
104 23 0.83647 0.188204 0.5
699 20 0.860209 0.179337 0.5
994 27 0.887095 0.184277 0.5
317 40 0.863232 0.210799 0.5
768 31 0.91798 0.185592 0.5
363 23 0.931914 0.212792 0.5
430 34 0.902564 0.215361 0.5
749 27 0.949397 0.190122 0.5
63 28 0.98164 0.192189 0.5
265 46 0.964861 0.222857 0.5
859 43 0.036509 0.230575 0.5
377 25 0.0283945 0.27655 0.5
416 35 0.0573795 0.260034 0.5
346 29 0.0789049 0.229894 0.5
164 35 0.091552 0.260253 0.5
776 31 0.108761 0.232895 0.5
130 27 0.125085 0.259218 0.5
729 20 0.142608 0.236406 0.5
405 28 0.154479 0.260616 0.5
792 31 0.20389 0.23599 0.5
429 25 0.171107 0.235518 0.5
202 42 0.188395 0.268539 0.5
369 36 0.225449 0.260555 0.5
700 24 0.26629 0.226713 0.5
66 32 0.237572 0.230146 0.5
803 31 0.258789 0.257189 0.5
171 35 0.296185 0.236507 0.5
787 25 0.325501 0.253828 0.5
245 18 0.330625 0.227408 0.5
812 25 0.353791 0.243527 0.5
614 29 0.381308 0.260048 0.5
756 27 0.377321 0.226447 0.5
179 31 0.35178 0.27277 0.5
577 39 0.408479 0.239597 0.5
802 37 0.435878 0.26187 0.5
132 31 0.462275 0.241095 0.5
608 29 0.489307 0.256658 0.5
914 23 0.539134 0.235594 0.5
400 36 0.506343 0.229473 0.5
457 40 0.522284 0.262258 0.5
72 23 0.562033 0.266635 0.5
734 33 0.568974 0.236858 0.5
427 31 0.593045 0.265909 0.5
440 43 0.609671 0.234378 0.5
452 34 0.643602 0.220938 0.5
500 46 0.635367 0.266204 0.5
497 33 0.66741 0.243334 0.5
658 38 0.705733 0.22846 0.5
531 24 0.696977 0.262119 0.5
402 40 0.73128 0.25535 0.5
4 34 0.766533 0.243869 0.5
761 29 0.760104 0.275993 0.5
443 27 0.799278 0.241177 0.5
566 32 0.822538 0.262212 0.5
666 33 0.791669 0.271492 0.5
508 26 0.847814 0.242246 0.5
603 28 0.880169 0.245605 0.5
305 29 0.859443 0.27098 0.5
799 26 0.908049 0.251727 0.5
963 25 0.938084 0.24399 0.5
100 34 0.932165 0.274063 0.5
312 42 1.0029 0.25413 0.5
141 33 0.964735 0.26015 0.5
698 17 0.0511158 0.294983 0.5
751 22 0.0267105 0.303427 0.5
887 33 0.00141925 0.289368 0.5
548 39 0.0544625 0.329084 0.5
244 28 0.076191 0.287761 0.5
2 28 0.086065 0.317073 0.5
762 33 0.106834 0.28968 0.5
574 18 0.134711 0.283694 0.5
124 26 0.14758 0.307523 0.5
326 48 0.120538 0.328346 0.5
259 15 0.16321 0.286083 0.5
597 21 0.178333 0.307049 0.5
770 45 0.217269 0.299437 0.5
985 22 0.231195 0.334544 0.5
929 35 0.253684 0.289803 0.5
897 31 0.259971 0.3226 0.5
252 37 0.289093 0.272606 0.5
199 39 0.292614 0.315078 0.5
917 42 0.32071 0.292036 0.5
586 47 0.328618 0.330489 0.5
367 26 0.351411 0.304459 0.5
54 28 0.378125 0.29453 0.5
140 29 0.366362 0.329871 0.5
80 29 0.4104 0.283822 0.5
24 29 0.394491 0.32023 0.5
488 24 0.423677 0.309808 0.5
174 31 0.464827 0.278856 0.5
646 26 0.495888 0.284673 0.5
162 32 0.45305 0.307761 0.5
754 31 0.48465 0.312979 0.5
991 34 0.518488 0.30964 0.5
841 31 0.548948 0.321853 0.5
950 32 0.5449 0.290676 0.5
96 30 0.579817 0.301484 0.5
674 26 0.611952 0.295376 0.5
645 34 0.610381 0.32575 0.5
136 40 0.64936 0.304915 0.5
121 33 0.672055 0.278304 0.5
368 34 0.686431 0.307679 0.5
44 34 0.718884 0.321154 0.5
952 35 0.712725 0.287668 0.5
360 11 0.668262 0.325917 0.5
980 27 0.742936 0.299611 0.5
832 45 0.777798 0.30702 0.5
568 32 0.74808 0.334947 0.5
529 27 0.809987 0.296763 0.5
277 24 0.811918 0.326598 0.5
289 19 0.83595 0.287404 0.5
418 36 0.844164 0.319123 0.5
838 19 0.866695 0.297727 0.5
176 33 0.87671 0.323654 0.5
521 33 0.897234 0.284627 0.5
165 19 0.927481 0.30339 0.5
829 22 0.90366 0.312939 0.5
166 30 0.92717 0.330287 0.5
519 21 0.949344 0.314198 0.5
353 28 0.970816 0.293943 0.5
12 36 0.984296 0.322803 0.5
983 32 0.0190116 0.331098 0.5
901 39 0.022213 0.375286 0.5
27 34 0.0549293 0.364493 0.5
611 39 0.087954 0.350022 0.5
606 36 0.0822219 0.385612 0.5
781 28 0.162165 0.332504 0.5
618 38 0.117305 0.373524 0.5
428 27 0.14933 0.370849 0.5
345 33 0.200366 0.33232 0.5
959 25 0.176911 0.357231 0.5
111 28 0.200009 0.374987 0.5
636 19 0.220564 0.358101 0.5
851 32 0.254727 0.356616 0.5
407 24 0.233118 0.379691 0.5
672 31 0.269624 0.384987 0.5
687 34 0.287556 0.350737 0.5
376 44 0.313502 0.37469 0.5
786 41 0.351143 0.363613 0.5
564 25 0.386052 0.38117 0.5
84 25 0.383839 0.353092 0.5
293 38 0.426053 0.345564 0.5
815 30 0.415508 0.37619 0.5
28 26 0.461752 0.339804 0.5
144 35 0.48634 0.358952 0.5
216 46 0.4522 0.372821 0.5
73 31 0.517529 0.341424 0.5
753 33 0.517173 0.374351 0.5
517 39 0.547491 0.357221 0.5
977 38 0.577993 0.336011 0.5
665 46 0.578495 0.381879 0.5
333 30 0.605952 0.356797 0.5
91 22 0.636238 0.339935 0.5
424 20 0.632053 0.368324 0.5
384 47 0.665138 0.372122 0.5
217 33 0.690659 0.344179 0.5
637 27 0.702998 0.376494 0.5
21 31 0.722467 0.35398 0.5
251 32 0.755779 0.365757 0.5
9 26 0.732777 0.385507 0.5
879 35 0.784779 0.342704 0.5
278 34 0.816477 0.358571 0.5
582 27 0.784807 0.37399 0.5
177 21 0.811726 0.388039 0.5
540 36 0.858642 0.354257 0.5
821 24 0.839681 0.378492 0.5
343 35 0.875493 0.383422 0.5
679 48 0.899617 0.353326 0.5
375 30 0.934685 0.366513 0.5
772 33 0.911383 0.388765 0.5
94 22 0.956393 0.339685 0.5
661 30 0.969827 0.36393 0.5
615 27 0.998421 0.352967 0.5
264 31 0.990898 0.386059 0.5
41 31 0.0481902 0.396841 0.5
652 46 0.0147511 0.413086 0.5
696 26 0.0452457 0.427305 0.5
545 42 0.0780732 0.424096 0.5
881 25 0.107698 0.40758 0.5
233 25 0.139637 0.399834 0.5
628 31 0.151151 0.427609 0.5
126 32 0.11083 0.43693 0.5
882 38 0.173575 0.395096 0.5
7 36 0.210667 0.40643 0.5
234 35 0.185073 0.428577 0.5
524 35 0.217654 0.438968 0.5
750 33 0.244666 0.407894 0.5
965 29 0.249503 0.441339 0.5
8 23 0.273267 0.414369 0.5
120 30 0.286966 0.439739 0.5
303 28 0.301932 0.40936 0.5
785 34 0.320588 0.435123 0.5
534 35 0.340461 0.400042 0.5
783 24 0.37076 0.404846 0.5
357 39 0.355043 0.433679 0.5
154 27 0.389246 0.433607 0.5
709 30 0.432676 0.40203 0.5
616 29 0.401674 0.406366 0.5
556 28 0.418405 0.433221 0.5
555 30 0.48478 0.391102 0.5
966 22 0.460928 0.404832 0.5
848 28 0.448936 0.429775 0.5
837 34 0.487152 0.422502 0.5
664 32 0.545791 0.398516 0.5
935 23 0.515035 0.408436 0.5
403 23 0.540796 0.42841 0.5
331 25 0.508919 0.442963 0.5
847 41 0.580945 0.42074 0.5
426 19 0.61019 0.38503 0.5
348 26 0.613884 0.412893 0.5
383 37 0.644334 0.430523 0.5
101 26 0.637381 0.394303 0.5
593 22 0.666626 0.405143 0.5
805 26 0.675347 0.440896 0.5
6 7 0.684791 0.393367 0.5
225 36 0.700695 0.413921 0.5
619 32 0.760086 0.398802 0.5
727 38 0.733474 0.424757 0.5
864 22 0.762705 0.434247 0.5
476 18 0.788377 0.399974 0.5
43 37 0.800543 0.427182 0.5
760 24 0.82647 0.40916 0.5
267 25 0.855248 0.411051 0.5
578 28 0.839601 0.437599 0.5
632 30 0.872647 0.438744 0.5
544 27 0.892145 0.413307 0.5
557 40 0.923238 0.423827 0.5
364 33 0.952501 0.397258 0.5
341 23 0.979254 0.412327 0.5
137 34 0.957115 0.431662 0.5
191 39 0.989914 0.443733 0.5
283 39 0.025894 0.45358 0.5
822 37 0.0425762 0.484614 0.5
911 28 -0.00156054 0.476223 0.5
716 30 0.0593847 0.455793 0.5
26 43 0.0912572 0.467759 0.5
196 31 0.0733489 0.499332 0.5
631 30 0.167162 0.457043 0.5
288 38 0.134996 0.462697 0.5
925 19 0.158486 0.484296 0.5
872 42 0.198522 0.471105 0.5
833 33 0.218606 0.501839 0.5
458 39 0.23664 0.473135 0.5
541 34 0.270688 0.468754 0.5
690 25 0.254484 0.499387 0.5
686 30 0.306462 0.464279 0.5
92 26 0.322303 0.491687 0.5
702 26 0.288079 0.498761 0.5
532 27 0.336278 0.462383 0.5
51 32 0.352215 0.4886 0.5
902 29 0.37159 0.464686 0.5
77 15 0.394938 0.480391 0.5
885 22 0.404429 0.458783 0.5
361 34 0.421373 0.486833 0.5
888 27 0.433005 0.458418 0.5
875 35 0.457548 0.493967 0.5
707 52 0.473718 0.458371 0.5
794 31 0.489467 0.497337 0.5
651 21 0.507194 0.472513 0.5
949 36 0.537045 0.462372 0.5
730 32 0.56008 0.487032 0.5
232 26 0.568261 0.457197 0.5
549 29 0.592105 0.479622 0.5
175 49 0.61011 0.448471 0.5
306 25 0.630839 0.4801 0.5
688 25 0.655245 0.461116 0.5
587 38 0.659069 0.501302 0.5
133 32 0.683278 0.469999 0.5
47 31 0.707558 0.445591 0.5
206 32 0.716646 0.484128 0.5
626 37 0.742435 0.460724 0.5
118 24 0.760957 0.486873 0.5
421 35 0.777209 0.459282 0.5
46 35 0.812288 0.459711 0.5
110 30 0.791714 0.487844 0.5
70 26 0.820347 0.495091 0.5
338 28 0.843653 0.466623 0.5
910 30 0.874848 0.474916 0.5
282 26 0.853597 0.494706 0.5
478 29 0.900438 0.45032 0.5
778 22 0.912809 0.475264 0.5
777 25 0.933719 0.454688 0.5
853 14 0.937581 0.490232 0.5
960 44 0.9633 0.475084 0.5
553 32 0.0136156 0.511377 0.5
869 33 0.0311755 0.54873 0.5
533 37 0.0469039 0.519161 0.5
600 38 0.0797833 0.536853 0.5
962 53 0.111864 0.503797 0.5
951 29 0.14781 0.51301 0.5
967 22 0.13042 0.534643 0.5
764 40 0.166585 0.540346 0.5
336 38 0.179289 0.505471 0.5
22 35 0.203364 0.531609 0.5
641 29 0.240096 0.527546 0.5
422 30 0.270425 0.52327 0.5
151 41 0.306052 0.530236 0.5
928 34 0.33884 0.51773 0.5
446 27 0.336563 0.549281 0.5
506 39 0.366917 0.538154 0.5
20 37 0.392336 0.508535 0.5
201 35 0.42983 0.51873 0.5
275 32 0.402605 0.540347 0.5
406 29 0.44776 0.544782 0.5
228 26 0.470611 0.523047 0.5
296 29 0.52557 0.498372 0.5
728 35 0.503888 0.526715 0.5
620 26 0.538671 0.53158 0.5
740 35 0.567384 0.519954 0.5
491 29 0.60033 0.509768 0.5
765 21 0.591284 0.535934 0.5
893 29 0.567292 0.552558 0.5
692 27 0.629284 0.512507 0.5
42 45 0.651721 0.539222 0.5
23 26 0.618089 0.538897 0.5
281 23 0.690296 0.49853 0.5
581 20 0.68234 0.522758 0.5
157 33 0.713352 0.517459 0.5
590 22 0.710719 0.546347 0.5
471 22 0.741253 0.506059 0.5
999 39 0.742705 0.541773 0.5
892 19 0.77108 0.50988 0.5
625 33 0.801553 0.520419 0.5
997 36 0.777879 0.544993 0.5
431 31 0.810754 0.555866 0.5
599 34 0.834356 0.522892 0.5
318 37 0.868826 0.529749 0.5
818 23 0.84514 0.556233 0.5
974 24 0.889433 0.503418 0.5
438 26 0.9191 0.506115 0.5
381 33 0.902864 0.531329 0.5
39 25 0.935525 0.532434 0.5
713 39 0.995016 0.540101 0.5
973 18 0.95122 0.509412 0.5
156 22 0.963899 0.530257 0.5
313 34 0.981655 0.505803 0.5
187 34 0.039306 0.590658 0.5
480 24 0.0136982 0.573729 0.5
793 28 0.0578366 0.564424 0.5
791 25 0.107794 0.556422 0.5
862 22 0.0846376 0.570766 0.5
60 25 0.0745263 0.599817 0.5
447 39 0.110932 0.588663 0.5
575 33 0.136294 0.564943 0.5
512 32 0.143634 0.596731 0.5
212 22 0.164848 0.573034 0.5
186 32 0.192615 0.563107 0.5
972 28 0.176225 0.597875 0.5
460 36 0.210232 0.590958 0.5
286 31 0.26388 0.554057 0.5
342 43 0.229341 0.559358 0.5
475 24 0.249931 0.584623 0.5
970 19 0.233658 0.607793 0.5
948 39 0.306962 0.567554 0.5
40 43 0.281027 0.593878 0.5
668 19 0.317067 0.598792 0.5
117 32 0.339917 0.579634 0.5
563 38 0.385622 0.572584 0.5
246 34 0.363806 0.601191 0.5
693 28 0.423556 0.563678 0.5
105 31 0.426401 0.596969 0.5
45 27 0.394635 0.603181 0.5
36 39 0.482205 0.558282 0.5
771 23 0.453053 0.57207 0.5
349 45 0.476309 0.600386 0.5
796 25 0.514515 0.55889 0.5
412 28 0.541912 0.569297 0.5
958 19 0.514516 0.58392 0.5
65 32 0.54319 0.604955 0.5
1000 38 0.571631 0.586604 0.5
125 30 0.603765 0.597136 0.5
128 31 0.597834 0.564851 0.5
479 16 0.632999 0.590764 0.5
17 25 0.628699 0.565039 0.5
899 19 0.657443 0.602377 0.5
678 29 0.656487 0.574883 0.5
866 28 0.686391 0.558934 0.5
904 36 0.686627 0.595447 0.5
988 14 0.714303 0.604729 0.5
522 38 0.723468 0.576969 0.5
195 39 0.760415 0.575836 0.5
64 32 0.742338 0.605245 0.5
392 30 0.793198 0.582571 0.5
968 41 0.830178 0.58432 0.5
109 47 0.887652 0.565243 0.5
294 29 0.866398 0.598258 0.5
585 33 0.926106 0.568843 0.5
725 42 0.899582 0.605474 0.5
790 33 0.993353 0.598858 0.5
723 28 0.953622 0.555477 0.5
807 20 0.983247 0.570904 0.5
188 32 0.956477 0.589796 0.5
601 31 0.0200727 0.616269 0.5
546 33 0.0227743 0.648651 0.5
95 33 0.0513422 0.624918 0.5
450 21 0.0961432 0.616084 0.5
495 34 0.0557517 0.657237 0.5
472 25 0.0800686 0.636622 0.5
789 27 0.104704 0.650206 0.5
913 28 0.123864 0.622236 0.5
748 37 0.137173 0.65258 0.5
826 30 0.159101 0.623507 0.5
129 39 0.173074 0.654641 0.5
316 41 0.195575 0.624845 0.5
830 28 0.210982 0.656858 0.5
441 29 0.232674 0.635452 0.5
145 22 0.257373 0.619078 0.5
594 34 0.266244 0.648283 0.5
634 12 0.238337 0.660498 0.5
410 44 0.2993 0.628539 0.5
423 35 0.3253 0.653767 0.5
10 29 0.337926 0.623159 0.5
543 35 0.384075 0.632084 0.5
29 28 0.359033 0.651391 0.5
732 27 0.41669 0.627952 0.5
504 43 0.404736 0.661705 0.5
572 35 0.439722 0.649255 0.5
62 27 0.446326 0.61933 0.5
595 37 0.475788 0.637807 0.5
11 40 0.509485 0.619458 0.5
266 37 0.507307 0.655402 0.5
324 42 0.542855 0.640034 0.5
404 31 0.581875 0.61758 0.5
767 44 0.575228 0.661401 0.5
394 29 0.606735 0.636582 0.5
573 30 0.633429 0.617641 0.5
311 26 0.660361 0.630652 0.5
112 23 0.633566 0.648187 0.5
432 28 0.669909 0.660173 0.5
83 31 0.693413 0.626958 0.5
323 30 0.699492 0.665772 0.5
691 42 0.726985 0.641837 0.5
816 33 0.777082 0.613422 0.5
496 30 0.766017 0.64314 0.5
481 30 0.801358 0.645518 0.5
711 36 0.810189 0.614286 0.5
981 29 0.830734 0.655012 0.5
269 32 0.853598 0.630163 0.5
876 31 0.885017 0.63792 0.5
271 29 0.8609 0.661372 0.5
784 27 0.939453 0.614819 0.5
135 28 0.921683 0.637336 0.5
675 26 0.993743 0.63454 0.5
918 43 0.953805 0.647379 0.5
465 26 0.969837 0.618327 0.5
237 37 0.0306232 0.681498 0.5
726 29 0.0371169 0.713776 0.5
231 32 0.00525573 0.70295 0.5
514 23 0.084651 0.671257 0.5
240 28 0.0618833 0.689167 0.5
489 17 0.0668346 0.716715 0.5
854 27 0.0900381 0.705795 0.5
827 45 0.116036 0.683704 0.5
680 29 0.152924 0.681236 0.5
19 27 0.149866 0.717072 0.5
344 17 0.175196 0.711946 0.5
204 35 0.193147 0.682384 0.5
74 37 0.209459 0.71599 0.5
684 23 0.22496 0.68821 0.5
205 26 0.240892 0.711553 0.5
617 34 0.254295 0.684384 0.5
284 37 0.293795 0.668038 0.5
576 34 0.280923 0.702986 0.5
801 24 0.310964 0.703128 0.5
883 38 0.340247 0.685102 0.5
956 34 0.374551 0.680319 0.5
300 39 0.362454 0.712827 0.5
942 23 0.401319 0.694311 0.5
386 39 0.435448 0.683588 0.5
804 28 0.425092 0.715425 0.5
627 34 0.394894 0.724613 0.5
226 32 0.469677 0.669747 0.5
53 37 0.471534 0.708934 0.5
388 24 0.49505 0.687658 0.5
347 50 0.536299 0.67991 0.5
640 39 0.515524 0.713562 0.5
526 30 0.548232 0.718888 0.5
840 24 0.608349 0.667031 0.5
604 18 0.596154 0.691146 0.5
758 18 0.567487 0.692064 0.5
371 29 0.583542 0.714531 0.5
814 31 0.638604 0.679228 0.5
309 35 0.614953 0.712732 0.5
782 26 0.65095 0.706996 0.5
820 29 0.675861 0.690173 0.5
30 33 0.704326 0.702084 0.5
474 27 0.770414 0.672118 0.5
49 26 0.735449 0.674633 0.5
870 29 0.752317 0.698622 0.5
915 25 0.730715 0.717548 0.5
560 28 0.784657 0.70625 0.5
35 40 0.802735 0.678469 0.5
867 40 0.817649 0.711927 0.5
142 31 0.837909 0.684477 0.5
695 17 0.848064 0.709985 0.5
119 28 0.867619 0.689619 0.5
314 32 0.873383 0.719773 0.5
633 30 0.89055 0.667642 0.5
295 34 0.903706 0.698364 0.5
861 37 0.924621 0.669056 0.5
93 48 0.941125 0.704562 0.5
503 40 0.993749 0.667074 0.5
971 16 0.965445 0.680365 0.5
584 23 0.972592 0.715566 0.5
223 14 0.0203679 0.732862 0.5
759 38 0.0476387 0.74344 0.5
880 44 0.00711413 0.761133 0.5
328 20 0.054205 0.775457 0.5
190 44 0.0845877 0.748288 0.5
38 29 0.11457 0.770774 0.5
906 42 0.117685 0.72525 0.5
398 41 0.146366 0.750435 0.5
98 37 0.174016 0.773611 0.5
714 29 0.182715 0.737486 0.5
419 34 0.206539 0.757787 0.5
647 30 0.233689 0.740791 0.5
722 34 0.265975 0.732691 0.5
624 21 0.245707 0.76575 0.5
82 35 0.275371 0.766068 0.5
352 25 0.297563 0.735027 0.5
535 22 0.320197 0.75052 0.5
116 19 0.331763 0.723489 0.5
127 20 0.30467 0.772404 0.5
909 26 0.346674 0.747079 0.5
550 22 0.374931 0.749228 0.5
32 18 0.361679 0.770469 0.5
667 25 0.389873 0.773753 0.5
287 38 0.416676 0.751831 0.5
884 39 0.449944 0.73661 0.5
235 37 0.488021 0.742725 0.5
739 48 0.460869 0.773903 0.5
638 55 0.529934 0.752096 0.5
486 40 0.571795 0.744931 0.5
321 31 0.596172 0.775441 0.5
470 29 0.605996 0.743354 0.5
184 25 0.634921 0.736077 0.5
25 34 0.628154 0.767406 0.5
198 37 0.661808 0.759895 0.5
602 23 0.675041 0.721456 0.5
932 25 0.70923 0.735016 0.5
800 20 0.689409 0.751549 0.5
334 34 0.717421 0.780475 0.5
254 34 0.736363 0.752657 0.5
50 33 0.761119 0.730359 0.5
635 19 0.775849 0.756489 0.5
454 32 0.797427 0.738999 0.5
322 19 0.811243 0.769436 0.5
683 36 0.832357 0.745008 0.5
843 36 0.864336 0.75671 0.5
868 41 0.904022 0.735502 0.5
579 26 0.936745 0.738897 0.5
285 30 0.922858 0.764765 0.5
183 27 0.892656 0.769625 0.5
916 23 0.996263 0.730498 0.5
134 36 0.96676 0.748558 0.5
719 20 0.953594 0.775728 0.5
435 20 0.031113 0.783698 0.5
502 23 0.0340288 0.810148 0.5
149 26 0.00383759 0.796682 0.5
689 30 0.0536744 0.830672 0.5
889 27 0.0610765 0.800217 0.5
946 29 0.0870462 0.783803 0.5
539 31 0.0846639 0.819938 0.5
477 31 0.111875 0.804184 0.5
200 36 0.142332 0.786962 0.5
224 29 0.138568 0.820448 0.5
401 22 0.167447 0.804347 0.5
992 40 0.198416 0.802009 0.5
99 23 0.226485 0.784944 0.5
657 22 0.251791 0.790725 0.5
399 35 0.231505 0.81666 0.5
194 31 0.264177 0.8225 0.5
48 23 0.280701 0.797035 0.5
747 21 0.306103 0.797553 0.5
721 26 0.329581 0.808929 0.5
554 28 0.333345 0.77768 0.5
954 21 0.291857 0.830068 0.5
451 34 0.357976 0.798564 0.5
670 35 0.376196 0.826762 0.5
291 25 0.3929 0.800892 0.5
69 37 0.425754 0.789658 0.5
717 30 0.414917 0.820181 0.5
13 32 0.499399 0.775226 0.5
3 34 0.453341 0.811604 0.5
507 28 0.48628 0.806341 0.5
978 19 0.535084 0.785807 0.5
209 24 0.517698 0.804549 0.5
395 26 0.548653 0.808567 0.5
152 36 0.56388 0.779071 0.5
370 40 0.582509 0.809369 0.5
292 27 0.616265 0.810197 0.5
373 37 0.646312 0.795758 0.5
108 34 0.64038 0.830691 0.5
810 31 0.673646 0.819574 0.5
335 35 0.681798 0.788589 0.5
52 40 0.706674 0.813185 0.5
147 30 0.754685 0.779368 0.5
297 30 0.741452 0.807811 0.5
605 22 0.771865 0.803948 0.5
654 22 0.762921 0.831386 0.5
755 23 0.786545 0.781506 0.5
501 36 0.823203 0.797821 0.5
975 25 0.797583 0.814612 0.5
878 32 0.865853 0.792629 0.5
463 25 0.845724 0.818831 0.5
354 36 0.876567 0.823755 0.5
622 27 0.897292 0.800382 0.5
515 28 0.92721 0.795471 0.5
703 30 0.90828 0.828375 0.5
612 25 0.978924 0.780112 0.5
359 35 0.958179 0.806241 0.5
236 45 0.0142361 0.83957 0.5
588 24 0.0232033 0.872737 0.5
308 24 0.0500666 0.858978 0.5
643 26 0.0865759 0.849336 0.5
969 28 0.0752763 0.876937 0.5
207 31 0.11371 0.865083 0.5
839 26 0.112622 0.834272 0.5
146 22 0.137729 0.850635 0.5
518 30 0.149466 0.877266 0.5
724 44 0.168666 0.83714 0.5
610 30 0.205033 0.837251 0.5
828 28 0.18432 0.867498 0.5
449 24 0.214222 0.87128 0.5
459 38 0.237646 0.850376 0.5
86 30 0.241918 0.882821 0.5
320 34 0.271953 0.853737 0.5
248 23 0.274869 0.883009 0.5
468 26 0.313884 0.844419 0.5
387 28 0.300969 0.870348 0.5
738 33 0.344495 0.836445 0.5
339 38 0.336093 0.869872 0.5
659 37 0.370784 0.861017 0.5
835 34 0.405553 0.851537 0.5
79 41 0.43964 0.844985 0.5
941 28 0.439229 0.87915 0.5
5 35 0.397034 0.884772 0.5
220 30 0.473791 0.838281 0.5
437 33 0.470217 0.873419 0.5
523 18 0.496818 0.863424 0.5
825 39 0.507453 0.835082 0.5
863 24 0.541172 0.835892 0.5
247 21 0.524431 0.862958 0.5
562 39 0.551839 0.878704 0.5
159 36 0.571021 0.842854 0.5
817 38 0.605057 0.847542 0.5
304 26 0.585542 0.872271 0.5
415 22 0.614065 0.879601 0.5
681 21 0.633768 0.858721 0.5
411 31 0.663132 0.853325 0.5
268 49 0.652085 0.889945 0.5
221 20 0.708609 0.844722 0.5
444 35 0.690751 0.869841 0.5
609 30 0.724467 0.875739 0.5
850 20 0.737259 0.837215 0.5
276 37 0.754391 0.863339 0.5
76 24 0.774368 0.886794 0.5
570 35 0.819649 0.836168 0.5
185 39 0.788228 0.850615 0.5
774 35 0.816175 0.872072 0.5
669 44 0.849054 0.856859 0.5
75 17 0.839938 0.887399 0.5
106 15 0.868857 0.878716 0.5
630 32 0.884681 0.856649 0.5
158 37 0.919446 0.862272 0.5
219 26 0.937089 0.834136 0.5
250 30 0.896955 0.88719 0.5
924 23 0.94209 0.886367 0.5
922 39 0.989832 0.869877 0.5
299 22 0.96739 0.834038 0.5
436 31 0.953669 0.858831 0.5
258 41 0.00377405 0.903229 0.5
746 21 0.029229 0.921195 0.5
123 12 0.00792147 0.931871 0.5
420 36 0.0470655 0.890961 0.5
905 30 0.0535716 0.941764 0.5
757 42 0.0749483 0.913999 0.5
718 15 0.0996143 0.889573 0.5
642 31 0.108472 0.924005 0.5
1 24 0.123727 0.89483 0.5
697 39 0.151357 0.910149 0.5
780 29 0.183453 0.93047 0.5
396 32 0.182299 0.89747 0.5
505 34 0.215141 0.904854 0.5
433 22 0.244534 0.911094 0.5
131 26 0.225682 0.934183 0.5
775 34 0.255552 0.938529 0.5
552 29 0.276638 0.912096 0.5
623 39 0.308996 0.90237 0.5
819 29 0.29255 0.938503 0.5
222 34 0.327638 0.931366 0.5
330 26 0.366013 0.891955 0.5
391 22 0.339907 0.90221 0.5
61 33 0.359957 0.926221 0.5
984 33 0.392597 0.916955 0.5
380 41 0.427179 0.911327 0.5
903 31 0.416784 0.945076 0.5
547 34 0.46178 0.904538 0.5
362 33 0.483388 0.929427 0.5
417 23 0.491531 0.894712 0.5
473 31 0.448225 0.937831 0.5
520 32 0.520837 0.892169 0.5
979 37 0.517957 0.927022 0.5
937 32 0.54948 0.940992 0.5
509 25 0.546004 0.909903 0.5
163 23 0.581291 0.899225 0.5
773 16 0.571298 0.925044 0.5
189 5 0.591071 0.924589 0.5
844 34 0.611952 0.909277 0.5
327 31 0.637242 0.930965 0.5
708 24 0.666072 0.924467 0.5
482 29 0.687885 0.901856 0.5
877 28 0.700777 0.930558 0.5
302 24 0.716945 0.90425 0.5
253 29 0.746665 0.898433 0.5
214 35 0.733624 0.929756 0.5
88 46 0.772043 0.922403 0.5
919 21 0.798539 0.897583 0.5
337 28 0.805319 0.936767 0.5
319 29 0.824844 0.90924 0.5
107 29 0.837821 0.9393 0.5
484 35 0.863868 0.909699 0.5
945 36 0.870929 0.943349 0.5
660 26 0.89867 0.924009 0.5
591 24 0.920983 0.907231 0.5
68 32 0.933127 0.936748 0.5
340 18 0.947239 0.912124 0.5
483 27 0.970663 0.89613 0.5
182 33 0.973049 0.930032 0.5
589 21 0.0271384 0.949918 0.5
249 35 0.0296442 0.979357 0.5
379 25 0.0595761 0.970384 0.5
931 29 0.0791588 0.991362 0.5
510 37 0.0872477 0.956726 0.5
378 32 0.110777 0.985686 0.5
842 27 0.120439 0.953015 0.5
262 32 0.14528 0.98299 0.5
710 40 0.154573 0.947682 0.5
731 36 0.202224 0.95576 0.5
987 36 0.178533 0.984284 0.5
873 33 0.212272 0.987724 0.5
947 35 0.235746 0.964829 0.5
160 28 0.273542 0.963938 0.5
565 26 0.295146 0.987456 0.5
989 36 0.320085 0.968105 0.5
461 33 0.349985 0.987815 0.5
907 25 0.379232 0.975479 0.5
894 25 0.349572 0.955108 0.5
462 28 0.384782 0.94711 0.5
639 18 0.40531 0.971336 0.5
148 35 0.433226 0.97295 0.5
852 35 0.45357 1.00064 0.5
374 36 0.487142 0.996851 0.5
150 42 0.469764 0.964948 0.5
890 35 0.507987 0.963962 0.5
59 20 0.536087 0.971246 0.5
122 30 0.52026 0.993795 0.5
735 26 0.562056 0.968966 0.5
230 31 0.584645 0.948877 0.5
366 29 0.582619 0.989184 0.5
961 29 0.608222 0.974247 0.5
218 20 0.612739 0.945883 0.5
355 32 0.637287 0.962765 0.5
494 19 0.631331 0.989984 0.5
649 38 0.660857 0.987579 0.5
16 32 0.69655 0.98496 0.5
558 32 0.672735 0.956075 0.5
173 30 0.716585 0.957024 0.5
153 40 0.755634 0.957402 0.5
598 35 0.732644 0.984666 0.5
241 34 0.764937 0.993104 0.5
356 22 0.830741 0.987481 0.5
908 17 0.819556 0.960426 0.5
836 28 0.788255 0.964948 0.5
912 42 0.800653 0.995439 0.5
139 28 0.849164 0.966973 0.5
895 28 0.877181 0.977758 0.5
527 27 0.902879 0.954319 0.5
56 26 0.905276 0.984403 0.5
211 13 0.928746 0.991276 0.5
613 26 0.929652 0.96685 0.5
115 19 0.993497 0.996002 0.5
943 50 0.993093 0.962694 0.5
583 21 0.958283 0.955175 0.5
857 43 0.959664 0.988006 0.5
