ITEM: TIMESTEP
250000
ITEM: NUMBER OF ATOMS
1000
ITEM: BOX BOUNDS pp pp pp
-1.5897933000000000e+01 1.5897933000000000e+01
-1.5897933000000000e+01 1.5897933000000000e+01
-5.0000000000000000e-01 5.0000000000000000e-01
ITEM: ATOMS id type xs ys zs
672 31 0.0407142 0.0143635 0.5
751 30 0.0317213 0.0480187 0.5
935 30 0.0643278 0.0385982 0.5
429 30 0.0726116 0.00568383 0.5
290 31 0.0941913 0.0295487 0.5
376 31 0.120262 0.0548373 0.5
754 31 0.12726 0.0230186 0.5
169 30 0.153837 0.0462224 0.5
140 30 0.160088 0.0120171 0.5
427 31 0.186338 0.0385178 0.5
239 31 0.218097 0.0291875 0.5
556 30 0.240415 0.0538146 0.5
331 30 0.191471 0.00571556 0.5
403 30 0.228075 -0.00447143 0.5
293 31 0.24978 0.0213035 0.5
167 30 0.27497 0.0468213 0.5
440 31 0.284226 0.0144366 0.5
400 31 0.309924 0.0366988 0.5
671 30 0.342022 0.0269582 0.5
385 31 0.31758 0.00244258 0.5
4 31 0.373972 0.0177334 0.5
785 31 0.364657 0.0523559 0.5
950 31 0.398153 0.0416382 0.5
568 31 0.407343 0.0100729 0.5
658 31 0.430464 0.0343636 0.5
72 30 0.455206 0.0553785 0.5
44 31 0.463496 0.0234303 0.5
674 30 0.438551 0.000227127 0.5
500 31 0.489185 0.0470848 0.5
666 31 0.495359 0.0144346 0.5
225 31 0.52043 0.0393227 0.5
497 31 0.526865 0.00362773 0.5
845 30 0.553211 0.0300141 0.5
508 30 0.584994 0.0223649 0.5
603 30 0.558368 -0.00186691 0.5
402 31 0.616274 0.0112172 0.5
103 31 0.608998 0.0463451 0.5
121 31 0.640826 0.0352844 0.5
745 31 0.651083 0.00353896 0.5
217 31 0.672493 0.0279886 0.5
879 31 0.697783 0.0508777 0.5
165 30 0.707033 0.0199228 0.5
443 30 0.729893 0.0414867 0.5
611 31 0.762719 0.0313582 0.5
363 30 0.738852 0.00737067 0.5
12 31 0.771923 -0.00177895 0.5
346 30 0.796084 0.0213712 0.5
85 30 0.819165 0.0467905 0.5
933 30 0.827174 0.0120746 0.5
210 30 0.85139 0.0366694 0.5
652 31 0.884697 0.0278801 0.5
310 31 0.860014 0.00486751 0.5
661 30 0.916511 0.0174454 0.5
27 31 0.9097 0.0504011 0.5
369 31 0.941604 0.041739 0.5
199 31 0.950786 0.0107805 0.5
770 31 1.00778 0.0230214 0.5
405 30 0.975777 0.0324728 0.5
762 31 0.982369 -0.000547104 0.5
120 30 0.0229049 0.0820545 0.5
736 30 0.0452673 0.106012 0.5
555 30 0.0548998 0.0723371 0.5
162 31 0.0868792 0.0628344 0.5
750 31 0.0778521 0.0960549 0.5
87 30 0.110819 0.0867218 0.5
532 30 0.135039 0.111636 0.5
275 31 0.176516 0.0711821 0.5
848 30 0.143454 0.0794187 0.5
995 30 0.167119 0.102936 0.5
728 31 0.209097 0.0625357 0.5
815 30 0.20081 0.0958172 0.5
888 30 0.232243 0.0884074 0.5
664 31 0.258502 0.111965 0.5
368 31 0.298696 0.0696846 0.5
707 31 0.265561 0.0779237 0.5
966 30 0.290528 0.10328 0.5
36 31 0.332147 0.0592613 0.5
645 31 0.324549 0.0934169 0.5
296 30 0.348346 0.116698 0.5
651 30 0.355979 0.0838897 0.5
434 30 0.388944 0.0749715 0.5
607 31 0.382232 0.106892 0.5
232 30 0.414126 0.0972615 0.5
988 30 0.423484 0.0670507 0.5
348 30 0.445784 0.0899006 0.5
476 30 0.470127 0.113979 0.5
531 30 0.477988 0.0816625 0.5
566 31 0.510327 0.0713629 0.5
21 31 0.502689 0.106194 0.5
278 31 0.534682 0.0956068 0.5
832 31 0.576215 0.0564824 0.5
963 30 0.542673 0.0646522 0.5
309 31 0.564983 0.0889203 0.5
590 30 0.590145 0.110611 0.5
952 31 0.599476 0.0799055 0.5
887 31 0.6335 0.068226 0.5
431 31 0.624378 0.102123 0.5
156 30 0.665183 0.0606479 0.5
821 30 0.657549 0.0934977 0.5
892 30 0.689674 0.0836347 0.5
364 31 0.715014 0.10675 0.5
418 31 0.755369 0.0639527 0.5
6 30 0.722529 0.07491 0.5
901 31 0.746806 0.098592 0.5
855 31 0.7875 0.0538726 0.5
438 30 0.7793 0.0880626 0.5
618 31 0.801362 0.112439 0.5
375 30 0.810361 0.0796516 0.5
2 30 0.874994 0.0601236 0.5
729 30 0.841899 0.0692517 0.5
776 31 0.833961 0.101251 0.5
698 30 0.866645 0.0921672 0.5
196 31 0.899266 0.082034 0.5
723 30 0.921731 0.105953 0.5
259 30 0.932049 0.0741059 0.5
24 30 1.00003 0.0566766 0.5
614 30 0.955732 0.0990792 0.5
252 31 0.965153 0.0662207 0.5
851 31 0.98889 0.0890428 0.5
917 31 0.0117076 0.112892 0.5
534 31 0.0364951 0.13719 0.5
84 30 0.0267111 0.170174 0.5
8 30 0.0597446 0.159872 0.5
96 30 0.103994 0.119754 0.5
407 30 0.0707329 0.129595 0.5
885 30 0.0934164 0.15164 0.5
720 30 0.126424 0.143864 0.5
690 30 0.159868 0.133957 0.5
967 30 0.150832 0.166949 0.5
965 30 0.183559 0.159952 0.5
902 30 0.22469 0.120871 0.5
787 30 0.191239 0.127294 0.5
201 31 0.214833 0.153143 0.5
834 31 0.248459 0.145686 0.5
794 31 0.272001 0.169042 0.5
949 31 0.280555 0.136261 0.5
665 31 0.31477 0.127198 0.5
333 30 0.304822 0.159883 0.5
620 30 0.339501 0.149717 0.5
73 31 0.373732 0.139975 0.5
734 31 0.364403 0.174805 0.5
581 30 0.406657 0.131424 0.5
384 31 0.396643 0.164332 0.5
303 30 0.428271 0.156094 0.5
587 31 0.437022 0.122504 0.5
133 31 0.46023 0.147485 0.5
805 30 0.486637 0.169014 0.5
421 31 0.527806 0.130072 0.5
251 31 0.494261 0.138518 0.5
383 31 0.520655 0.163236 0.5
866 30 0.559498 0.120815 0.5
626 31 0.550144 0.153149 0.5
83 31 0.583664 0.143944 0.5
118 30 0.607166 0.169302 0.5
136 31 0.649364 0.126347 0.5
101 30 0.615673 0.135491 0.5
166 30 0.640557 0.158837 0.5
529 30 0.681212 0.117509 0.5
426 30 0.67244 0.149113 0.5
679 31 0.704356 0.14055 0.5
803 31 0.769664 0.122279 0.5
544 30 0.7372 0.131472 0.5
353 30 0.730268 0.164606 0.5
974 30 0.762669 0.154877 0.5
973 30 0.795516 0.146519 0.5
95 31 0.818419 0.170217 0.5
141 31 0.826589 0.134582 0.5
288 31 0.890216 0.115057 0.5
545 31 0.85839 0.125844 0.5
557 31 0.849638 0.160259 0.5
345 31 0.882422 0.151931 0.5
132 31 0.914765 0.140754 0.5
807 30 0.939095 0.164877 0.5
959 30 0.94626 0.131737 0.5
542 31 0.978733 0.121196 0.5
512 31 1.00406 0.145678 0.5
428 30 0.970979 0.155143 0.5
783 30 0.0432634 0.225682 0.5
111 30 0.0525446 0.193442 0.5
631 30 0.0196299 0.202994 0.5
897 31 0.117648 0.175108 0.5
951 30 0.0775858 0.216184 0.5
628 31 0.0839357 0.18287 0.5
7 31 0.108396 0.206823 0.5
475 30 0.142702 0.199814 0.5
687 31 0.164916 0.225052 0.5
882 31 0.17598 0.191374 0.5
740 31 0.239221 0.178486 0.5
812 30 0.206193 0.184678 0.5
422 30 0.197149 0.218267 0.5
792 31 0.230895 0.209514 0.5
458 31 0.253716 0.233532 0.5
616 30 0.263716 0.201943 0.5
709 30 0.287824 0.224322 0.5
875 31 0.297305 0.192608 0.5
105 31 0.330038 0.181974 0.5
636 30 0.320629 0.215053 0.5
361 31 0.35534 0.206732 0.5
491 30 0.387273 0.197286 0.5
814 31 0.37874 0.230302 0.5
446 30 0.41106 0.219804 0.5
504 31 0.420184 0.188169 0.5
175 31 0.452917 0.178781 0.5
893 30 0.444231 0.211601 0.5
125 30 0.478225 0.202352 0.5
727 31 0.508957 0.195129 0.5
549 30 0.501167 0.227916 0.5
730 31 0.534718 0.219171 0.5
619 31 0.573119 0.176284 0.5
267 30 0.541328 0.185952 0.5
46 31 0.566058 0.208582 0.5
206 31 0.599587 0.201865 0.5
9 30 0.621456 0.225851 0.5
980 30 0.631342 0.192433 0.5
264 31 0.655441 0.216247 0.5
578 30 0.696487 0.174836 0.5
829 30 0.66342 0.181949 0.5
471 30 0.687214 0.209375 0.5
289 30 0.711289 0.231803 0.5
39 30 0.720661 0.200624 0.5
244 30 0.743737 0.225326 0.5
283 31 0.752046 0.190755 0.5
519 30 0.785321 0.179521 0.5
313 31 0.775978 0.213297 0.5
822 31 0.807242 0.203565 0.5
716 30 0.871878 0.18511 0.5
41 31 0.840334 0.195253 0.5
632 30 0.831897 0.22683 0.5
336 31 0.865768 0.219239 0.5
983 31 0.905472 0.17435 0.5
188 31 0.897309 0.207146 0.5
686 30 0.929976 0.198556 0.5
548 31 0.996017 0.178722 0.5
929 31 0.961967 0.18848 0.5
764 31 0.953407 0.222474 0.5
326 31 0.987387 0.211141 0.5
600 31 0.0109637 0.235214 0.5
234 31 0.0340743 0.259478 0.5
641 30 0.0587967 0.280955 0.5
791 30 0.0673112 0.249591 0.5
179 31 0.0987568 0.243382 0.5
714 30 0.0907818 0.275026 0.5
22 31 0.123159 0.266577 0.5
524 31 0.13172 0.233332 0.5
833 31 0.1569 0.258017 0.5
786 31 0.180925 0.283163 0.5
190 31 0.189043 0.249994 0.5
357 31 0.221857 0.240947 0.5
92 30 0.212591 0.273773 0.5
154 30 0.245421 0.265357 0.5
668 30 0.279215 0.256071 0.5
541 31 0.269226 0.288687 0.5
765 30 0.304194 0.279895 0.5
693 30 0.344162 0.238066 0.5
228 30 0.311341 0.247431 0.5
702 30 0.336452 0.271153 0.5
692 30 0.367966 0.262003 0.5
62 30 0.392945 0.284653 0.5
306 30 0.403014 0.252526 0.5
112 30 0.468921 0.234598 0.5
77 30 0.435571 0.242053 0.5
406 30 0.425306 0.276319 0.5
864 30 0.458212 0.269038 0.5
593 30 0.491749 0.258465 0.5
691 31 0.482595 0.292879 0.5
870 30 0.515294 0.28428 0.5
771 30 0.525791 0.253076 0.5
688 30 0.590096 0.235016 0.5
1000 31 0.550539 0.276496 0.5
128 31 0.557474 0.243922 0.5
49 30 0.582329 0.268947 0.5
910 30 0.604758 0.291742 0.5
277 30 0.613819 0.258936 0.5
478 30 0.636653 0.282766 0.5
17 30 0.646634 0.250071 0.5
553 31 0.678394 0.24191 0.5
625 31 0.67084 0.273418 0.5
137 31 0.705183 0.266088 0.5
911 30 0.737575 0.257471 0.5
853 30 0.729052 0.290003 0.5
585 31 0.761726 0.282462 0.5
343 31 0.769305 0.249118 0.5
999 31 0.800649 0.237807 0.5
533 31 0.795797 0.273062 0.5
294 30 0.825382 0.26207 0.5
606 31 0.889683 0.242779 0.5
503 31 0.857485 0.252197 0.5
575 31 0.847505 0.285387 0.5
480 30 0.879487 0.274842 0.5
781 30 0.919362 0.230925 0.5
713 31 0.913714 0.266012 0.5
962 31 0.937621 0.28805 0.5
960 31 0.944862 0.253962 0.5
26 31 0.9785 0.243293 0.5
465 30 1.00258 0.268795 0.5
398 31 0.970041 0.277322 0.5
696 30 0.0265269 0.291133 0.5
586 31 0.0507498 0.314408 0.5
680 30 0.0193268 0.322793 0.5
854 30 0.114952 0.300485 0.5
789 30 0.0721189 0.339401 0.5
186 31 0.0825135 0.306809 0.5
235 31 0.105447 0.333281 0.5
972 30 0.148134 0.290732 0.5
410 31 0.138315 0.322927 0.5
65 31 0.160469 0.348596 0.5
51 31 0.170523 0.315282 0.5
550 30 0.236456 0.297191 0.5
300 31 0.194814 0.340949 0.5
563 31 0.204203 0.307515 0.5
287 31 0.226841 0.330497 0.5
423 31 0.260903 0.319565 0.5
117 31 0.284041 0.345182 0.5
412 30 0.293645 0.312565 0.5
11 31 0.359126 0.294206 0.5
126 31 0.326118 0.304764 0.5
40 31 0.317796 0.337284 0.5
928 31 0.350699 0.326804 0.5
767 31 0.38358 0.317424 0.5
349 31 0.406605 0.342271 0.5
479 30 0.415522 0.31077 0.5
394 30 0.447753 0.301931 0.5
281 30 0.437768 0.333999 0.5
404 31 0.471512 0.325265 0.5
157 31 0.506057 0.31601 0.5
324 31 0.496002 0.347517 0.5
432 30 0.530777 0.340833 0.5
311 30 0.571808 0.30177 0.5
23 30 0.538932 0.308385 0.5
816 31 0.564369 0.335327 0.5
760 30 0.59693 0.325492 0.5
341 30 0.630447 0.314498 0.5
35 31 0.621678 0.347524 0.5
904 31 0.653819 0.338173 0.5
282 30 0.695121 0.297338 0.5
176 31 0.66311 0.305683 0.5
318 31 0.685701 0.331514 0.5
119 30 0.718731 0.32177 0.5
338 30 0.752637 0.315494 0.5
381 31 0.742004 0.347114 0.5
971 30 0.818013 0.297476 0.5
784 30 0.786704 0.307582 0.5
269 31 0.775624 0.339079 0.5
47 31 0.809369 0.332293 0.5
725 31 0.842372 0.322525 0.5
862 30 0.867394 0.347382 0.5
82 31 0.872372 0.309405 0.5
191 31 0.904564 0.29799 0.5
212 30 0.8975 0.330871 0.5
869 31 0.930009 0.320942 0.5
827 31 0.963537 0.310392 0.5
916 30 0.951269 0.344187 0.5
60 30 0.995641 0.301142 0.5
748 31 0.986325 0.333134 0.5
826 30 0.042004 0.347936 0.5
793 30 0.00879149 0.356027 0.5
726 30 0.0314764 0.379657 0.5
447 31 0.0533333 0.405499 0.5
913 30 0.063589 0.372637 0.5
204 31 0.0952021 0.36365 0.5
127 30 0.0870655 0.397077 0.5
942 30 0.118978 0.389425 0.5
872 31 0.127846 0.356239 0.5
399 31 0.15241 0.380258 0.5
594 31 0.175307 0.406012 0.5
543 31 0.185302 0.374546 0.5
45 30 0.217272 0.364351 0.5
883 31 0.21095 0.396255 0.5
152 31 0.243926 0.387638 0.5
506 31 0.250662 0.354588 0.5
576 31 0.274931 0.378308 0.5
796 30 0.297694 0.4024 0.5
722 31 0.308181 0.36982 0.5
20 31 0.341372 0.360883 0.5
732 30 0.331537 0.393215 0.5
25 31 0.374613 0.351508 0.5
956 31 0.365922 0.384071 0.5
595 31 0.387702 0.407957 0.5
266 31 0.397785 0.374132 0.5
79 31 0.463185 0.35733 0.5
411 31 0.431252 0.366185 0.5
246 31 0.420912 0.399096 0.5
958 30 0.453476 0.389807 0.5
184 30 0.486588 0.38083 0.5
850 30 0.512172 0.405176 0.5
42 31 0.520164 0.374034 0.5
778 30 0.587939 0.358612 0.5
584 30 0.545496 0.396925 0.5
560 30 0.555461 0.366104 0.5
899 30 0.578036 0.390784 0.5
867 31 0.611039 0.380463 0.5
573 30 0.63726 0.405414 0.5
772 31 0.645244 0.371808 0.5
70 30 0.710007 0.354902 0.5
711 31 0.679032 0.365122 0.5
110 30 0.668639 0.397789 0.5
43 31 0.70157 0.389322 0.5
981 30 0.732915 0.379688 0.5
93 31 0.761003 0.406533 0.5
601 31 0.765956 0.372119 0.5
818 30 0.833427 0.357078 0.5
633 30 0.79983 0.36421 0.5
612 30 0.793655 0.398156 0.5
135 30 0.825918 0.390944 0.5
254 31 0.85956 0.381932 0.5
236 31 0.886787 0.408045 0.5
906 31 0.891753 0.372471 0.5
546 31 0.917853 0.354549 0.5
777 30 0.920393 0.399393 0.5
342 31 0.942761 0.375483 0.5
187 31 0.963934 0.398996 0.5
109 31 0.99865 0.387868 0.5
240 30 0.974508 0.367497 0.5
19 30 0.0205281 0.41359 0.5
48 30 0.0417317 0.436738 0.5
675 30 0.00897193 0.445036 0.5
320 31 0.0746082 0.430113 0.5
450 30 0.0666964 0.462925 0.5
1 30 0.109132 0.421155 0.5
151 31 0.0997734 0.453182 0.5
129 31 0.14243 0.414831 0.5
804 30 0.130332 0.445148 0.5
985 30 0.166547 0.438744 0.5
470 30 0.191625 0.460211 0.5
99 30 0.231938 0.420121 0.5
925 30 0.200465 0.428398 0.5
286 31 0.225238 0.452232 0.5
29 30 0.264858 0.413504 0.5
717 30 0.257123 0.444392 0.5
32 30 0.281001 0.468964 0.5
948 31 0.289567 0.435527 0.5
800 30 0.313111 0.45983 0.5
486 31 0.35539 0.417136 0.5
386 31 0.322053 0.425995 0.5
547 31 0.34566 0.450219 0.5
370 31 0.379395 0.440721 0.5
526 30 0.403652 0.464021 0.5
758 30 0.410933 0.431355 0.5
840 30 0.477774 0.412201 0.5
198 31 0.444787 0.421848 0.5
915 30 0.435868 0.454989 0.5
371 30 0.469422 0.444232 0.5
323 30 0.500969 0.437583 0.5
820 30 0.524551 0.461365 0.5
599 31 0.534721 0.429426 0.5
562 31 0.569898 0.421232 0.5
978 30 0.558138 0.452545 0.5
997 31 0.591806 0.445724 0.5
861 31 0.602649 0.412761 0.5
354 31 0.626315 0.437482 0.5
64 31 0.647977 0.461585 0.5
654 30 0.659344 0.429494 0.5
522 31 0.692678 0.420938 0.5
635 30 0.684815 0.452522 0.5
968 31 0.728864 0.414128 0.5
295 31 0.719053 0.446429 0.5
683 31 0.752183 0.441278 0.5
319 30 0.77833 0.466046 0.5
271 30 0.817243 0.422579 0.5
868 31 0.785495 0.43158 0.5
489 30 0.812252 0.45672 0.5
876 31 0.850354 0.415978 0.5
134 31 0.845577 0.450764 0.5
918 31 0.87884 0.440943 0.5
579 30 0.913328 0.433043 0.5
237 31 0.903141 0.465661 0.5
801 30 0.944081 0.4254 0.5
477 31 0.939014 0.458481 0.5
790 31 0.987617 0.420216 0.5
495 31 0.973653 0.451062 0.5
351 31 0.0324017 0.469664 0.5
907 30 0.0478142 0.526295 0.5
74 31 0.0562694 0.493961 0.5
460 31 0.0242683 0.502585 0.5
145 30 0.123282 0.476831 0.5
634 30 0.0905177 0.486728 0.5
205 30 0.0815124 0.517041 0.5
617 31 0.116094 0.508238 0.5
441 30 0.156441 0.468888 0.5
419 31 0.148156 0.501344 0.5
10 30 0.181023 0.491672 0.5
116 30 0.215059 0.484943 0.5
417 30 0.204558 0.517648 0.5
472 30 0.236599 0.508537 0.5
13 31 0.247869 0.476196 0.5
69 31 0.270757 0.50082 0.5
670 31 0.293803 0.525064 0.5
53 31 0.303006 0.491895 0.5
604 30 0.335813 0.485075 0.5
388 30 0.327217 0.515211 0.5
226 31 0.362768 0.506002 0.5
321 31 0.371027 0.473364 0.5
347 31 0.394986 0.497535 0.5
297 30 0.41777 0.521445 0.5
638 31 0.427454 0.4881 0.5
108 31 0.458674 0.477575 0.5
373 31 0.44941 0.512364 0.5
30 31 0.49221 0.470907 0.5
337 30 0.481768 0.502909 0.5
292 30 0.504707 0.52594 0.5
163 30 0.515652 0.493477 0.5
908 30 0.582068 0.478274 0.5
932 30 0.547844 0.486664 0.5
681 30 0.538452 0.518924 0.5
678 30 0.572085 0.510137 0.5
334 31 0.614951 0.469447 0.5
209 30 0.605006 0.502869 0.5
454 31 0.639003 0.493536 0.5
496 30 0.630108 0.525515 0.5
759 31 0.706718 0.477062 0.5
774 31 0.662501 0.51654 0.5
945 31 0.672606 0.483007 0.5
474 30 0.696228 0.508108 0.5
276 31 0.741931 0.474314 0.5
142 31 0.740485 0.508767 0.5
843 31 0.771582 0.499496 0.5
992 31 0.803541 0.490929 0.5
878 31 0.799645 0.524056 0.5
969 30 0.832481 0.517818 0.5
200 31 0.836757 0.48459 0.5
231 31 0.870976 0.478075 0.5
647 30 0.864214 0.509086 0.5
695 30 0.89848 0.500118 0.5
757 31 0.923522 0.524048 0.5
359 31 0.930293 0.49121 0.5
194 31 0.956041 0.514382 0.5
344 30 0.998208 0.476339 0.5
946 30 0.964068 0.482642 0.5
830 30 0.989845 0.508484 0.5
315 30 0.0356665 0.558198 0.5
865 30 0.0718842 0.549055 0.5
213 31 0.0614454 0.582504 0.5
684 30 0.0950893 0.574977 0.5
610 30 0.104046 0.541932 0.5
624 30 0.138494 0.534488 0.5
352 30 0.171905 0.525662 0.5
284 31 0.12958 0.566025 0.5
86 30 0.162388 0.557919 0.5
640 31 0.193997 0.550981 0.5
160 30 0.184664 0.583021 0.5
554 30 0.226983 0.542714 0.5
954 30 0.218441 0.57407 0.5
220 30 0.259851 0.533141 0.5
602 30 0.249911 0.565551 0.5
507 30 0.285123 0.558707 0.5
667 30 0.309461 0.580168 0.5
937 31 0.349632 0.537987 0.5
890 31 0.319213 0.548113 0.5
659 31 0.342078 0.572068 0.5
572 31 0.385795 0.531584 0.5
304 30 0.374061 0.562566 0.5
268 31 0.399046 0.587224 0.5
3 31 0.407744 0.554989 0.5
437 31 0.471999 0.535511 0.5
817 31 0.431775 0.578904 0.5
481 30 0.439473 0.54722 0.5
741 31 0.465744 0.56867 0.5
453 30 0.496728 0.55778 0.5
520 31 0.520321 0.582418 0.5
979 31 0.528409 0.551439 0.5
810 31 0.562509 0.541566 0.5
335 31 0.551907 0.577111 0.5
195 31 0.58659 0.565902 0.5
570 31 0.596354 0.534267 0.5
185 31 0.619894 0.558042 0.5
482 30 0.651572 0.548976 0.5
527 30 0.642451 0.582255 0.5
463 30 0.685031 0.540139 0.5
52 31 0.674911 0.572419 0.5
50 31 0.707301 0.562847 0.5
322 30 0.717857 0.529806 0.5
98 31 0.764718 0.534255 0.5
392 30 0.738175 0.552204 0.5
605 30 0.762541 0.573402 0.5
501 31 0.790713 0.558894 0.5
588 30 0.816557 0.583064 0.5
285 30 0.824253 0.551084 0.5
514 30 0.890667 0.533074 0.5
219 30 0.858583 0.54351 0.5
643 30 0.848153 0.574384 0.5
146 30 0.882128 0.566212 0.5
207 31 0.914829 0.557926 0.5
718 30 0.939948 0.58212 0.5
131 30 0.947448 0.549044 0.5
462 30 1.01354 0.532769 0.5
468 30 1.00461 0.565248 0.5
401 30 0.980137 0.541795 0.5
642 31 0.972676 0.575548 0.5
466 31 0.0290333 0.590464 0.5
387 30 0.0511531 0.614727 0.5
261 31 0.0188198 0.623622 0.5
172 30 0.0769536 0.638391 0.5
518 30 0.119001 0.597624 0.5
552 30 0.0858816 0.607021 0.5
439 30 0.110269 0.629796 0.5
567 30 0.152381 0.591175 0.5
61 31 0.145035 0.623905 0.5
257 31 0.177463 0.614844 0.5
909 30 0.240834 0.598011 0.5
721 30 0.20916 0.606028 0.5
657 30 0.199723 0.639582 0.5
339 31 0.233531 0.629625 0.5
739 31 0.275518 0.588274 0.5
5 31 0.267544 0.619972 0.5
362 31 0.30078 0.611961 0.5
825 31 0.334765 0.602655 0.5
148 31 0.322601 0.636029 0.5
256 31 0.354639 0.628325 0.5
189 30 0.366819 0.594962 0.5
230 31 0.388577 0.619456 0.5
494 30 0.409447 0.64463 0.5
863 30 0.422725 0.613053 0.5
537 30 0.448129 0.635817 0.5
773 30 0.455366 0.601915 0.5
735 30 0.488158 0.592519 0.5
192 31 0.478869 0.62391 0.5
808 30 0.511262 0.616818 0.5
59 30 0.533796 0.640423 0.5
898 30 0.543399 0.608103 0.5
214 31 0.577513 0.599717 0.5
56 30 0.564819 0.632096 0.5
123 30 0.609794 0.590394 0.5
221 30 0.600578 0.623505 0.5
719 30 0.630721 0.614954 0.5
183 30 0.665101 0.603909 0.5
314 31 0.656238 0.63827 0.5
147 30 0.699225 0.595682 0.5
975 30 0.687018 0.627816 0.5
669 31 0.730105 0.584751 0.5
880 31 0.720862 0.617716 0.5
842 30 0.752071 0.6075 0.5
308 30 0.785952 0.594829 0.5
724 31 0.776137 0.628672 0.5
931 30 0.811156 0.61811 0.5
630 31 0.843233 0.608593 0.5
889 30 0.874782 0.599909 0.5
238 30 0.867766 0.633182 0.5
539 31 0.897507 0.623728 0.5
970 30 0.906254 0.58955 0.5
747 30 0.930258 0.614112 0.5
828 30 0.96377 0.608048 0.5
113 31 0.953081 0.639597 0.5
433 30 0.995951 0.597887 0.5
161 30 0.98743 0.632344 0.5
224 30 0.0423315 0.646053 0.5
516 31 0.0357929 0.679631 0.5
37 30 0.060324 0.703811 0.5
894 30 0.0669453 0.670085 0.5
67 30 0.0921955 0.695202 0.5
685 30 0.0999464 0.660889 0.5
490 31 0.125434 0.686722 0.5
989 31 0.167898 0.648399 0.5
255 30 0.134321 0.653383 0.5
247 30 0.156473 0.678749 0.5
565 30 0.182515 0.702751 0.5
81 30 0.191936 0.671802 0.5
639 30 0.214986 0.696643 0.5
903 31 0.223413 0.663746 0.5
316 31 0.257411 0.654332 0.5
755 30 0.290083 0.643797 0.5
449 30 0.247319 0.686222 0.5
391 30 0.28054 0.677169 0.5
122 30 0.304176 0.700894 0.5
731 31 0.313087 0.668401 0.5
150 31 0.338524 0.692992 0.5
15 31 0.345906 0.66025 0.5
222 31 0.379886 0.652163 0.5
993 30 0.370771 0.68457 0.5
58 30 0.402148 0.678501 0.5
78 30 0.428776 0.700829 0.5
415 30 0.470244 0.661714 0.5
451 31 0.434072 0.666653 0.5
444 31 0.459073 0.692046 0.5
598 31 0.501911 0.648388 0.5
752 30 0.494507 0.682124 0.5
102 30 0.525634 0.673166 0.5
327 31 0.590314 0.655436 0.5
782 30 0.558016 0.664108 0.5
173 30 0.55006 0.694663 0.5
302 30 0.582286 0.68595 0.5
76 30 0.623153 0.646708 0.5
609 30 0.613878 0.67938 0.5
484 31 0.646428 0.670795 0.5
613 30 0.711519 0.650207 0.5
153 31 0.680077 0.661041 0.5
75 30 0.671105 0.691675 0.5
258 31 0.703794 0.683498 0.5
299 30 0.745571 0.642223 0.5
435 30 0.769026 0.663512 0.5
895 30 0.734956 0.674209 0.5
182 31 0.760106 0.696182 0.5
436 31 0.80273 0.652422 0.5
689 30 0.793441 0.685764 0.5
328 30 0.825338 0.675157 0.5
697 31 0.83555 0.642299 0.5
396 31 0.89065 0.657496 0.5
660 30 0.857721 0.667363 0.5
922 31 0.88319 0.69091 0.5
839 30 0.9228 0.648145 0.5
223 30 0.914549 0.681198 0.5
38 30 0.94592 0.671984 0.5
947 31 1.01061 0.6563 0.5
248 30 1.00258 0.688268 0.5
987 31 0.977215 0.663649 0.5
873 31 0.969847 0.697529 0.5
510 31 0.0266388 0.711772 0.5
891 31 0.0515364 0.736473 0.5
487 30 0.0178715 0.745858 0.5
455 31 0.0730035 0.760783 0.5
538 31 0.115605 0.720293 0.5
498 30 0.0830948 0.728251 0.5
279 31 0.107479 0.752676 0.5
884 31 0.14889 0.711814 0.5
984 31 0.139598 0.743848 0.5
180 31 0.172593 0.734538 0.5
809 30 0.19653 0.761828 0.5
921 31 0.205051 0.729187 0.5
577 31 0.22985 0.752681 0.5
627 31 0.239424 0.719341 0.5
738 31 0.2709 0.71031 0.5
291 30 0.263364 0.744042 0.5
852 31 0.296738 0.733396 0.5
473 31 0.362782 0.716567 0.5
682 31 0.329964 0.72588 0.5
523 30 0.318509 0.758373 0.5
896 30 0.352849 0.75175 0.5
769 30 0.394744 0.707588 0.5
844 31 0.385229 0.742086 0.5
509 30 0.41739 0.731971 0.5
650 30 0.452391 0.723519 0.5
413 30 0.441684 0.754274 0.5
107 30 0.475453 0.747995 0.5
395 30 0.519096 0.706029 0.5
525 30 0.484119 0.71469 0.5
253 30 0.507952 0.738087 0.5
390 31 0.540583 0.729674 0.5
250 30 0.564281 0.752686 0.5
366 30 0.573969 0.720049 0.5
708 30 0.606718 0.71085 0.5
499 30 0.637043 0.701855 0.5
159 31 0.597323 0.742835 0.5
583 30 0.62953 0.734433 0.5
768 31 0.655825 0.757383 0.5
420 31 0.663631 0.724072 0.5
483 30 0.694582 0.716173 0.5
836 30 0.687606 0.74726 0.5
924 30 0.728365 0.706112 0.5
858 31 0.720286 0.739108 0.5
55 30 0.752799 0.729453 0.5
88 31 0.816523 0.70897 0.5
149 30 0.784669 0.719169 0.5
356 30 0.776426 0.751827 0.5
955 30 0.808462 0.741247 0.5
569 31 0.84951 0.699876 0.5
115 30 0.841334 0.732485 0.5
663 31 0.865393 0.758434 0.5
990 31 0.874292 0.724125 0.5
943 31 0.937636 0.704488 0.5
622 30 0.898071 0.749018 0.5
656 30 0.906222 0.714494 0.5
780 30 0.929272 0.736959 0.5
905 30 0.994705 0.719776 0.5
459 31 0.983529 0.753496 0.5
515 30 0.960657 0.72902 0.5
775 31 0.0415109 0.77001 0.5
193 30 0.0323294 0.802328 0.5
298 31 0.0646952 0.794938 0.5
706 31 0.0981612 0.785 0.5
743 31 0.0890537 0.818935 0.5
811 30 0.12166 0.810784 0.5
168 31 0.164432 0.768397 0.5
461 31 0.131254 0.776604 0.5
380 31 0.153415 0.802532 0.5
488 30 0.186225 0.792074 0.5
280 31 0.212763 0.816506 0.5
860 30 0.22095 0.784736 0.5
535 30 0.286017 0.766988 0.5
218 30 0.254485 0.776436 0.5
831 30 0.245277 0.808086 0.5
536 30 0.277333 0.799556 0.5
941 30 0.309874 0.791028 0.5
330 30 0.33428 0.813751 0.5
464 30 0.342376 0.781773 0.5
798 31 0.410203 0.766236 0.5
181 31 0.368842 0.80516 0.5
763 31 0.377485 0.773135 0.5
991 31 0.400907 0.797858 0.5
934 30 0.42577 0.820033 0.5
982 31 0.434906 0.787154 0.5
835 31 0.457445 0.811639 0.5
358 30 0.466234 0.778408 0.5
178 30 0.499215 0.771123 0.5
355 31 0.532759 0.761246 0.5
788 31 0.492734 0.80162 0.5
580 30 0.524775 0.793423 0.5
551 30 0.547886 0.818817 0.5
558 31 0.589689 0.776046 0.5
340 30 0.558202 0.787649 0.5
591 30 0.581475 0.809847 0.5
746 30 0.621157 0.7658 0.5
986 30 0.612624 0.798691 0.5
208 31 0.645193 0.788995 0.5
926 31 0.710769 0.770028 0.5
272 31 0.679635 0.780514 0.5
139 30 0.66893 0.813395 0.5
703 30 0.700572 0.804792 0.5
919 30 0.743927 0.762078 0.5
158 31 0.733584 0.793123 0.5
378 31 0.768335 0.785322 0.5
857 31 0.834419 0.766149 0.5
63 30 0.801933 0.776284 0.5
676 31 0.79268 0.808273 0.5
379 30 0.82528 0.800568 0.5
89 30 0.856813 0.791625 0.5
229 31 0.88068 0.813909 0.5
502 30 0.888513 0.782797 0.5
528 31 0.91928 0.77208 0.5
350 30 0.913237 0.804447 0.5
242 31 0.943945 0.796337 0.5
143 30 0.951353 0.762612 0.5
813 30 1.00808 0.779433 0.5
215 30 0.99993 0.811807 0.5
589 30 0.975196 0.786996 0.5
262 31 0.968332 0.82046 0.5
846 31 0.0562229 0.82795 0.5
710 31 0.0244398 0.8367 0.5
964 31 0.0487356 0.860582 0.5
705 30 0.0160407 0.86982 0.5
712 30 0.0789563 0.851251 0.5
448 31 0.105042 0.875219 0.5
819 30 0.115759 0.843167 0.5
694 31 0.178541 0.825207 0.5
197 30 0.139531 0.867719 0.5
216 31 0.145928 0.835155 0.5
513 30 0.173374 0.858894 0.5
996 30 0.20448 0.850362 0.5
701 31 0.228851 0.874131 0.5
71 31 0.237131 0.839402 0.5
953 30 0.269793 0.83253 0.5
14 30 0.262343 0.864957 0.5
802 31 0.295564 0.855449 0.5
823 30 0.302764 0.822275 0.5
409 30 0.327328 0.847064 0.5
414 31 0.317449 0.880027 0.5
841 31 0.350623 0.869728 0.5
623 31 0.359931 0.836889 0.5
649 31 0.391813 0.830938 0.5
592 30 0.383823 0.864049 0.5
467 31 0.41708 0.853358 0.5
445 31 0.449689 0.842931 0.5
492 31 0.44278 0.875937 0.5
824 31 0.474015 0.86784 0.5
877 30 0.513295 0.82566 0.5
629 30 0.482145 0.83428 0.5
961 30 0.50669 0.858589 0.5
930 30 0.538371 0.849344 0.5
16 31 0.562683 0.874582 0.5
270 31 0.57255 0.842838 0.5
799 30 0.595327 0.867441 0.5
241 31 0.636745 0.823605 0.5
749 30 0.60447 0.834647 0.5
211 30 0.628691 0.857085 0.5
408 30 0.659324 0.847288 0.5
742 31 0.683853 0.872728 0.5
561 31 0.692088 0.838985 0.5
243 31 0.756959 0.819232 0.5
312 31 0.725088 0.828345 0.5
912 31 0.714889 0.862245 0.5
249 31 0.749543 0.851599 0.5
397 31 0.781785 0.841917 0.5
615 30 0.770739 0.875483 0.5
644 30 0.817202 0.833083 0.5
68 31 0.804543 0.865952 0.5
106 30 0.849173 0.826111 0.5
700 30 0.839219 0.858293 0.5
155 30 0.872426 0.850193 0.5
648 30 0.935665 0.831029 0.5
393 31 0.894817 0.872742 0.5
920 30 0.904119 0.838446 0.5
806 30 0.926356 0.863681 0.5
733 31 0.958564 0.853146 0.5
505 31 0.993766 0.845727 0.5
34 31 0.983684 0.878118 0.5
245 30 0.0389076 0.894479 0.5
756 30 0.032622 0.926737 0.5
511 31 0.0637332 0.916935 0.5
367 30 0.0720573 0.88265 0.5
976 30 0.0977902 0.908179 0.5
28 30 0.122706 0.931602 0.5
673 30 0.130635 0.89786 0.5
559 31 0.162426 0.89125 0.5
144 31 0.155624 0.923213 0.5
227 31 0.196435 0.883223 0.5
753 31 0.188143 0.915025 0.5
469 31 0.221487 0.907951 0.5
621 30 0.247368 0.930356 0.5
608 30 0.254151 0.897681 0.5
203 31 0.285715 0.889059 0.5
927 31 0.277219 0.921398 0.5
389 31 0.308315 0.913732 0.5
914 30 0.333559 0.937084 0.5
374 31 0.341022 0.902923 0.5
274 30 0.409404 0.887102 0.5
263 30 0.366237 0.926644 0.5
493 30 0.374113 0.896336 0.5
104 30 0.399597 0.918046 0.5
114 30 0.43231 0.908871 0.5
457 31 0.454014 0.934216 0.5
372 30 0.465569 0.901076 0.5
301 31 0.529483 0.882893 0.5
430 31 0.487316 0.925387 0.5
871 30 0.497898 0.893207 0.5
699 30 0.520824 0.915848 0.5
737 31 0.553194 0.907856 0.5
704 31 0.576782 0.932089 0.5
779 31 0.586089 0.898181 0.5
653 30 0.65211 0.880545 0.5
265 31 0.620101 0.890577 0.5
452 31 0.609484 0.922075 0.5
637 30 0.643965 0.914309 0.5
838 30 0.67583 0.903502 0.5
138 31 0.698942 0.927466 0.5
940 30 0.707363 0.895029 0.5
677 31 0.738455 0.886941 0.5
571 31 0.732424 0.919049 0.5
530 30 0.765103 0.907287 0.5
938 30 0.8284 0.889562 0.5
797 31 0.796898 0.897739 0.5
332 30 0.786523 0.93223 0.5
382 31 0.820289 0.9224 0.5
881 30 0.862036 0.883372 0.5
994 30 0.85249 0.914733 0.5
886 30 0.885039 0.905913 0.5
33 30 0.916237 0.896939 0.5
998 31 0.909417 0.930164 0.5
662 31 0.94291 0.919368 0.5
164 31 0.950465 0.887078 0.5
80 30 1.00825 0.902387 0.5
766 30 1.00072 0.935136 0.5
939 31 0.976271 0.91034 0.5
517 31 0.0567018 0.949523 0.5
596 30 0.0238775 0.9581 0.5
130 30 0.0487286 0.982142 0.5
597 30 0.0142168 0.989625 0.5
66 31 0.0877677 0.939673 0.5
124 30 0.103648 0.996796 0.5
260 30 0.0791255 0.973258 0.5
442 31 0.114019 0.963962 0.5
837 31 0.135277 0.989023 0.5
18 31 0.181618 0.94913 0.5
273 30 0.147295 0.956203 0.5
564 30 0.170223 0.979829 0.5
54 30 0.212713 0.940709 0.5
856 30 0.204409 0.97402 0.5
325 31 0.237658 0.962054 0.5
957 31 0.300708 0.945936 0.5
646 30 0.269937 0.95455 0.5
900 30 0.260157 0.987675 0.5
847 31 0.293058 0.980532 0.5
977 31 0.326546 0.97051 0.5
424 30 0.350816 0.994697 0.5
174 31 0.360265 0.959644 0.5
761 30 0.391019 0.949195 0.5
744 31 0.381998 0.984816 0.5
90 31 0.412976 0.975159 0.5
944 30 0.422782 0.94195 0.5
582 30 0.445119 0.967486 0.5
91 30 0.471089 0.991102 0.5
31 30 0.476499 0.956779 0.5
655 30 0.510259 0.948935 0.5
425 31 0.502896 0.980022 0.5
485 31 0.535673 0.972617 0.5
715 30 0.543174 0.940112 0.5
795 31 0.568393 0.964476 0.5
874 31 0.591378 0.990312 0.5
307 31 0.63404 0.947292 0.5
305 30 0.601975 0.956116 0.5
57 31 0.625329 0.980442 0.5
416 31 0.665664 0.937654 0.5
329 31 0.658522 0.971752 0.5
360 30 0.684316 0.99471 0.5
94 30 0.691034 0.961154 0.5
521 31 0.754872 0.941962 0.5
859 31 0.722228 0.949652 0.5
100 31 0.713979 0.985746 0.5
540 31 0.746744 0.974643 0.5
317 31 0.780086 0.965006 0.5
177 30 0.802962 0.987968 0.5
456 31 0.812984 0.956569 0.5
170 31 0.876806 0.939398 0.5
377 30 0.843708 0.946612 0.5
365 30 0.836325 0.980927 0.5
936 30 0.868084 0.971308 0.5
574 30 0.891938 0.99493 0.5
202 31 0.900894 0.963192 0.5
849 31 0.935114 0.951857 0.5
233 30 0.926483 0.984448 0.5
171 31 0.967463 0.943112 0.5
923 31 0.958489 0.976717 0.5
97 30 0.990148 0.966366 0.5
