ITEM: TIMESTEP
1250000
ITEM: NUMBER OF ATOMS
1000
ITEM: BOX BOUNDS pp pp pp
-1.5897933000000000e+01 1.5897933000000000e+01
-1.5897933000000000e+01 1.5897933000000000e+01
-5.0000000000000000e-01 5.0000000000000000e-01
ITEM: ATOMS id type xs ys zs
920 30 0.0303151 0.0363567 0.5
229 31 0.00722863 0.0126664 0.5
806 30 0.055412 0.0613792 0.5
648 30 0.0638836 0.0280898 0.5
262 31 0.0968442 0.0186184 0.5
733 31 0.0885289 0.052477 0.5
505 31 0.120849 0.0423203 0.5
215 30 0.129157 0.00958607 0.5
710 31 0.153281 0.0336085 0.5
964 31 0.177069 0.0577078 0.5
705 30 0.144383 0.0659775 0.5
712 30 0.18653 0.0238291 0.5
819 30 0.218972 0.0168785 0.5
448 31 0.209293 0.0486616 0.5
197 30 0.241761 0.0404391 0.5
216 31 0.251557 0.00780981 0.5
513 30 0.276182 0.0322844 0.5
559 31 0.265431 0.0656551 0.5
996 30 0.308871 0.0235274 0.5
71 31 0.341214 0.0146173 0.5
701 31 0.332142 0.0480812 0.5
227 31 0.300038 0.0569829 0.5
14 30 0.364365 0.0393874 0.5
802 31 0.398324 0.0291381 0.5
203 31 0.388863 0.0621658 0.5
414 31 0.422367 0.0540343 0.5
409 30 0.431572 0.0214107 0.5
623 31 0.463042 0.0129896 0.5
841 31 0.455132 0.045467 0.5
649 31 0.518817 0.0271513 0.5
592 30 0.487208 0.0366627 0.5
274 30 0.510686 0.0613071 0.5
467 31 0.54302 0.0510259 0.5
445 31 0.575736 0.0423444 0.5
934 30 0.551707 0.0177596 0.5
629 30 0.609327 0.0308678 0.5
877 30 0.641327 0.0206391 0.5
961 30 0.633569 0.0539671 0.5
824 31 0.600495 0.0632729 0.5
930 30 0.664803 0.0430817 0.5
270 31 0.698395 0.0355856 0.5
551 30 0.673009 0.010424 0.5
16 31 0.688836 0.0680492 0.5
749 30 0.730222 0.026375 0.5
241 31 0.76318 0.0181999 0.5
211 30 0.755791 0.0493531 0.5
799 30 0.722964 0.0587885 0.5
408 30 0.788248 0.0407266 0.5
561 31 0.821535 0.031334 0.5
742 31 0.812365 0.0638478 0.5
312 31 0.85277 0.021845 0.5
249 31 0.877035 0.046367 0.5
912 31 0.844658 0.0555397 0.5
243 31 0.884951 0.0138457 0.5
397 31 0.910331 0.0391914 0.5
644 30 0.943259 0.0294162 0.5
68 31 0.93312 0.062414 0.5
106 30 0.974904 0.0213303 0.5
155 30 0.997077 0.0456481 0.5
700 30 0.965735 0.0538217 0.5
393 31 0.0212374 0.0688492 0.5
33 30 0.045999 0.0945862 0.5
886 30 0.013135 0.102469 0.5
998 31 0.0370355 0.126774 0.5
164 31 0.0790474 0.0851595 0.5
34 31 0.110973 0.0765227 0.5
939 31 0.103566 0.109521 0.5
662 31 0.0713903 0.118025 0.5
80 30 0.136476 0.0997391 0.5
245 30 0.168797 0.0909684 0.5
756 30 0.15972 0.123344 0.5
367 30 0.200936 0.081724 0.5
673 30 0.233047 0.0730061 0.5
976 30 0.224934 0.106346 0.5
511 31 0.19277 0.115165 0.5
144 31 0.257996 0.0985148 0.5
753 31 0.289886 0.089563 0.5
18 31 0.281087 0.123173 0.5
469 31 0.323239 0.0801702 0.5
621 30 0.347779 0.104807 0.5
54 30 0.314673 0.112259 0.5
608 30 0.357216 0.0717915 0.5
927 31 0.381581 0.0965332 0.5
957 31 0.404034 0.119845 0.5
389 31 0.414493 0.0868054 0.5
374 31 0.447099 0.0794733 0.5
263 30 0.470006 0.103965 0.5
914 30 0.4382 0.110891 0.5
493 30 0.47819 0.0694157 0.5
104 30 0.502223 0.095067 0.5
761 30 0.49481 0.128471 0.5
944 30 0.527475 0.118339 0.5
114 30 0.535179 0.0843865 0.5
492 31 0.567293 0.0746595 0.5
457 31 0.558881 0.108589 0.5
372 30 0.590623 0.0972712 0.5
871 30 0.622606 0.0877806 0.5
699 30 0.644207 0.111985 0.5
430 31 0.612574 0.1236 0.5
301 31 0.655059 0.0782085 0.5
737 31 0.677719 0.101179 0.5
704 31 0.702117 0.123981 0.5
779 31 0.712479 0.09091 0.5
265 31 0.747689 0.0815127 0.5
452 31 0.736215 0.114415 0.5
653 30 0.779507 0.0725856 0.5
637 30 0.769084 0.10533 0.5
838 30 0.802263 0.0961717 0.5
138 31 0.824702 0.120689 0.5
940 30 0.83458 0.0887117 0.5
677 31 0.867841 0.0813031 0.5
571 31 0.85868 0.112481 0.5
530 30 0.891802 0.103118 0.5
615 30 0.900832 0.0707371 0.5
797 31 0.924538 0.0946477 0.5
938 30 0.957041 0.0863958 0.5
881 30 0.989396 0.0791883 0.5
994 30 0.980695 0.111642 0.5
382 31 0.947193 0.119059 0.5
202 31 0.0277968 0.159068 0.5
849 31 0.0614611 0.149968 0.5
170 31 0.00427757 0.135089 0.5
233 30 0.0514876 0.182748 0.5
171 31 0.095346 0.141902 0.5
97 30 0.119993 0.164846 0.5
923 31 0.0853804 0.174273 0.5
766 30 0.128153 0.132863 0.5
596 30 0.151676 0.156915 0.5
130 30 0.17442 0.179686 0.5
517 31 0.183402 0.147092 0.5
66 31 0.21583 0.138765 0.5
260 30 0.206337 0.170259 0.5
28 30 0.248412 0.130908 0.5
442 31 0.240145 0.162556 0.5
273 30 0.272082 0.155158 0.5
856 30 0.306621 0.145682 0.5
325 31 0.338308 0.136995 0.5
403 30 0.328575 0.170497 0.5
564 30 0.29632 0.178392 0.5
900 30 0.362363 0.161173 0.5
646 30 0.370982 0.128913 0.5
847 31 0.394808 0.152071 0.5
977 31 0.429438 0.143742 0.5
174 31 0.462839 0.136864 0.5
424 30 0.453195 0.169197 0.5
385 31 0.419267 0.176616 0.5
90 31 0.519801 0.152565 0.5
744 31 0.48712 0.160861 0.5
568 31 0.512544 0.18516 0.5
582 30 0.550177 0.144621 0.5
31 30 0.581618 0.134428 0.5
674 30 0.544157 0.177932 0.5
91 30 0.575526 0.167311 0.5
655 30 0.639191 0.143999 0.5
425 31 0.607703 0.15793 0.5
485 31 0.661225 0.167144 0.5
715 30 0.670132 0.133173 0.5
795 31 0.692506 0.158352 0.5
305 30 0.725711 0.147087 0.5
307 31 0.75869 0.138365 0.5
57 31 0.750302 0.171003 0.5
874 31 0.717359 0.179104 0.5
416 31 0.792697 0.12932 0.5
94 30 0.815716 0.154207 0.5
329 31 0.783538 0.163966 0.5
859 31 0.849337 0.145976 0.5
521 31 0.883066 0.137542 0.5
540 31 0.871628 0.171633 0.5
100 31 0.839028 0.177938 0.5
332 30 0.915342 0.128251 0.5
317 31 0.905028 0.160849 0.5
456 31 0.938751 0.151481 0.5
377 30 0.970279 0.144387 0.5
936 30 0.994351 0.167859 0.5
365 30 0.961388 0.177222 0.5
574 30 0.0185816 0.191349 0.5
661 30 0.0430171 0.216251 0.5
652 31 0.00999925 0.224165 0.5
199 31 0.0751413 0.206081 0.5
762 31 0.10939 0.197111 0.5
405 30 0.100306 0.229186 0.5
369 31 0.0667593 0.238607 0.5
770 31 0.132664 0.221991 0.5
597 30 0.142189 0.189348 0.5
672 31 0.165644 0.213707 0.5
429 30 0.197804 0.204056 0.5
124 30 0.229826 0.195502 0.5
290 31 0.219676 0.229295 0.5
935 30 0.188859 0.237377 0.5
837 31 0.262679 0.186926 0.5
754 31 0.252423 0.218969 0.5
140 30 0.286009 0.21051 0.5
169 30 0.276126 0.242527 0.5
331 30 0.319231 0.202259 0.5
239 31 0.34396 0.225738 0.5
427 31 0.30953 0.23446 0.5
293 31 0.352769 0.193381 0.5
440 31 0.385523 0.18416 0.5
167 30 0.377819 0.217621 0.5
400 31 0.411612 0.209135 0.5
368 31 0.402889 0.241287 0.5
671 30 0.445299 0.201262 0.5
36 31 0.436954 0.233921 0.5
4 31 0.478589 0.193309 0.5
785 31 0.470295 0.227611 0.5
950 31 0.50314 0.219307 0.5
44 31 0.569224 0.201736 0.5
658 31 0.536568 0.211832 0.5
988 30 0.527908 0.245502 0.5
72 30 0.562022 0.23534 0.5
666 31 0.602322 0.193805 0.5
497 31 0.635764 0.188893 0.5
225 31 0.629601 0.222966 0.5
500 31 0.595698 0.226944 0.5
603 30 0.683861 0.190005 0.5
508 30 0.707912 0.21221 0.5
845 30 0.66344 0.21758 0.5
402 31 0.741002 0.204226 0.5
121 31 0.763747 0.228477 0.5
103 31 0.72948 0.236502 0.5
745 31 0.773925 0.195651 0.5
360 30 0.807841 0.186951 0.5
217 31 0.796595 0.219735 0.5
165 30 0.8321 0.211648 0.5
363 30 0.863211 0.203581 0.5
611 31 0.886052 0.226614 0.5
443 30 0.854051 0.236225 0.5
12 31 0.89599 0.193707 0.5
177 30 0.929125 0.184377 0.5
346 30 0.919168 0.216723 0.5
85 30 0.945518 0.241464 0.5
933 30 0.952572 0.209967 0.5
310 31 0.984895 0.20065 0.5
210 30 0.979245 0.233452 0.5
27 31 0.0343923 0.248812 0.5
259 30 0.0579238 0.271685 0.5
196 31 0.0244969 0.281184 0.5
252 31 0.0909239 0.261762 0.5
851 31 0.113624 0.285432 0.5
614 30 0.0817726 0.294766 0.5
24 30 0.122826 0.253426 0.5
751 30 0.15639 0.246672 0.5
120 30 0.14693 0.277518 0.5
736 30 0.16971 0.301593 0.5
555 30 0.1788 0.270155 0.5
162 31 0.211655 0.261535 0.5
750 31 0.204266 0.294532 0.5
376 31 0.244758 0.25194 0.5
87 30 0.236727 0.285362 0.5
848 30 0.269529 0.275046 0.5
995 30 0.293422 0.299178 0.5
275 31 0.301011 0.26632 0.5
728 31 0.335391 0.257962 0.5
815 30 0.324972 0.290134 0.5
888 30 0.358661 0.280257 0.5
556 30 0.369471 0.249256 0.5
707 31 0.392845 0.273558 0.5
651 30 0.461858 0.259338 0.5
645 31 0.428973 0.268481 0.5
966 30 0.413604 0.298423 0.5
296 30 0.452673 0.291086 0.5
434 30 0.494373 0.252361 0.5
232 30 0.52316 0.279663 0.5
607 31 0.485572 0.28589 0.5
348 30 0.554818 0.26895 0.5
587 31 0.549748 0.302611 0.5
476 30 0.581578 0.293868 0.5
531 30 0.589534 0.261365 0.5
566 31 0.624071 0.255588 0.5
278 31 0.649564 0.282096 0.5
21 31 0.615905 0.289445 0.5
963 30 0.658189 0.249919 0.5
309 31 0.682878 0.272939 0.5
832 31 0.691786 0.240702 0.5
952 31 0.716018 0.265925 0.5
887 31 0.753568 0.259664 0.5
590 30 0.708319 0.299326 0.5
431 31 0.741752 0.290315 0.5
821 30 0.778169 0.283964 0.5
156 30 0.787187 0.251933 0.5
892 30 0.811868 0.276795 0.5
879 31 0.820619 0.242984 0.5
6 30 0.843985 0.266643 0.5
418 31 0.878686 0.25958 0.5
364 31 0.836055 0.299152 0.5
901 31 0.868969 0.290395 0.5
438 30 0.902713 0.282969 0.5
855 31 0.912097 0.249508 0.5
375 30 0.934279 0.273866 0.5
2 30 1.00027 0.256872 0.5
729 30 0.968233 0.265087 0.5
698 30 0.990807 0.289294 0.5
776 31 0.958345 0.297242 0.5
723 30 0.0500694 0.304014 0.5
132 31 0.0377883 0.336375 0.5
288 31 0.0149988 0.312856 0.5
345 31 0.00482754 0.346724 0.5
959 30 0.072864 0.329075 0.5
542 31 0.105026 0.319408 0.5
807 30 0.0613263 0.359993 0.5
428 30 0.0952903 0.353608 0.5
512 31 0.128112 0.344243 0.5
917 31 0.136772 0.310468 0.5
534 31 0.160749 0.335038 0.5
407 30 0.194196 0.326278 0.5
96 30 0.228238 0.316642 0.5
8 30 0.184083 0.357763 0.5
885 30 0.216451 0.349427 0.5
720 30 0.250951 0.339689 0.5
532 30 0.261393 0.3084 0.5
690 30 0.282358 0.331738 0.5
787 30 0.315279 0.322487 0.5
902 30 0.349625 0.313667 0.5
201 31 0.339017 0.347288 0.5
965 30 0.30629 0.355021 0.5
664 31 0.380949 0.304873 0.5
834 31 0.372497 0.338017 0.5
949 31 0.404407 0.329704 0.5
794 31 0.395563 0.363721 0.5
665 31 0.437432 0.320149 0.5
620 30 0.460777 0.343387 0.5
333 30 0.428872 0.352292 0.5
73 31 0.485967 0.320571 0.5
581 30 0.517907 0.312607 0.5
384 31 0.510856 0.345376 0.5
303 30 0.542397 0.336082 0.5
133 31 0.575418 0.327401 0.5
504 31 0.534921 0.371084 0.5
251 31 0.607924 0.324557 0.5
421 31 0.640962 0.315002 0.5
805 30 0.600102 0.356903 0.5
383 31 0.632082 0.347998 0.5
866 30 0.674932 0.306155 0.5
83 31 0.70007 0.331513 0.5
626 31 0.666147 0.340831 0.5
101 30 0.732822 0.323589 0.5
166 30 0.757275 0.347265 0.5
118 30 0.723766 0.355163 0.5
136 31 0.767698 0.314493 0.5
529 30 0.8013 0.307607 0.5
679 31 0.825137 0.330479 0.5
426 30 0.791732 0.339224 0.5
544 30 0.859328 0.323421 0.5
974 30 0.881737 0.347828 0.5
353 30 0.847645 0.355052 0.5
803 31 0.891896 0.314871 0.5
618 31 0.924258 0.306959 0.5
973 30 0.915257 0.339475 0.5
141 31 0.948714 0.329236 0.5
545 31 0.982481 0.32056 0.5
557 31 0.971383 0.35476 0.5
983 31 0.0289422 0.370271 0.5
686 30 0.0531245 0.393037 0.5
188 31 0.0193982 0.40194 0.5
929 31 0.0854323 0.386422 0.5
548 31 0.118725 0.376483 0.5
326 31 0.110023 0.408484 0.5
764 31 0.0776593 0.417749 0.5
84 30 0.151572 0.366574 0.5
111 30 0.176814 0.389717 0.5
631 30 0.142959 0.40012 0.5
628 31 0.206938 0.381646 0.5
7 31 0.231824 0.40584 0.5
951 30 0.199209 0.414803 0.5
897 31 0.241158 0.372093 0.5
967 30 0.273852 0.365709 0.5
475 30 0.264262 0.3972 0.5
882 31 0.297962 0.388374 0.5
812 30 0.330484 0.378862 0.5
422 30 0.320349 0.412065 0.5
740 31 0.363121 0.371319 0.5
792 31 0.352605 0.403602 0.5
616 30 0.385611 0.396619 0.5
709 30 0.410777 0.417983 0.5
875 31 0.420791 0.385868 0.5
105 31 0.451329 0.376461 0.5
636 30 0.443418 0.410141 0.5
734 31 0.484444 0.365958 0.5
361 31 0.474937 0.399184 0.5
491 30 0.507211 0.390111 0.5
175 31 0.56703 0.361299 0.5
893 30 0.561026 0.39567 0.5
446 30 0.531322 0.411941 0.5
125 30 0.593129 0.39112 0.5
727 31 0.624984 0.381626 0.5
549 30 0.617767 0.414526 0.5
267 30 0.657828 0.372534 0.5
619 31 0.690643 0.365513 0.5
46 31 0.683619 0.397906 0.5
730 31 0.650538 0.404601 0.5
206 31 0.717065 0.389122 0.5
980 30 0.749307 0.380158 0.5
9 30 0.740612 0.412952 0.5
264 31 0.772121 0.403588 0.5
829 30 0.782636 0.372281 0.5
578 30 0.81473 0.363723 0.5
471 30 0.805434 0.396169 0.5
39 30 0.839392 0.386628 0.5
283 31 0.872778 0.378832 0.5
244 30 0.864165 0.410649 0.5
313 31 0.89739 0.404221 0.5
519 30 0.905443 0.371433 0.5
822 31 0.93093 0.396248 0.5
95 31 0.939037 0.363702 0.5
716 30 0.995488 0.37841 0.5
41 31 0.963432 0.388368 0.5
632 30 0.954025 0.419974 0.5
336 31 0.986769 0.410282 0.5
781 30 0.0439367 0.424344 0.5
713 31 0.035808 0.458145 0.5
606 31 0.0112802 0.435437 0.5
480 30 0.00203352 0.467676 0.5
960 31 0.0682423 0.450254 0.5
26 31 0.101653 0.441897 0.5
398 31 0.0919185 0.474003 0.5
465 30 0.124794 0.465609 0.5
600 31 0.13334 0.432848 0.5
783 30 0.166957 0.422769 0.5
234 31 0.157124 0.457535 0.5
791 30 0.18941 0.448336 0.5
179 31 0.222099 0.438857 0.5
641 30 0.180707 0.479553 0.5
714 30 0.213732 0.470998 0.5
22 31 0.246126 0.463088 0.5
524 31 0.254943 0.429779 0.5
833 31 0.279818 0.453155 0.5
687 31 0.289204 0.420622 0.5
190 31 0.311781 0.44508 0.5
357 31 0.344859 0.435807 0.5
786 31 0.30199 0.477208 0.5
92 30 0.335916 0.468035 0.5
154 30 0.36867 0.459886 0.5
458 31 0.37754 0.428258 0.5
668 30 0.401745 0.450534 0.5
228 30 0.433883 0.442127 0.5
693 30 0.466927 0.431804 0.5
702 30 0.458477 0.463279 0.5
765 30 0.426604 0.474457 0.5
814 31 0.49807 0.422435 0.5
692 30 0.490799 0.456155 0.5
306 30 0.522658 0.445032 0.5
77 30 0.555095 0.434255 0.5
112 30 0.585352 0.423438 0.5
864 30 0.578638 0.457873 0.5
406 30 0.547022 0.468752 0.5
593 30 0.609861 0.446576 0.5
771 30 0.642699 0.439921 0.5
870 30 0.634715 0.474624 0.5
128 31 0.675434 0.430674 0.5
1000 31 0.667405 0.464034 0.5
49 30 0.700594 0.453522 0.5
688 30 0.707714 0.421323 0.5
277 30 0.732558 0.44591 0.5
17 30 0.764471 0.436669 0.5
478 30 0.756871 0.469673 0.5
553 31 0.796842 0.427806 0.5
137 31 0.821548 0.451836 0.5
625 31 0.789083 0.461975 0.5
289 30 0.83017 0.4195 0.5
911 30 0.854858 0.443006 0.5
585 31 0.878978 0.467379 0.5
343 31 0.889219 0.435681 0.5
999 31 0.92159 0.428694 0.5
533 31 0.912529 0.46004 0.5
294 30 0.945007 0.453382 0.5
503 31 0.97729 0.442789 0.5
575 31 0.96907 0.475284 0.5
191 31 0.0260282 0.492681 0.5
962 31 0.058415 0.482786 0.5
869 31 0.0522061 0.516077 0.5
212 30 0.0184381 0.524437 0.5
827 31 0.0840805 0.506936 0.5
60 30 0.116961 0.498126 0.5
748 31 0.108347 0.53138 0.5
696 30 0.148407 0.489179 0.5
586 31 0.173775 0.512317 0.5
680 30 0.140082 0.522113 0.5
186 31 0.205999 0.504175 0.5
235 31 0.229784 0.527404 0.5
789 30 0.196211 0.536648 0.5
854 30 0.238152 0.495381 0.5
972 30 0.269851 0.486451 0.5
51 31 0.293623 0.509752 0.5
410 31 0.261373 0.518949 0.5
563 31 0.326421 0.500081 0.5
287 31 0.350845 0.525139 0.5
300 31 0.318133 0.533578 0.5
550 30 0.359318 0.492207 0.5
541 31 0.392722 0.483854 0.5
423 31 0.383725 0.516681 0.5
412 30 0.417458 0.506124 0.5
126 31 0.44964 0.498418 0.5
40 31 0.44094 0.531216 0.5
11 31 0.480511 0.488532 0.5
928 31 0.473471 0.521243 0.5
62 30 0.514769 0.478675 0.5
767 31 0.507176 0.512341 0.5
349 31 0.530379 0.536134 0.5
479 30 0.538341 0.501485 0.5
394 30 0.570439 0.491532 0.5
281 30 0.561662 0.525111 0.5
691 31 0.603102 0.481173 0.5
404 31 0.593426 0.51502 0.5
157 31 0.62728 0.50663 0.5
23 30 0.660347 0.497375 0.5
311 30 0.692659 0.485848 0.5
816 31 0.683954 0.522064 0.5
432 30 0.650959 0.529768 0.5
760 30 0.71584 0.511987 0.5
910 30 0.724298 0.47933 0.5
341 30 0.747821 0.503169 0.5
35 31 0.739613 0.537168 0.5
282 30 0.812909 0.485037 0.5
176 31 0.780036 0.494232 0.5
318 31 0.804044 0.517753 0.5
904 31 0.77147 0.527574 0.5
119 30 0.837629 0.509289 0.5
853 30 0.846347 0.476712 0.5
338 30 0.869273 0.500696 0.5
381 31 0.862337 0.535348 0.5
784 30 0.903102 0.492114 0.5
971 30 0.935694 0.48563 0.5
47 31 0.9273 0.518572 0.5
269 31 0.894333 0.525658 0.5
82 31 0.992783 0.501054 0.5
725 31 0.960261 0.509287 0.5
862 30 0.985596 0.533184 0.5
546 31 0.0432223 0.550138 0.5
777 30 0.0320148 0.581354 0.5
906 31 0.0101432 0.557923 0.5
342 31 0.0659003 0.574553 0.5
916 30 0.0753768 0.539859 0.5
240 30 0.0989973 0.563774 0.5
187 31 0.0893961 0.596349 0.5
793 30 0.131498 0.55492 0.5
826 30 0.164131 0.54497 0.5
726 30 0.154811 0.576876 0.5
109 31 0.121952 0.58751 0.5
913 30 0.1886 0.568293 0.5
204 31 0.220525 0.559739 0.5
127 30 0.212083 0.593333 0.5
65 31 0.286824 0.544464 0.5
872 31 0.254101 0.552061 0.5
399 31 0.277096 0.576633 0.5
942 30 0.244011 0.584144 0.5
543 31 0.309649 0.568249 0.5
45 30 0.34089 0.558002 0.5
883 31 0.333817 0.591262 0.5
152 31 0.365546 0.582135 0.5
506 31 0.375508 0.548749 0.5
576 31 0.398806 0.573122 0.5
117 31 0.408476 0.538979 0.5
722 31 0.43106 0.563409 0.5
20 31 0.464442 0.556102 0.5
732 30 0.456135 0.589061 0.5
25 31 0.496526 0.545096 0.5
266 31 0.521559 0.569375 0.5
956 31 0.488856 0.578476 0.5
411 31 0.555327 0.558345 0.5
79 31 0.58665 0.546966 0.5
958 30 0.577475 0.582681 0.5
246 31 0.545222 0.591848 0.5
324 31 0.618297 0.539349 0.5
42 31 0.642138 0.561955 0.5
184 30 0.608746 0.573045 0.5
560 30 0.674849 0.554394 0.5
778 30 0.706688 0.545451 0.5
899 30 0.698471 0.579025 0.5
584 30 0.666288 0.585688 0.5
867 31 0.730618 0.569604 0.5
772 31 0.764049 0.560553 0.5
573 30 0.754771 0.594043 0.5
711 31 0.795368 0.550702 0.5
43 31 0.820529 0.575059 0.5
110 30 0.787342 0.584797 0.5
70 30 0.827404 0.541465 0.5
981 30 0.85249 0.567669 0.5
93 31 0.876936 0.591325 0.5
601 31 0.886096 0.559709 0.5
633 30 0.919713 0.550632 0.5
612 30 0.910068 0.582451 0.5
818 30 0.951169 0.541754 0.5
135 30 0.943141 0.574412 0.5
254 31 0.975807 0.565236 0.5
236 31 1.00008 0.590945 0.5
579 30 0.0231282 0.614678 0.5
801 30 0.0552181 0.606251 0.5
477 31 0.0476327 0.638546 0.5
237 31 0.015296 0.648015 0.5
495 31 0.0803342 0.629006 0.5
790 31 0.113388 0.620332 0.5
344 30 0.105069 0.652793 0.5
19 30 0.14699 0.61066 0.5
48 30 0.171137 0.635207 0.5
675 30 0.137777 0.644457 0.5
447 31 0.179232 0.601141 0.5
320 31 0.203177 0.626989 0.5
1 30 0.235322 0.617232 0.5
151 31 0.227564 0.649333 0.5
129 31 0.268156 0.609532 0.5
985 30 0.293042 0.633849 0.5
804 30 0.260458 0.641761 0.5
594 31 0.300474 0.601062 0.5
925 30 0.325401 0.624497 0.5
286 31 0.349808 0.647823 0.5
99 30 0.357523 0.613985 0.5
29 30 0.390041 0.605342 0.5
948 31 0.413568 0.630589 0.5
717 30 0.380693 0.638724 0.5
796 30 0.422705 0.598081 0.5
386 31 0.447082 0.621458 0.5
547 31 0.471052 0.644507 0.5
800 30 0.437611 0.653297 0.5
486 31 0.481004 0.612078 0.5
595 31 0.513533 0.602063 0.5
370 31 0.504786 0.634195 0.5
758 30 0.536709 0.625501 0.5
198 31 0.569355 0.61517 0.5
915 30 0.55992 0.648649 0.5
840 30 0.602604 0.606796 0.5
371 30 0.592972 0.639855 0.5
850 30 0.634845 0.595763 0.5
323 30 0.624753 0.632258 0.5
599 31 0.656274 0.620379 0.5
562 31 0.688113 0.610079 0.5
978 30 0.678332 0.646872 0.5
997 31 0.710502 0.636928 0.5
861 31 0.721503 0.603308 0.5
354 31 0.746826 0.626138 0.5
654 30 0.779471 0.616522 0.5
522 31 0.811899 0.609514 0.5
64 31 0.769616 0.649747 0.5
635 30 0.800681 0.642102 0.5
295 31 0.833763 0.633849 0.5
968 31 0.843453 0.601021 0.5
683 31 0.867172 0.624675 0.5
868 31 0.900453 0.616066 0.5
271 30 0.933392 0.606165 0.5
489 30 0.924882 0.639109 0.5
319 30 0.892316 0.647843 0.5
918 31 0.991702 0.622958 0.5
876 31 0.966638 0.599912 0.5
134 31 0.95744 0.630467 0.5
231 31 0.981785 0.656305 0.5
359 31 0.0396807 0.671006 0.5
695 30 0.00620782 0.67904 0.5
757 31 0.0306963 0.703701 0.5
946 30 0.0729969 0.661814 0.5
194 31 0.063635 0.694829 0.5
830 30 0.096366 0.684937 0.5
462 30 0.119326 0.708882 0.5
460 31 0.130099 0.676668 0.5
351 31 0.161711 0.668645 0.5
907 30 0.151822 0.702236 0.5
450 30 0.194199 0.659432 0.5
74 31 0.184845 0.693134 0.5
634 30 0.219111 0.682446 0.5
145 30 0.251381 0.672394 0.5
441 30 0.283777 0.665642 0.5
419 31 0.274191 0.697438 0.5
617 31 0.241192 0.705623 0.5
10 30 0.308548 0.688786 0.5
470 30 0.316327 0.657483 0.5
116 30 0.340486 0.680684 0.5
417 30 0.330881 0.713642 0.5
13 31 0.372252 0.671082 0.5
32 30 0.403493 0.662532 0.5
69 31 0.396874 0.695093 0.5
472 30 0.36386 0.704233 0.5
53 31 0.428864 0.685651 0.5
604 30 0.461822 0.676876 0.5
388 30 0.452987 0.709985 0.5
226 31 0.485878 0.700038 0.5
321 31 0.49576 0.667952 0.5
347 31 0.519879 0.691193 0.5
526 30 0.527453 0.658425 0.5
638 31 0.551721 0.681279 0.5
108 31 0.583825 0.672659 0.5
297 30 0.542962 0.714726 0.5
373 31 0.575165 0.705843 0.5
30 31 0.615748 0.66408 0.5
163 30 0.639611 0.688265 0.5
337 30 0.606675 0.697164 0.5
820 30 0.6474 0.655557 0.5
932 30 0.671119 0.678625 0.5
908 30 0.703283 0.668709 0.5
678 30 0.696714 0.701937 0.5
681 30 0.664042 0.710977 0.5
334 31 0.737007 0.658855 0.5
454 31 0.760622 0.682932 0.5
209 30 0.728038 0.692726 0.5
945 31 0.792996 0.674906 0.5
474 30 0.817862 0.697744 0.5
774 31 0.785641 0.706501 0.5
759 31 0.825962 0.666323 0.5
276 31 0.859036 0.656595 0.5
142 31 0.851026 0.689399 0.5
843 31 0.883418 0.679755 0.5
992 31 0.917317 0.671994 0.5
969 30 0.94091 0.696303 0.5
878 31 0.908219 0.703569 0.5
200 31 0.948388 0.663983 0.5
647 30 0.973498 0.688205 0.5
514 30 0.997417 0.712433 0.5
207 31 0.0215744 0.735932 0.5
131 30 0.0542016 0.72788 0.5
718 30 0.0470778 0.760433 0.5
970 30 0.0124318 0.767204 0.5
401 30 0.0882641 0.719206 0.5
468 30 0.111861 0.742684 0.5
642 31 0.0794373 0.750998 0.5
315 30 0.143764 0.734261 0.5
865 30 0.178125 0.725287 0.5
213 31 0.16922 0.757028 0.5
466 31 0.136813 0.765979 0.5
205 30 0.209239 0.716389 0.5
684 30 0.200586 0.749248 0.5
610 30 0.233125 0.738438 0.5
518 30 0.225787 0.771174 0.5
624 30 0.264636 0.730028 0.5
86 30 0.289601 0.754052 0.5
284 31 0.258049 0.763287 0.5
352 30 0.297649 0.721204 0.5
640 31 0.322229 0.74636 0.5
954 30 0.34683 0.769809 0.5
554 30 0.354867 0.736157 0.5
220 30 0.387127 0.726476 0.5
507 30 0.411388 0.751304 0.5
602 30 0.378957 0.760217 0.5
670 31 0.421508 0.718939 0.5
890 31 0.444742 0.742595 0.5
659 31 0.468464 0.765739 0.5
937 31 0.477222 0.733039 0.5
572 31 0.510097 0.724014 0.5
304 30 0.500982 0.75629 0.5
3 31 0.535118 0.74834 0.5
481 30 0.566448 0.73892 0.5
741 31 0.588789 0.763695 0.5
817 31 0.556909 0.772802 0.5
437 31 0.598932 0.729667 0.5
292 30 0.630413 0.719114 0.5
453 30 0.621183 0.753826 0.5
979 31 0.652731 0.742839 0.5
810 31 0.687849 0.735266 0.5
335 31 0.678065 0.766486 0.5
570 31 0.721563 0.725491 0.5
195 31 0.712267 0.758076 0.5
496 30 0.754253 0.716052 0.5
185 31 0.745813 0.749175 0.5
482 30 0.777413 0.739785 0.5
463 30 0.809376 0.731241 0.5
52 31 0.801068 0.762743 0.5
50 31 0.83461 0.753538 0.5
322 30 0.842575 0.721091 0.5
392 30 0.867182 0.745437 0.5
98 31 0.875945 0.713337 0.5
501 31 0.899883 0.73728 0.5
285 30 0.932338 0.728405 0.5
605 30 0.89015 0.769912 0.5
588 30 0.922601 0.760916 0.5
643 30 0.954599 0.753084 0.5
219 30 0.964875 0.72136 0.5
146 30 0.988371 0.745763 0.5
747 30 0.0361154 0.790862 0.5
113 31 0.0608049 0.814827 0.5
539 31 0.00429603 0.800455 0.5
839 30 0.0290726 0.824379 0.5
828 30 0.070436 0.783615 0.5
433 30 0.102011 0.775531 0.5
161 30 0.0945345 0.807862 0.5
947 31 0.117397 0.832391 0.5
261 31 0.127764 0.798846 0.5
387 30 0.161187 0.790375 0.5
224 30 0.15141 0.822431 0.5
552 30 0.193765 0.78148 0.5
172 30 0.184948 0.813743 0.5
439 30 0.216409 0.804982 0.5
61 31 0.249351 0.795396 0.5
567 30 0.281851 0.787604 0.5
255 30 0.240389 0.828965 0.5
989 31 0.272018 0.81995 0.5
257 31 0.306252 0.811008 0.5
160 30 0.314389 0.779301 0.5
721 30 0.337917 0.802409 0.5
739 31 0.402502 0.784116 0.5
909 30 0.371425 0.792684 0.5
5 31 0.393773 0.817193 0.5
339 31 0.361232 0.826383 0.5
362 31 0.426182 0.807824 0.5
667 30 0.434975 0.77584 0.5
825 31 0.458677 0.798557 0.5
148 31 0.450899 0.83117 0.5
189 30 0.492018 0.788996 0.5
268 31 0.524387 0.780182 0.5
230 31 0.515015 0.812661 0.5
256 31 0.483741 0.822963 0.5
863 30 0.547776 0.806072 0.5
773 30 0.580449 0.796768 0.5
537 30 0.571143 0.829004 0.5
735 30 0.613314 0.787228 0.5
520 31 0.645214 0.776595 0.5
808 30 0.638034 0.810527 0.5
192 31 0.605167 0.820498 0.5
898 30 0.668647 0.799673 0.5
214 31 0.70247 0.790846 0.5
56 30 0.694146 0.823198 0.5
123 30 0.736131 0.780704 0.5
719 30 0.761504 0.804817 0.5
221 30 0.726571 0.815945 0.5
527 30 0.76877 0.772448 0.5
183 30 0.793009 0.795002 0.5
975 30 0.816617 0.819733 0.5
314 31 0.784318 0.829635 0.5
147 30 0.825721 0.787568 0.5
669 31 0.858215 0.778569 0.5
842 30 0.882168 0.802372 0.5
880 31 0.849336 0.811751 0.5
308 30 0.915264 0.79411 0.5
931 30 0.93863 0.818162 0.5
724 31 0.906017 0.825992 0.5
630 31 0.946493 0.785044 0.5
889 30 0.980019 0.777377 0.5
238 30 0.971726 0.809125 0.5
223 30 0.0193139 0.856065 0.5
38 30 0.0520314 0.848652 0.5
943 31 0.0438194 0.881256 0.5
922 31 0.0102927 0.888745 0.5
873 31 0.0756255 0.872712 0.5
987 31 0.0835313 0.840281 0.5
248 30 0.109184 0.863919 0.5
516 31 0.142596 0.855207 0.5
894 30 0.174859 0.846647 0.5
510 31 0.132267 0.887623 0.5
37 30 0.165225 0.878975 0.5
685 30 0.20738 0.838003 0.5
490 31 0.230296 0.862571 0.5
67 30 0.197419 0.871238 0.5
247 30 0.262929 0.853712 0.5
81 30 0.295512 0.84369 0.5
565 30 0.287468 0.876309 0.5
884 31 0.253285 0.886261 0.5
657 30 0.32906 0.835522 0.5
903 31 0.352433 0.85845 0.5
639 30 0.319115 0.867819 0.5
316 31 0.386297 0.850197 0.5
391 30 0.409175 0.874115 0.5
449 30 0.377254 0.882664 0.5
755 30 0.419048 0.841808 0.5
731 31 0.442099 0.864579 0.5
150 31 0.4655 0.889192 0.5
15 31 0.474054 0.856357 0.5
222 31 0.506329 0.847488 0.5
58 30 0.52936 0.87055 0.5
993 30 0.497348 0.879758 0.5
494 30 0.539019 0.838396 0.5
451 31 0.564058 0.862267 0.5
444 31 0.587924 0.885785 0.5
415 30 0.595666 0.852439 0.5
598 31 0.628993 0.843521 0.5
752 30 0.619184 0.878264 0.5
102 30 0.653037 0.866785 0.5
59 30 0.661525 0.833173 0.5
782 30 0.684605 0.855907 0.5
173 30 0.676503 0.890151 0.5
327 31 0.717478 0.846515 0.5
76 30 0.751454 0.837903 0.5
609 30 0.741694 0.870307 0.5
302 30 0.708748 0.879908 0.5
484 31 0.774965 0.86316 0.5
153 31 0.808088 0.85256 0.5
75 30 0.799833 0.886478 0.5
258 31 0.832182 0.876496 0.5
299 30 0.873646 0.835987 0.5
613 30 0.839689 0.843745 0.5
895 30 0.86439 0.868076 0.5
435 30 0.896509 0.85805 0.5
436 31 0.929427 0.851787 0.5
689 30 0.921356 0.883824 0.5
328 30 0.954505 0.874227 0.5
396 31 0.996637 0.832103 0.5
697 31 0.962673 0.841734 0.5
660 30 0.987391 0.864187 0.5
656 30 0.0345195 0.913921 0.5
990 31 0.00150128 0.922077 0.5
780 30 0.0566285 0.938171 0.5
622 30 0.0246119 0.946517 0.5
515 30 0.0668183 0.904974 0.5
905 30 0.0996116 0.896608 0.5
459 31 0.0902946 0.92871 0.5
487 30 0.123123 0.920895 0.5
891 31 0.155149 0.91193 0.5
775 31 0.146925 0.944746 0.5
498 30 0.187945 0.902506 0.5
455 31 0.178816 0.93632 0.5
538 31 0.221872 0.894991 0.5
279 31 0.212152 0.92763 0.5
984 31 0.245362 0.919408 0.5
180 31 0.278256 0.90879 0.5
168 31 0.270351 0.941888 0.5
809 30 0.302904 0.934119 0.5
921 31 0.311913 0.900685 0.5
627 31 0.343753 0.89067 0.5
577 31 0.336227 0.924432 0.5
291 30 0.36923 0.915785 0.5
738 31 0.401263 0.907492 0.5
535 30 0.392713 0.939829 0.5
852 31 0.424964 0.931033 0.5
122 30 0.433121 0.897464 0.5
682 31 0.456978 0.921458 0.5
473 31 0.489359 0.912366 0.5
769 30 0.521141 0.9033 0.5
844 31 0.512622 0.936771 0.5
896 30 0.480813 0.945544 0.5
509 30 0.545559 0.926364 0.5
78 30 0.553687 0.893804 0.5
650 30 0.579219 0.919465 0.5
413 30 0.569188 0.951705 0.5
525 30 0.611339 0.909952 0.5
395 30 0.643811 0.899516 0.5
253 30 0.634427 0.931149 0.5
107 30 0.602975 0.941839 0.5
390 31 0.667956 0.923194 0.5
366 30 0.700942 0.912554 0.5
250 30 0.692333 0.944967 0.5
708 30 0.733263 0.903926 0.5
499 30 0.76533 0.895626 0.5
583 30 0.757124 0.929495 0.5
159 31 0.724933 0.937815 0.5
420 31 0.790316 0.918693 0.5
483 30 0.82296 0.909016 0.5
836 30 0.815543 0.941134 0.5
924 30 0.855345 0.899706 0.5
55 30 0.880142 0.923521 0.5
858 31 0.848543 0.932345 0.5
182 31 0.88894 0.890687 0.5
149 30 0.911989 0.914823 0.5
955 30 0.936472 0.940076 0.5
88 31 0.945006 0.907115 0.5
569 31 0.977912 0.898789 0.5
115 30 0.969089 0.931546 0.5
350 30 0.0398848 1.00441 0.5
502 30 0.0161862 0.979788 0.5
528 31 0.0481754 0.970776 0.5
242 31 0.0714637 0.995113 0.5
589 30 0.104984 0.986477 0.5
143 30 0.0805375 0.963329 0.5
813 30 0.112982 0.953785 0.5
846 31 0.160546 1.00172 0.5
193 30 0.137015 0.977563 0.5
298 31 0.168782 0.969191 0.5
743 31 0.193681 0.992157 0.5
811 30 0.226078 0.98405 0.5
706 31 0.202405 0.959343 0.5
694 31 0.285252 0.999464 0.5
461 31 0.235863 0.952349 0.5
380 31 0.260245 0.975289 0.5
488 30 0.293357 0.966262 0.5
280 31 0.31835 0.991062 0.5
831 30 0.350683 0.981652 0.5
860 30 0.326767 0.956911 0.5
953 30 0.375161 1.00478 0.5
823 30 0.408678 0.997379 0.5
218 30 0.358801 0.948737 0.5
536 30 0.383138 0.972837 0.5
941 30 0.416898 0.963773 0.5
330 30 0.439435 0.987355 0.5
523 30 0.449304 0.95561 0.5
464 30 0.472917 0.979695 0.5
181 31 0.495073 1.00367 0.5
991 31 0.527751 0.994707 0.5
763 31 0.505194 0.970906 0.5
835 31 0.584483 1.0086 0.5
798 31 0.537745 0.960217 0.5
982 31 0.560136 0.985059 0.5
358 30 0.59208 0.976337 0.5
788 31 0.617251 0.99779 0.5
178 30 0.62616 0.964626 0.5
591 30 0.706261 1.00316 0.5
580 30 0.6496 0.98788 0.5
355 31 0.65901 0.955263 0.5
340 30 0.683244 0.979737 0.5
558 31 0.714962 0.970544 0.5
986 30 0.738792 0.994411 0.5
746 30 0.747749 0.961792 0.5
139 30 0.797474 1.00824 0.5
208 31 0.772271 0.985901 0.5
768 31 0.780357 0.951601 0.5
272 31 0.804628 0.97376 0.5
703 30 0.829711 0.99707 0.5
926 31 0.837878 0.964279 0.5
158 31 0.861316 0.988429 0.5
919 30 0.871673 0.955864 0.5
676 31 0.917293 1.00555 0.5
378 31 0.895184 0.979941 0.5
356 30 0.903744 0.94669 0.5
63 30 0.927464 0.972074 0.5
379 30 0.949873 0.996719 0.5
89 30 0.983326 0.988744 0.5
663 31 0.991869 0.954087 0.5
857 31 0.960104 0.96477 0.5
