ITEM: TIMESTEP
250000
ITEM: NUMBER OF ATOMS
1000
ITEM: BOX BOUNDS pp pp pp
-2.2526731999999999e+01 2.2526731999999999e+01
-2.2526731999999999e+01 2.2526731999999999e+01
-5.0000000000000000e-01 5.0000000000000000e-01
ITEM: ATOMS id type xs ys zs
885 28 0.0242162 0.0451566 0.5
345 31 0.0103384 0.996987 0.5
852 32 0.0586014 0.993539 0.5
335 32 0.140383 0.0251901 0.5
768 31 0.148456 0.0800483 0.5
499 25 0.19846 0.0275526 0.5
572 32 0.129664 0.12463 0.5
74 33 0.185242 0.0763922 0.5
177 28 0.175875 0.962002 0.5
122 30 0.272605 0.0544639 0.5
562 33 0.206434 0.998365 0.5
197 30 0.247392 0.000548454 0.5
142 31 0.300628 0.018753 0.5
460 32 0.397054 0.943582 0.5
289 27 0.40447 0.0282846 0.5
374 32 0.399146 1.00037 0.5
380 34 0.424641 0.987201 0.5
517 33 0.479638 0.990381 0.5
651 28 0.478362 0.0271497 0.5
547 32 0.57904 0.990847 0.5
847 34 0.532326 0.0308168 0.5
503 34 0.557765 0.0186621 0.5
689 30 0.635954 0.970267 0.5
792 31 0.625754 0.0296989 0.5
479 26 0.571729 0.0766902 0.5
938 27 0.576708 0.0521176 0.5
246 32 0.648989 0.0382746 0.5
57 31 0.712987 0.990935 0.5
851 31 0.745193 0.0254733 0.5
394 30 0.7239 0.935813 0.5
535 28 0.866984 0.0748636 0.5
659 33 0.838088 0.035368 0.5
553 31 0.877786 0.0411997 0.5
320 32 0.899928 0.0130408 0.5
809 29 0.892579 0.0790467 0.5
340 27 0.93039 0.0238754 0.5
967 28 0.993742 0.0318898 0.5
580 29 0.988275 0.00822327 0.5
640 33 0.903692 0.0446208 0.5
672 31 0.0622668 0.0434147 0.5
964 32 0.0929897 0.0501269 0.5
764 33 0.11947 0.0442213 0.5
844 32 0.060694 0.0986461 0.5
533 33 0.12161 0.0750041 0.5
225 32 0.0897986 0.109179 0.5
434 28 0.17395 0.141897 0.5
700 28 0.177276 0.0520082 0.5
45 29 0.181442 0.989251 0.5
363 28 0.204937 0.0932623 0.5
355 31 0.233988 0.0728228 0.5
60 29 0.272331 0.0285311 0.5
465 29 0.295214 0.0732289 0.5
230 31 0.335503 0.0144808 0.5
591 28 0.358884 0.979064 0.5
983 31 0.415428 0.0801991 0.5
291 29 0.447289 0.0814098 0.5
491 30 0.364478 0.00412911 0.5
5 32 0.41469 0.110505 0.5
353 30 0.381883 0.0601246 0.5
522 33 0.430122 0.0528475 0.5
328 27 0.510784 0.0423722 0.5
772 31 0.599688 0.0766358 0.5
126 31 0.477446 0.056307 0.5
98 33 0.530244 0.070943 0.5
13 31 0.549106 0.0894851 0.5
999 33 0.488459 0.118178 0.5
81 29 0.631213 0.117043 0.5
366 30 0.551986 0.0471749 0.5
604 27 0.625929 0.0903709 0.5
688 29 0.647474 0.0821378 0.5
236 35 0.624306 0.060476 0.5
414 32 0.699177 0.0782206 0.5
339 33 0.723534 0.963866 0.5
200 32 0.662501 0.970972 0.5
144 32 0.745342 0.0535976 0.5
452 32 0.769726 0.0501634 0.5
209 28 0.794756 0.00332978 0.5
783 28 0.752773 0.0811221 0.5
760 28 0.846185 0.0633428 0.5
376 35 0.85555 0.126604 0.5
422 30 0.87285 0.0988169 0.5
432 30 0.928872 0.0592813 0.5
636 27 0.0366906 0.0890971 0.5
962 38 0.964936 0.023165 0.5
910 30 0.0155533 0.101481 0.5
745 32 0.96145 0.170771 0.5
448 31 0.0926584 0.0753753 0.5
577 33 0.12978 0.178273 0.5
629 28 0.0137887 0.176795 0.5
691 34 0.20065 0.132498 0.5
678 30 0.170159 0.0269591 0.5
966 28 0.233094 0.0323388 0.5
3 32 0.246989 0.104384 0.5
84 29 0.265694 0.0795758 0.5
633 30 0.18525 0.169091 0.5
108 32 0.372889 0.0294328 0.5
256 32 0.37199 0.118454 0.5
645 32 0.363882 0.0782661 0.5
912 34 0.345419 0.114989 0.5
250 30 0.38667 0.14634 0.5
786 34 0.422078 0.151021 0.5
741 32 0.450197 0.0330199 0.5
551 30 0.425185 0.184905 0.5
473 31 0.464466 0.105581 0.5
791 29 0.460857 0.143282 0.5
622 29 0.554528 0.119084 0.5
560 30 0.481606 0.0814094 0.5
11 34 0.504979 0.0950684 0.5
893 30 0.698293 0.118174 0.5
253 30 0.69822 0.0484457 0.5
334 32 0.679381 0.102191 0.5
721 29 0.711675 0.0153426 0.5
945 32 0.684626 0.98683 0.5
462 30 0.719167 0.0974145 0.5
615 29 0.722437 0.0662891 0.5
889 29 0.778826 0.102776 0.5
261 34 0.746431 0.106338 0.5
406 30 0.828243 0.187623 0.5
400 32 0.795788 0.0829942 0.5
166 30 0.802141 0.108757 0.5
410 35 0.933577 0.0904149 0.5
34 31 0.797891 0.0506114 0.5
914 28 0.816071 0.069686 0.5
50 31 0.830764 0.0895584 0.5
14 30 0.951382 0.0494605 0.5
532 29 0.915399 0.130979 0.5
805 29 0.910444 0.103385 0.5
337 30 0.0527377 0.0719294 0.5
274 29 0.980744 0.0848627 0.5
807 27 0.0337898 0.194984 0.5
545 34 0.00318546 0.207403 0.5
42 35 0.0535752 0.21314 0.5
800 27 0.150007 0.144118 0.5
634 25 0.160697 0.108323 0.5
989 32 0.0348257 0.12362 0.5
694 31 0.208656 0.210984 0.5
63 30 0.156676 0.172019 0.5
817 33 0.209298 0.0574947 0.5
908 26 0.325053 0.100046 0.5
957 33 0.223998 0.116063 0.5
715 27 0.303844 0.109769 0.5
979 32 0.272179 0.123238 0.5
519 27 0.31603 0.199071 0.5
990 35 0.293692 0.146728 0.5
152 32 0.315136 0.166211 0.5
808 29 0.378361 0.172525 0.5
875 32 0.441957 0.167263 0.5
954 27 0.327028 0.139224 0.5
278 32 0.471638 0.178911 0.5
802 33 0.520763 0.124697 0.5
616 30 0.501005 0.143689 0.5
972 30 0.561109 0.148384 0.5
301 33 0.502028 0.199436 0.5
641 30 0.657469 0.12254 0.5
663 32 0.619929 0.173633 0.5
254 32 0.634201 0.255781 0.5
784 29 0.653255 0.163724 0.5
362 31 0.640533 0.142813 0.5
417 28 0.682346 0.142988 0.5
77 26 0.715791 0.138276 0.5
603 30 0.745803 0.136422 0.5
828 30 0.771855 0.13062 0.5
873 31 0.796053 0.193774 0.5
138 31 0.813012 0.0296967 0.5
981 30 0.909954 0.162732 0.5
812 29 0.825639 0.123413 0.5
656 26 0.95073 0.147006 0.5
76 28 0.994508 0.0570218 0.5
369 32 0.958847 0.104257 0.5
949 32 0.974255 0.140894 0.5
323 30 0.0322462 0.231987 0.5
632 30 0.013431 0.249303 0.5
228 29 0.0858181 0.194208 0.5
537 29 0.0770301 0.140035 0.5
187 32 0.0526239 0.141352 0.5
206 31 0.0392315 0.170325 0.5
359 32 0.233866 0.158783 0.5
554 30 0.104393 0.15637 0.5
653 28 0.243139 0.203238 0.5
716 30 0.269387 0.153251 0.5
955 29 0.317884 0.229489 0.5
670 32 0.276232 0.191829 0.5
923 32 0.394544 0.244066 0.5
952 32 0.34298 0.194173 0.5
30 31 0.377006 0.20832 0.5
357 33 0.363712 0.242326 0.5
163 28 0.346638 0.163656 0.5
180 32 0.471646 0.205757 0.5
719 27 0.443266 0.121242 0.5
878 31 0.448512 0.197124 0.5
831 30 0.587293 0.140615 0.5
774 32 0.506739 0.169126 0.5
610 30 0.582814 0.116013 0.5
90 35 0.785171 0.167138 0.5
295 32 0.73712 0.168591 0.5
6 23 0.640008 0.193493 0.5
439 29 0.678112 0.166655 0.5
287 33 0.704706 0.165758 0.5
877 30 0.740355 0.197289 0.5
356 28 0.79395 0.137017 0.5
834 31 0.817723 0.152827 0.5
442 33 0.794276 0.225008 0.5
637 29 0.852685 0.158422 0.5
871 29 0.893673 0.189919 0.5
368 32 0.877913 0.166542 0.5
402 34 0.935518 0.172137 0.5
797 31 0.980335 0.228981 0.5
992 33 0.987889 0.107239 0.5
210 29 0.991699 0.157665 0.5
222 32 0.943033 0.307797 0.5
824 31 0.90407 0.264197 0.5
667 29 0.0600226 0.292299 0.5
375 30 0.0548033 0.244977 0.5
763 32 0.103694 0.130976 0.5
946 30 0.0744339 0.269038 0.5
109 36 0.0773879 0.22797 0.5
601 31 0.108948 0.203513 0.5
799 29 0.186628 0.194344 0.5
192 33 0.107936 0.229376 0.5
269 31 0.207661 0.182856 0.5
245 26 0.23747 0.238095 0.5
318 33 0.262779 0.226676 0.5
589 27 0.239825 0.265966 0.5
143 30 0.293078 0.214038 0.5
396 31 0.355044 0.217994 0.5
552 30 0.436572 0.260144 0.5
395 29 0.43397 0.286119 0.5
625 31 0.4603 0.249292 0.5
947 32 0.410181 0.208281 0.5
621 29 0.42613 0.238445 0.5
587 33 0.506423 0.232508 0.5
480 28 0.455099 0.223162 0.5
161 29 0.533889 0.168317 0.5
574 27 0.527535 0.20077 0.5
819 30 0.610082 0.145156 0.5
95 31 0.557349 0.171461 0.5
127 27 0.598507 0.202543 0.5
214 32 0.678008 0.22126 0.5
525 28 0.65257 0.218284 0.5
780 30 0.687788 0.190418 0.5
724 35 0.701257 0.290311 0.5
696 29 0.771995 0.250097 0.5
747 27 0.766946 0.223791 0.5
233 29 0.790133 0.287104 0.5
630 31 0.851036 0.18473 0.5
767 35 0.840747 0.21071 0.5
68 31 0.821365 0.234386 0.5
134 32 0.867226 0.246856 0.5
647 30 0.888904 0.312069 0.5
8 28 0.981918 0.259026 0.5
939 34 0.917067 0.242159 0.5
544 29 0.927668 0.21802 0.5
300 33 0.0465644 0.268393 0.5
440 34 0.0350885 0.305728 0.5
996 28 0.0586672 0.381034 0.5
933 30 0.113675 0.347415 0.5
306 29 0.137984 0.260836 0.5
880 35 0.0815563 0.319611 0.5
453 28 0.0903667 0.25143 0.5
977 33 0.21409 0.236746 0.5
342 34 0.192389 0.257009 0.5
184 29 0.185171 0.218575 0.5
836 30 0.28352 0.239279 0.5
744 32 0.336752 0.257186 0.5
929 32 0.371921 0.350932 0.5
958 27 0.281316 0.291694 0.5
131 29 0.362113 0.274592 0.5
415 28 0.412586 0.270455 0.5
940 29 0.442973 0.31127 0.5
925 27 0.418539 0.309466 0.5
457 34 0.390633 0.405508 0.5
248 28 0.487925 0.261585 0.5
188 31 0.513249 0.284765 0.5
773 26 0.489935 0.289657 0.5
241 32 0.526053 0.263114 0.5
894 29 0.540479 0.301037 0.5
149 29 0.535481 0.224663 0.5
676 31 0.57383 0.18833 0.5
803 31 0.608811 0.25367 0.5
906 34 0.58295 0.233427 0.5
451 32 0.71319 0.244765 0.5
997 32 0.688 0.26509 0.5
876 31 0.708368 0.213744 0.5
507 30 0.741631 0.229516 0.5
931 30 0.726618 0.265955 0.5
516 35 0.749131 0.282154 0.5
842 29 0.822638 0.296085 0.5
43 33 0.757622 0.309261 0.5
198 33 0.839023 0.252031 0.5
794 31 0.873546 0.216514 0.5
586 36 0.90029 0.217106 0.5
259 26 0.964679 0.318664 0.5
115 27 0.0689919 0.348091 0.5
336 33 0.0470838 0.328297 0.5
171 32 0.132935 0.207463 0.5
120 30 0.102188 0.303303 0.5
684 28 0.216466 0.28953 0.5
48 28 0.169981 0.267296 0.5
145 28 0.262488 0.276144 0.5
868 34 0.19055 0.287738 0.5
731 32 0.191793 0.361207 0.5
881 29 0.191046 0.314965 0.5
299 28 0.29803 0.275447 0.5
466 36 0.35939 0.327563 0.5
795 33 0.31499 0.295869 0.5
148 32 0.366217 0.298986 0.5
917 34 0.422947 0.33569 0.5
202 34 0.376635 0.4352 0.5
787 29 0.466111 0.36818 0.5
468 29 0.398923 0.292387 0.5
543 32 0.439548 0.363776 0.5
703 30 0.484833 0.317978 0.5
593 28 0.559811 0.211887 0.5
28 29 0.567221 0.30424 0.5
270 31 0.660972 0.261348 0.5
930 28 0.642778 0.30567 0.5
576 32 0.627092 0.330687 0.5
749 29 0.668528 0.299934 0.5
986 30 0.718593 0.374814 0.5
748 33 0.747089 0.405687 0.5
421 32 0.668357 0.328599 0.5
975 29 0.757997 0.377088 0.5
712 30 0.699578 0.317345 0.5
424 27 0.84225 0.342158 0.5
611 33 0.799991 0.25801 0.5
7 32 0.84024 0.31239 0.5
848 30 0.863712 0.356118 0.5
232 29 0.929722 0.338529 0.5
813 30 0.907979 0.287636 0.5
849 33 0.941039 0.272831 0.5
753 31 0.905107 0.338527 0.5
511 34 0.0130801 0.274173 0.5
207 31 0.0195858 0.342884 0.5
249 32 0.997472 0.354292 0.5
498 30 0.0333038 0.365222 0.5
770 35 0.0294276 0.395888 0.5
67 30 0.107141 0.3821 0.5
86 30 0.0848884 0.371154 0.5
343 32 0.0884012 0.398139 0.5
704 32 0.129773 0.321032 0.5
367 29 0.108115 0.275117 0.5
882 33 0.158706 0.301506 0.5
904 32 0.250933 0.335281 0.5
646 29 0.254733 0.37293 0.5
613 29 0.242585 0.298095 0.5
500 35 0.287248 0.338799 0.5
449 28 0.198686 0.338419 0.5
563 33 0.335258 0.392094 0.5
896 30 0.300923 0.318199 0.5
240 30 0.391204 0.331776 0.5
280 34 0.378308 0.381651 0.5
699 27 0.461097 0.328536 0.5
801 28 0.404118 0.382607 0.5
493 28 0.539309 0.327904 0.5
502 28 0.454881 0.438457 0.5
133 31 0.4397 0.460791 0.5
267 29 0.549754 0.276604 0.5
771 28 0.571539 0.342072 0.5
135 30 0.571144 0.265101 0.5
661 30 0.513455 0.324621 0.5
936 28 0.602274 0.32702 0.5
886 29 0.625211 0.277923 0.5
740 32 0.551099 0.248469 0.5
389 34 0.588181 0.290535 0.5
708 28 0.697805 0.397242 0.5
338 30 0.720755 0.347661 0.5
411 31 0.73043 0.466711 0.5
292 29 0.778467 0.337889 0.5
506 33 0.735541 0.326075 0.5
510 33 0.85858 0.404889 0.5
326 36 0.805884 0.352552 0.5
579 29 0.893743 0.391772 0.5
870 30 0.880221 0.335071 0.5
857 35 0.958053 0.396779 0.5
869 31 0.971698 0.361071 0.5
456 31 0.958077 0.255214 0.5
781 30 0.960254 0.287543 0.5
988 25 0.0306206 0.42212 0.5
726 30 0.980831 0.420244 0.5
816 31 0.0986531 0.463027 0.5
879 32 0.0262445 0.458205 0.5
302 28 0.0630436 0.435087 0.5
548 33 0.155796 0.355562 0.5
528 32 0.158472 0.385081 0.5
685 30 0.169645 0.332903 0.5
918 35 0.129283 0.406669 0.5
72 28 0.132439 0.289266 0.5
660 29 0.216778 0.374643 0.5
275 31 0.207481 0.417058 0.5
92 29 0.311182 0.378468 0.5
18 36 0.331703 0.32943 0.5
37 30 0.410458 0.357465 0.5
437 31 0.350042 0.365421 0.5
173 30 0.338598 0.423767 0.5
185 33 0.415967 0.414497 0.5
571 36 0.415786 0.472204 0.5
164 32 0.499936 0.370971 0.5
941 30 0.524282 0.357075 0.5
387 30 0.592173 0.399006 0.5
564 29 0.614414 0.378135 0.5
450 27 0.481593 0.346577 0.5
821 28 0.590966 0.357315 0.5
987 32 0.590541 0.432266 0.5
486 34 0.646102 0.383122 0.5
436 31 0.759743 0.434232 0.5
863 29 0.69144 0.352398 0.5
238 28 0.784353 0.389141 0.5
845 29 0.810153 0.326562 0.5
258 34 0.805284 0.416842 0.5
956 32 0.779894 0.415042 0.5
505 32 0.847595 0.428269 0.5
584 28 0.892178 0.467032 0.5
892 27 0.892729 0.423848 0.5
687 32 0.93973 0.504472 0.5
73 31 0.95632 0.427616 0.5
890 32 0.962038 0.476864 0.5
717 30 0.00467483 0.408172 0.5
569 32 0.0323205 0.488343 0.5
935 28 0.124582 0.505342 0.5
27 32 0.0517152 0.456264 0.5
113 33 0.075404 0.502763 0.5
776 31 0.119326 0.528129 0.5
211 25 0.0936258 0.431941 0.5
427 31 0.133319 0.374568 0.5
423 32 0.196302 0.392671 0.5
728 32 0.187161 0.441688 0.5
129 33 0.153691 0.415411 0.5
514 28 0.155055 0.461155 0.5
121 31 0.123978 0.438433 0.5
243 32 0.240702 0.417061 0.5
722 32 0.300044 0.42746 0.5
112 28 0.278617 0.418255 0.5
944 30 0.358468 0.401431 0.5
154 29 0.275462 0.4587 0.5
788 32 0.380199 0.497199 0.5
874 34 0.46877 0.407472 0.5
347 37 0.409341 0.440415 0.5
445 33 0.531194 0.462912 0.5
915 29 0.566497 0.364178 0.5
674 29 0.646779 0.410832 0.5
675 29 0.537837 0.416174 0.5
841 31 0.621757 0.411328 0.5
22 32 0.69918 0.424299 0.5
116 27 0.739894 0.490459 0.5
665 35 0.633914 0.359687 0.5
512 31 0.81773 0.452937 0.5
711 32 0.767537 0.468819 0.5
385 31 0.678403 0.505549 0.5
317 33 0.771751 0.494329 0.5
530 30 0.827623 0.373547 0.5
612 29 0.937366 0.410764 0.5
559 32 0.91961 0.458636 0.5
388 28 0.871105 0.440373 0.5
846 32 0.914663 0.431805 0.5
732 29 0.840097 0.490001 0.5
223 25 0.0242248 0.515492 0.5
837 32 0.991552 0.378941 0.5
203 35 0.985243 0.535813 0.5
832 35 0.988811 0.47158 0.5
758 27 0.141818 0.534157 0.5
649 33 0.0507846 0.509834 0.5
686 30 0.0910185 0.577811 0.5
866 30 0.142905 0.486828 0.5
985 28 0.14021 0.558549 0.5
36 33 0.173915 0.488943 0.5
1000 33 0.122397 0.47008 0.5
495 32 0.192417 0.468325 0.5
477 31 0.220491 0.472916 0.5
377 29 0.271562 0.48395 0.5
348 29 0.208792 0.495345 0.5
286 31 0.262787 0.435186 0.5
54 30 0.300294 0.475579 0.5
20 32 0.353377 0.459147 0.5
372 29 0.415723 0.534543 0.5
796 29 0.435162 0.516257 0.5
169 26 0.377803 0.474068 0.5
78 26 0.511435 0.442051 0.5
926 32 0.56705 0.417371 0.5
471 28 0.484771 0.430023 0.5
399 32 0.504289 0.481324 0.5
658 33 0.567933 0.495438 0.5
470 30 0.526331 0.509522 0.5
360 24 0.549064 0.442409 0.5
671 28 0.558124 0.529528 0.5
105 31 0.678481 0.456368 0.5
96 30 0.649919 0.453834 0.5
309 32 0.727137 0.432071 0.5
980 29 0.635192 0.473424 0.5
673 29 0.750236 0.511692 0.5
305 30 0.792461 0.442998 0.5
307 31 0.806373 0.541966 0.5
752 28 0.800471 0.508669 0.5
484 32 0.725248 0.524904 0.5
662 31 0.844642 0.46125 0.5
239 33 0.809123 0.389033 0.5
718 26 0.935556 0.477561 0.5
838 27 0.903233 0.48819 0.5
921 33 0.867787 0.475145 0.5
110 30 0.0648904 0.476742 0.5
628 31 0.00182857 0.498478 0.5
590 28 0.0968247 0.486969 0.5
420 32 0.0108897 0.603209 0.5
196 31 0.0582976 0.564891 0.5
158 33 0.0730931 0.540812 0.5
381 31 0.164379 0.51598 0.5
734 31 0.153258 0.59844 0.5
474 29 0.243397 0.550496 0.5
179 31 0.188091 0.527959 0.5
814 31 0.228489 0.522821 0.5
201 32 0.246367 0.496034 0.5
119 30 0.278723 0.364592 0.5
46 32 0.245138 0.466801 0.5
496 30 0.25141 0.521993 0.5
887 31 0.221035 0.4417 0.5
829 28 0.314338 0.45362 0.5
397 31 0.346251 0.534542 0.5
446 29 0.390324 0.613942 0.5
509 29 0.393693 0.588496 0.5
994 29 0.344725 0.490578 0.5
304 29 0.423442 0.563728 0.5
371 30 0.395094 0.546866 0.5
231 31 0.360911 0.563968 0.5
937 31 0.460152 0.479496 0.5
100 32 0.470193 0.508417 0.5
669 35 0.482293 0.457164 0.5
4 31 0.499322 0.543293 0.5
281 28 0.525271 0.548359 0.5
692 29 0.554733 0.590439 0.5
872 34 0.599373 0.499644 0.5
639 26 0.704837 0.455472 0.5
438 29 0.654673 0.55209 0.5
614 30 0.649901 0.505559 0.5
461 31 0.617651 0.445828 0.5
843 32 0.75215 0.540272 0.5
53 33 0.694725 0.478528 0.5
428 29 0.703598 0.515734 0.5
413 28 0.888255 0.619199 0.5
69 33 0.82765 0.586462 0.5
859 35 0.88413 0.507986 0.5
59 27 0.829432 0.555271 0.5
835 32 0.887407 0.539063 0.5
352 29 0.977441 0.448442 0.5
418 32 0.0423462 0.539196 0.5
497 31 0.94839 0.546069 0.5
924 28 0.0524731 0.590307 0.5
139 30 0.0328935 0.578047 0.5
860 30 0.111298 0.558624 0.5
974 28 0.0772637 0.60205 0.5
227 31 0.172181 0.582649 0.5
219 29 0.166133 0.549786 0.5
710 33 0.25536 0.615428 0.5
607 34 0.196821 0.561733 0.5
401 28 0.256434 0.577234 0.5
664 31 0.299411 0.561105 0.5
761 30 0.253248 0.653079 0.5
32 26 0.284441 0.538528 0.5
855 31 0.372876 0.521862 0.5
89 30 0.307536 0.527292 0.5
883 33 0.28373 0.515676 0.5
677 34 0.305121 0.500953 0.5
191 33 0.475627 0.582138 0.5
341 28 0.418236 0.499313 0.5
279 31 0.532532 0.574407 0.5
840 28 0.581599 0.544973 0.5
80 30 0.539712 0.646966 0.5
31 27 0.665262 0.525398 0.5
895 30 0.495 0.511349 0.5
404 31 0.612258 0.525361 0.5
88 35 0.665382 0.605186 0.5
229 31 0.609303 0.475715 0.5
284 33 0.657968 0.577769 0.5
755 28 0.695707 0.600105 0.5
310 32 0.684407 0.560256 0.5
595 33 0.78556 0.566328 0.5
234 32 0.757253 0.565749 0.5
208 31 0.835829 0.608909 0.5
431 31 0.866054 0.596223 0.5
746 28 0.805953 0.615763 0.5
993 30 0.822666 0.524673 0.5
976 27 0.902963 0.556775 0.5
759 33 0.932213 0.622848 0.5
492 35 0.0079682 0.576719 0.5
327 31 0.847668 0.517164 0.5
454 31 0.91657 0.531388 0.5
51 31 0.0119897 0.53817 0.5
513 29 0.961023 0.579031 0.5
825 33 0.000327225 0.66793 0.5
578 30 0.0250803 0.654428 0.5
960 35 0.0939065 0.621728 0.5
195 33 0.0698176 0.655918 0.5
25 32 0.208358 0.638705 0.5
654 28 0.183753 0.623296 0.5
742 31 0.169212 0.645508 0.5
729 27 0.197904 0.693005 0.5
995 28 0.205004 0.592254 0.5
619 31 0.340592 0.589788 0.5
294 30 0.311876 0.602488 0.5
447 33 0.333104 0.562314 0.5
769 30 0.334002 0.658716 0.5
332 29 0.368252 0.591031 0.5
252 33 0.404239 0.650744 0.5
555 30 0.449417 0.562272 0.5
441 30 0.571344 0.643653 0.5
111 30 0.435153 0.591548 0.5
693 30 0.559167 0.564628 0.5
137 32 0.554756 0.622816 0.5
567 30 0.475407 0.533978 0.5
393 34 0.615046 0.556545 0.5
178 27 0.625388 0.503556 0.5
426 27 0.635705 0.693668 0.5
124 29 0.616658 0.603294 0.5
313 32 0.640856 0.595816 0.5
205 29 0.68445 0.648148 0.5
170 32 0.706054 0.544113 0.5
10 30 0.763717 0.590395 0.5
811 29 0.790282 0.594252 0.5
585 31 0.824497 0.632428 0.5
123 25 0.768527 0.613808 0.5
49 29 0.817655 0.707506 0.5
683 32 0.782474 0.634383 0.5
982 31 0.868437 0.656818 0.5
296 30 0.84968 0.54165 0.5
540 32 0.979704 0.596363 0.5
277 29 0.910872 0.588534 0.5
839 29 0.121689 0.597066 0.5
194 31 0.990787 0.696243 0.5
19 29 0.0141394 0.630913 0.5
602 28 0.139383 0.693444 0.5
221 27 0.0584495 0.713705 0.5
666 31 0.144011 0.621343 0.5
626 33 0.0691378 0.73937 0.5
216 36 0.130567 0.6462 0.5
165 27 0.226823 0.706191 0.5
762 31 0.149443 0.664956 0.5
183 29 0.235127 0.636658 0.5
494 27 0.237473 0.681733 0.5
853 25 0.276047 0.653576 0.5
403 28 0.291417 0.628056 0.5
928 32 0.313459 0.686135 0.5
79 34 0.344431 0.616052 0.5
217 31 0.415307 0.620618 0.5
538 32 0.419521 0.705745 0.5
727 33 0.385914 0.668856 0.5
391 28 0.435993 0.649956 0.5
475 28 0.368179 0.631325 0.5
483 29 0.443698 0.625829 0.5
750 31 0.530838 0.603112 0.5
199 33 0.497872 0.664077 0.5
459 33 0.584709 0.573829 0.5
518 30 0.500531 0.569501 0.5
174 31 0.624359 0.716084 0.5
181 31 0.589346 0.609974 0.5
865 26 0.673203 0.693108 0.5
273 29 0.722237 0.676624 0.5
235 33 0.722444 0.602104 0.5
354 32 0.622853 0.639569 0.5
172 26 0.711259 0.644718 0.5
948 33 0.699173 0.623504 0.5
186 31 0.71825 0.566959 0.5
942 28 0.744866 0.663069 0.5
978 27 0.849706 0.680543 0.5
861 33 0.925201 0.650039 0.5
779 34 0.892851 0.646122 0.5
349 35 0.936424 0.58932 0.5
706 31 0.948469 0.666477 0.5
390 31 0.954955 0.611835 0.5
189 22 0.921771 0.675015 0.5
856 29 0.929286 0.563726 0.5
331 29 0.0927318 0.666711 0.5
38 30 0.0460482 0.683645 0.5
215 29 0.0202181 0.685599 0.5
408 29 0.041759 0.632603 0.5
720 29 0.113327 0.694623 0.5
905 30 0.102413 0.644713 0.5
743 31 0.0989779 0.749968 0.5
82 32 0.218565 0.732146 0.5
17 29 0.202685 0.663476 0.5
757 34 0.166772 0.703982 0.5
75 26 0.179437 0.676504 0.5
582 30 0.272234 0.703161 0.5
820 30 0.310048 0.642063 0.5
891 32 0.291906 0.765797 0.5
102 27 0.29608 0.715863 0.5
934 28 0.398494 0.689713 0.5
695 26 0.36034 0.655015 0.5
62 29 0.376074 0.694144 0.5
527 29 0.468645 0.651966 0.5
265 36 0.468251 0.610102 0.5
409 30 0.610907 0.682139 0.5
70 29 0.493681 0.718303 0.5
884 33 0.506478 0.62827 0.5
867 33 0.593499 0.739124 0.5
735 29 0.646419 0.728413 0.5
932 29 0.622793 0.74091 0.5
218 27 0.664389 0.633708 0.5
599 32 0.594777 0.658335 0.5
833 31 0.676829 0.730055 0.5
775 32 0.699581 0.691428 0.5
344 26 0.743426 0.615096 0.5
66 31 0.783627 0.694152 0.5
701 34 0.752535 0.637649 0.5
631 30 0.747353 0.760447 0.5
668 27 0.791897 0.740959 0.5
56 29 0.753528 0.686624 0.5
93 36 0.830006 0.657544 0.5
606 32 0.76857 0.663645 0.5
58 29 0.891433 0.693595 0.5
850 27 0.952399 0.637041 0.5
467 31 0.93797 0.740505 0.5
605 28 0.975161 0.652189 0.5
566 31 0.987911 0.63103 0.5
953 30 0.967985 0.730079 0.5
242 33 0.0428697 0.73885 0.5
263 30 0.00604288 0.737763 0.5
950 31 0.0315317 0.713652 0.5
330 29 0.0808805 0.794737 0.5
204 32 0.146283 0.738974 0.5
643 29 0.187937 0.725437 0.5
147 30 0.220391 0.756139 0.5
364 31 0.205921 0.778064 0.5
713 33 0.25706 0.729799 0.5
827 35 0.289557 0.673557 0.5
107 30 0.263997 0.67557 0.5
288 33 0.305934 0.789087 0.5
681 27 0.266543 0.786337 0.5
504 34 0.313598 0.731576 0.5
679 36 0.468733 0.717481 0.5
405 30 0.441328 0.717349 0.5
383 33 0.530638 0.674948 0.5
539 31 0.478638 0.692921 0.5
657 28 0.394986 0.758203 0.5
293 33 0.495418 0.796315 0.5
858 32 0.557808 0.690774 0.5
810 31 0.566847 0.732071 0.5
117 31 0.64493 0.763294 0.5
237 32 0.718978 0.76296 0.5
793 30 0.728666 0.701202 0.5
282 29 0.729819 0.730495 0.5
106 26 0.808574 0.765953 0.5
862 28 0.750926 0.722369 0.5
818 28 0.783622 0.801535 0.5
314 31 0.847154 0.801759 0.5
961 30 0.861458 0.706506 0.5
804 30 0.758853 0.788797 0.5
550 28 0.875539 0.733352 0.5
114 28 0.90162 0.737103 0.5
751 28 0.959238 0.698909 0.5
854 29 0.930362 0.696328 0.5
128 31 0.970804 0.754354 0.5
690 29 0.00659266 0.71456 0.5
324 34 0.0236697 0.806588 0.5
919 27 0.0304656 0.766069 0.5
94 28 0.0754066 0.834361 0.5
970 27 0.0820807 0.766367 0.5
697 33 0.126743 0.768434 0.5
529 29 0.122548 0.731517 0.5
556 30 0.101599 0.719287 0.5
573 30 0.167833 0.816161 0.5
608 30 0.238958 0.872374 0.5
531 29 0.178559 0.751667 0.5
826 30 0.215832 0.823404 0.5
9 29 0.331217 0.759703 0.5
754 31 0.243905 0.760884 0.5
303 30 0.35623 0.718923 0.5
903 31 0.326698 0.70865 0.5
638 38 0.449381 0.752126 0.5
627 32 0.389801 0.729142 0.5
723 30 0.486285 0.74527 0.5
315 29 0.504285 0.694319 0.5
714 30 0.597975 0.713717 0.5
322 27 0.559954 0.910293 0.5
419 32 0.523591 0.72132 0.5
707 37 0.566298 0.789006 0.5
247 27 0.703353 0.727019 0.5
489 26 0.69055 0.751776 0.5
23 29 0.621878 0.786202 0.5
481 30 0.673565 0.67076 0.5
549 30 0.670904 0.76901 0.5
698 26 0.707088 0.80496 0.5
193 29 0.681358 0.799485 0.5
738 31 0.781962 0.767312 0.5
458 33 0.783713 0.825027 0.5
285 30 0.82149 0.792581 0.5
443 29 0.80765 0.673871 0.5
283 33 0.847614 0.727088 0.5
777 29 0.940555 0.771815 0.5
644 30 0.944965 0.830179 0.5
33 30 0.985829 0.780349 0.5
922 33 0.0451544 0.884645 0.5
384 36 0.189037 0.839653 0.5
136 34 0.0620604 0.81135 0.5
350 24 0.154586 0.76695 0.5
969 30 0.210102 0.877815 0.5
85 27 0.192583 0.812815 0.5
425 31 0.180923 0.781518 0.5
583 28 0.218163 0.852815 0.5
568 31 0.232043 0.789414 0.5
541 32 0.281615 0.822342 0.5
153 34 0.256758 0.83141 0.5
26 35 0.389924 0.789599 0.5
620 29 0.323272 0.875193 0.5
635 27 0.424993 0.785025 0.5
146 28 0.366126 0.770547 0.5
103 31 0.404782 0.868491 0.5
487 30 0.453813 0.784391 0.5
159 32 0.555727 0.812829 0.5
47 31 0.511477 0.756448 0.5
190 35 0.570702 0.864129 0.5
534 32 0.591539 0.778196 0.5
378 31 0.61418 0.827784 0.5
485 32 0.591842 0.848811 0.5
476 26 0.656854 0.844571 0.5
182 31 0.703049 0.889754 0.5
52 34 0.647105 0.792955 0.5
260 29 0.725843 0.840469 0.5
951 30 0.730792 0.784422 0.5
212 28 0.773512 0.856464 0.5
435 27 0.781323 0.891638 0.5
524 32 0.809401 0.857645 0.5
682 33 0.860877 0.776566 0.5
920 30 0.861489 0.851206 0.5
271 30 0.858891 0.751617 0.5
370 33 0.892151 0.789048 0.5
64 31 0.866071 0.820084 0.5
733 34 0.886201 0.760733 0.5
557 34 0.911804 0.765111 0.5
822 32 0.919185 0.803695 0.5
508 29 0.0611721 0.780873 0.5
97 27 0.135518 0.802757 0.5
478 30 0.0163942 0.838452 0.5
907 29 0.00414049 0.763166 0.5
594 32 0.0170221 0.9004 0.5
155 30 0.139789 0.837877 0.5
790 31 0.163454 0.844448 0.5
21 31 0.0962013 0.818066 0.5
151 34 0.138087 0.86589 0.5
709 30 0.0834157 0.889253 0.5
392 30 0.111045 0.86522 0.5
125 30 0.264657 0.857901 0.5
546 31 0.246701 0.89792 0.5
298 34 0.312804 0.838812 0.5
815 30 0.257482 0.978095 0.5
262 31 0.286799 0.870268 0.5
382 34 0.329158 0.802316 0.5
600 33 0.341549 0.848041 0.5
407 28 0.45898 0.849148 0.5
464 30 0.395113 0.835474 0.5
311 29 0.411653 0.809711 0.5
398 34 0.530685 0.844475 0.5
312 34 0.435003 0.864543 0.5
1 28 0.512082 0.863333 0.5
351 31 0.516135 0.781502 0.5
823 29 0.540343 0.77453 0.5
609 30 0.583437 0.814011 0.5
680 30 0.609352 0.90563 0.5
482 30 0.559524 0.757473 0.5
596 29 0.635267 0.858874 0.5
927 31 0.633142 0.930489 0.5
521 31 0.643822 0.823109 0.5
358 29 0.686386 0.820821 0.5
916 28 0.753774 0.81289 0.5
321 31 0.772079 0.935246 0.5
973 26 0.741481 0.879753 0.5
785 32 0.857008 0.883203 0.5
99 28 0.903419 0.925723 0.5
597 28 0.834413 0.850616 0.5
141 31 0.931082 0.913214 0.5
433 28 0.928532 0.854844 0.5
329 32 0.990778 0.809805 0.5
943 37 0.0477312 0.85259 0.5
617 32 0.982251 0.867417 0.5
224 30 0.992468 0.841564 0.5
429 29 0.154816 0.790383 0.5
316 34 0.0115593 0.865815 0.5
40 34 0.0928002 0.986304 0.5
290 31 0.128278 0.899873 0.5
565 29 0.179672 0.88518 0.5
959 29 0.35812 0.934122 0.5
581 27 0.227868 0.918907 0.5
913 30 0.270515 0.942054 0.5
971 26 0.258126 0.918205 0.5
472 29 0.354975 0.798263 0.5
655 30 0.346713 0.879235 0.5
558 31 0.300307 0.91069 0.5
963 29 0.36854 0.836772 0.5
984 31 0.425746 0.899575 0.5
765 27 0.421431 0.840041 0.5
175 36 0.373163 0.862633 0.5
648 28 0.489674 0.855858 0.5
730 31 0.542864 0.876776 0.5
176 31 0.520529 0.910965 0.5
39 29 0.519565 0.970084 0.5
526 30 0.573592 0.890829 0.5
266 33 0.63899 0.90551 0.5
41 31 0.636103 0.997797 0.5
244 30 0.60401 0.971698 0.5
361 32 0.678207 0.91442 0.5
737 32 0.703641 0.917619 0.5
782 29 0.73852 0.911499 0.5
140 30 0.681787 0.852949 0.5
297 30 0.75289 0.963645 0.5
575 31 0.718562 0.870164 0.5
130 29 0.750198 0.85061 0.5
213 31 0.884628 0.893119 0.5
160 30 0.909819 0.899543 0.5
798 32 0.878405 0.917936 0.5
2 30 0.963228 0.9859 0.5
220 30 0.953935 0.953465 0.5
561 31 0.930332 0.940036 0.5
264 31 0.88122 0.866334 0.5
888 29 0.968685 0.836539 0.5
592 28 0.935389 0.884079 0.5
965 30 0.89676 0.822368 0.5
257 32 0.959098 0.878161 0.5
736 28 0.957111 0.916535 0.5
308 28 0.974289 0.901952 0.5
71 32 0.0746173 0.914594 0.5
469 33 0.118653 0.964395 0.5
778 28 0.100113 0.907305 0.5
333 30 0.0753332 0.941139 0.5
373 33 0.0397974 0.941132 0.5
251 31 0.101965 0.935236 0.5
168 33 0.160919 0.00230883 0.5
830 30 0.153231 0.913775 0.5
897 31 0.203914 0.906927 0.5
515 30 0.2221 0.943379 0.5
12 32 0.274239 0.893609 0.5
379 29 0.297654 0.973534 0.5
864 28 0.373788 0.951633 0.5
167 29 0.303963 0.944389 0.5
899 27 0.331033 0.931079 0.5
650 30 0.353007 0.903192 0.5
44 32 0.38925 0.971881 0.5
642 31 0.40153 0.908704 0.5
150 34 0.475894 0.915697 0.5
83 31 0.459421 0.87921 0.5
268 37 0.455576 0.937364 0.5
16 31 0.489668 0.892264 0.5
365 29 0.494246 0.933355 0.5
35 34 0.519306 0.941191 0.5
463 29 0.472718 0.957381 0.5
346 30 0.468576 0.8263 0.5
272 33 0.549506 0.969758 0.5
898 29 0.54277 0.937381 0.5
319 30 0.650526 0.880192 0.5
104 28 0.575671 0.938213 0.5
226 31 0.57759 0.963794 0.5
430 32 0.601396 0.934895 0.5
536 29 0.786866 0.916225 0.5
65 31 0.677559 0.888089 0.5
618 33 0.766629 0.004621 0.5
705 30 0.783711 0.968647 0.5
725 34 0.812971 0.914224 0.5
488 28 0.828053 0.883719 0.5
55 29 0.84179 0.907488 0.5
325 31 0.93424 0.969855 0.5
255 30 0.904869 0.954697 0.5
15 32 0.0169259 0.952025 0.5
911 30 0.981652 0.933686 0.5
570 32 0.0492247 0.908867 0.5
623 33 0.0170693 0.925318 0.5
542 31 0.0473527 0.969236 0.5
806 29 0.0951101 0.958485 0.5
702 29 0.0784498 0.00828913 0.5
520 31 0.1227 0.992543 0.5
501 32 0.153159 0.968678 0.5
162 31 0.110773 0.0157782 0.5
909 29 0.173766 0.937154 0.5
101 29 0.129883 0.927987 0.5
87 29 0.24701 0.953443 0.5
991 31 0.209343 0.967835 0.5
490 31 0.342234 0.953963 0.5
789 29 0.281901 0.998832 0.5
444 32 0.353369 0.0483866 0.5
901 33 0.319273 0.0690982 0.5
652 35 0.429568 0.942356 0.5
118 28 0.413363 0.962912 0.5
132 31 0.44999 0.987867 0.5
455 31 0.509881 0.00630367 0.5
968 34 0.536425 1.00232 0.5
24 30 0.610236 0.875801 0.5
61 31 0.607413 0.00766947 0.5
756 29 0.653447 0.943896 0.5
598 32 0.661479 0.0129932 0.5
766 30 0.692691 0.950312 0.5
998 31 0.589904 0.0297121 0.5
276 32 0.763495 0.90719 0.5
156 28 0.806112 0.982044 0.5
416 32 0.804762 0.940708 0.5
29 30 0.74645 0.988637 0.5
588 29 0.832757 0.963405 0.5
412 30 0.840752 0.935896 0.5
157 31 0.838488 0.988092 0.5
902 30 0.889623 0.986745 0.5
386 33 0.922679 0.996717 0.5
739 36 0.870991 0.946989 0.5
91 28 0.945615 0.00694071 0.5
624 27 0.990333 0.982712 0.5
900 28 0.0349654 0.00277091 0.5
523 26 0.978459 0.956691 0.5
