ITEM: TIMESTEP
1250000
ITEM: NUMBER OF ATOMS
1000
ITEM: BOX BOUNDS pp pp pp
-2.2526731999999999e+01 2.2526731999999999e+01
-2.2526731999999999e+01 2.2526731999999999e+01
-5.0000000000000000e-01 5.0000000000000000e-01
ITEM: ATOMS id type xs ys zs
34 31 0.0631672 0.0522776 0.5
9 29 0.066623 0.0173182 0.5
170 32 0.106078 0.0565193 0.5
956 32 0.187302 0.0334715 0.5
281 28 0.198244 0.08687 0.5
436 31 0.208041 0.0131432 0.5
68 31 0.222054 0.0595756 0.5
293 33 0.272226 0.0223506 0.5
2 30 0.302866 0.993194 0.5
846 32 0.275431 0.980611 0.5
370 33 0.321586 0.969188 0.5
679 36 0.342766 0.0433495 0.5
476 26 0.365543 0.0174066 0.5
112 28 0.415813 0.0223743 0.5
333 30 0.443993 0.0611279 0.5
187 32 0.481649 0.0779057 0.5
823 29 0.451695 0.0897903 0.5
940 29 0.509021 0.990783 0.5
323 30 0.489797 0.0363347 0.5
912 34 0.51298 0.0222102 0.5
61 31 0.539768 0.00644444 0.5
340 27 0.615858 0.0163503 0.5
667 29 0.570878 0.00646063 0.5
586 36 0.613175 0.0526348 0.5
410 35 0.662098 0.0633881 0.5
687 32 0.669538 0.0916468 0.5
755 28 0.693173 0.0473671 0.5
745 32 0.776249 0.0329157 0.5
144 32 0.671072 0.935922 0.5
31 27 0.759095 0.0621937 0.5
389 34 0.809069 0.995122 0.5
193 29 0.795334 0.936986 0.5
376 35 0.845037 0.0681543 0.5
295 32 0.780669 0.992029 0.5
673 29 0.82223 0.96361 0.5
704 32 0.871284 0.0501196 0.5
163 28 0.875623 0.0193331 0.5
949 32 0.914584 0.0159796 0.5
923 32 0.994713 0.069217 0.5
676 31 0.978853 0.0880197 0.5
461 31 0.0232637 0.129414 0.5
843 32 0.147948 0.037353 0.5
183 29 0.0834073 0.0834585 0.5
751 28 0.160766 0.0869207 0.5
111 30 0.22813 0.0899432 0.5
230 31 0.254037 0.0679032 0.5
16 31 0.15907 0.143266 0.5
798 32 0.26627 0.0465055 0.5
237 32 0.222432 0.99403 0.5
108 32 0.276839 0.0929477 0.5
539 31 0.290783 0.0473981 0.5
628 31 0.315304 0.0494825 0.5
553 31 0.308836 0.133528 0.5
777 29 0.243688 0.112515 0.5
686 30 0.334053 0.149015 0.5
322 27 0.404437 0.0695229 0.5
541 32 0.360232 0.101677 0.5
702 29 0.352348 0.0748306 0.5
653 28 0.37698 0.0712667 0.5
574 27 0.482321 0.0034007 0.5
104 28 0.513113 0.0693296 0.5
794 31 0.555472 0.106138 0.5
254 32 0.575462 0.0514101 0.5
678 30 0.55822 0.0294817 0.5
472 29 0.59666 0.0744494 0.5
937 31 0.564933 0.130004 0.5
524 32 0.673006 0.12165 0.5
482 30 0.641174 0.0840526 0.5
300 33 0.692817 0.0741487 0.5
449 28 0.74437 0.0867634 0.5
60 29 0.784579 0.966755 0.5
597 28 0.728197 0.020063 0.5
594 32 0.738832 0.993748 0.5
666 31 0.799167 0.0479455 0.5
618 33 0.838097 0.0429331 0.5
338 30 0.927184 0.0506713 0.5
947 32 0.784636 0.0812261 0.5
309 32 0.92751 0.0828036 0.5
951 30 0.969639 0.050716 0.5
527 29 0.961151 0.998711 0.5
522 33 0.0194313 0.0727793 0.5
334 32 0.00386531 0.0984158 0.5
953 30 0.0521312 0.0922512 0.5
168 33 0.0445781 0.0698265 0.5
419 32 0.142758 0.113933 0.5
494 27 0.0286262 0.0991027 0.5
227 31 0.206008 0.109075 0.5
430 32 0.188292 0.160884 0.5
390 31 0.175647 0.118481 0.5
914 28 0.143709 0.161455 0.5
344 26 0.313391 0.0930904 0.5
791 29 0.203709 0.138154 0.5
652 35 0.239211 0.175336 0.5
815 30 0.242183 0.148505 0.5
723 30 0.360406 0.162914 0.5
660 29 0.43176 0.125328 0.5
366 30 0.390709 0.0989329 0.5
265 36 0.503203 0.0957287 0.5
343 32 0.536597 0.0425858 0.5
980 29 0.47332 0.10815 0.5
304 29 0.476315 0.141159 0.5
648 28 0.581626 0.10568 0.5
754 31 0.533003 0.131469 0.5
901 33 0.592534 0.137032 0.5
252 33 0.637726 0.141396 0.5
266 33 0.60945 0.110608 0.5
14 30 0.767134 0.156505 0.5
493 28 0.767772 0.100772 0.5
491 30 0.720098 0.119758 0.5
718 26 0.863439 0.123684 0.5
463 29 0.901062 0.0460678 0.5
153 34 0.791217 0.130666 0.5
717 30 0.814889 0.0279979 0.5
274 29 0.887791 0.122027 0.5
773 26 0.825606 0.161565 0.5
498 30 0.876257 0.0741905 0.5
506 33 0.89046 0.0966796 0.5
208 31 0.940081 0.0194477 0.5
26 35 0.985846 0.131255 0.5
95 31 0.929966 0.11456 0.5
820 30 0.958655 0.102321 0.5
725 34 0.14138 0.062092 0.5
204 32 0.1122 0.0926909 0.5
689 30 0.950404 0.128154 0.5
268 37 0.0770846 0.10916 0.5
147 30 0.0983011 0.16007 0.5
837 32 0.124979 0.146222 0.5
137 32 0.167102 0.179461 0.5
313 32 0.100117 0.203794 0.5
525 28 0.215395 0.164037 0.5
442 33 0.202154 0.198274 0.5
502 28 0.249217 0.208685 0.5
96 30 0.307787 0.177153 0.5
542 31 0.277846 0.147917 0.5
952 32 0.337663 0.118753 0.5
571 36 0.395474 0.171683 0.5
685 30 0.4186 0.0958018 0.5
834 31 0.406493 0.118339 0.5
200 32 0.49497 0.125152 0.5
939 34 0.45401 0.157311 0.5
273 29 0.555287 0.0781719 0.5
462 30 0.527182 0.106 0.5
416 32 0.540483 0.156482 0.5
450 27 0.640191 0.169221 0.5
404 31 0.583423 0.184014 0.5
229 31 0.650348 0.109573 0.5
548 33 0.699677 0.100774 0.5
346 30 0.747096 0.0382219 0.5
674 29 0.742554 0.147724 0.5
251 31 0.777099 0.178969 0.5
391 28 0.812058 0.111172 0.5
519 27 0.742989 0.11166 0.5
90 35 0.858859 0.0956947 0.5
101 29 0.870823 0.19755 0.5
51 31 0.813901 0.0840049 0.5
642 31 0.852453 0.178605 0.5
115 27 0.903469 0.183827 0.5
136 34 0.888035 0.164617 0.5
744 32 0.965367 0.153961 0.5
142 31 0.942741 0.174885 0.5
838 27 0.991338 0.164048 0.5
757 34 0.92838 0.150942 0.5
684 28 0.00549055 0.198371 0.5
629 28 0.0706579 0.165563 0.5
994 29 0.0644026 0.136016 0.5
282 29 0.0577833 0.196002 0.5
383 33 0.0308537 0.195707 0.5
53 33 0.00934247 0.149506 0.5
567 30 0.0794085 0.222787 0.5
396 31 0.121543 0.172129 0.5
902 30 0.162268 0.204794 0.5
867 33 0.0979392 0.24429 0.5
239 33 0.137043 0.213586 0.5
77 26 0.268155 0.12463 0.5
700 28 0.22425 0.278023 0.5
839 29 0.305295 0.214531 0.5
23 29 0.279525 0.216965 0.5
905 30 0.328873 0.210123 0.5
899 27 0.379548 0.142274 0.5
526 30 0.416858 0.206108 0.5
909 29 0.429208 0.181602 0.5
716 30 0.464984 0.208561 0.5
538 32 0.490947 0.193871 0.5
573 30 0.515627 0.180054 0.5
188 31 0.51017 0.254494 0.5
280 34 0.467336 0.182007 0.5
598 32 0.671475 0.173302 0.5
434 28 0.56954 0.204168 0.5
927 31 0.622781 0.185857 0.5
707 37 0.60327 0.166407 0.5
870 30 0.67552 0.147255 0.5
746 28 0.718886 0.0566632 0.5
926 32 0.683934 0.19749 0.5
568 31 0.701068 0.149236 0.5
294 30 0.737672 0.239125 0.5
671 28 0.810722 0.145282 0.5
748 33 0.834365 0.207201 0.5
765 27 0.7973 0.243146 0.5
73 31 0.88889 0.215587 0.5
453 28 0.918976 0.208555 0.5
225 32 0.884228 0.246801 0.5
83 31 0.978263 0.184809 0.5
669 35 0.925039 0.236426 0.5
977 33 0.948024 0.21799 0.5
451 32 0.934343 0.261346 0.5
381 31 0.0488938 0.267219 0.5
283 33 0.103938 0.271538 0.5
796 29 0.0559618 0.29566 0.5
886 29 0.0667782 0.246119 0.5
827 35 0.140442 0.283714 0.5
768 31 0.162565 0.243397 0.5
896 30 0.2051 0.264127 0.5
13 31 0.216453 0.220389 0.5
859 35 0.259004 0.299017 0.5
245 26 0.254741 0.275709 0.5
874 34 0.298128 0.247561 0.5
819 30 0.237021 0.255011 0.5
22 32 0.28136 0.185797 0.5
915 29 0.27113 0.247934 0.5
1000 33 0.423741 0.151835 0.5
740 32 0.479848 0.259148 0.5
209 28 0.449341 0.239461 0.5
82 32 0.404361 0.235591 0.5
799 29 0.501951 0.147735 0.5
729 27 0.478427 0.231112 0.5
708 28 0.556881 0.30525 0.5
199 33 0.541194 0.210605 0.5
234 32 0.566571 0.230054 0.5
587 33 0.550015 0.187255 0.5
888 29 0.641793 0.231906 0.5
158 33 0.686088 0.235541 0.5
242 33 0.651495 0.193301 0.5
318 33 0.740847 0.178499 0.5
109 36 0.701968 0.215646 0.5
703 30 0.724714 0.262544 0.5
851 31 0.712579 0.184411 0.5
398 34 0.752527 0.203392 0.5
600 33 0.799711 0.269697 0.5
387 30 0.822481 0.289392 0.5
388 28 0.854099 0.155659 0.5
20 32 0.00520429 0.234996 0.5
715 27 0.0295884 0.251287 0.5
969 30 0.971083 0.243529 0.5
484 32 0.039881 0.221454 0.5
286 31 0.113625 0.328721 0.5
967 28 0.117954 0.295459 0.5
992 33 0.0801672 0.282726 0.5
356 28 0.198919 0.237881 0.5
134 32 0.165924 0.269857 0.5
946 30 0.233273 0.302114 0.5
290 31 0.19175 0.318519 0.5
303 30 0.209411 0.298446 0.5
38 30 0.207155 0.347239 0.5
289 27 0.330618 0.254314 0.5
518 30 0.359791 0.310153 0.5
70 29 0.24907 0.233647 0.5
113 33 0.345505 0.276532 0.5
906 34 0.341448 0.233051 0.5
931 30 0.424129 0.25303 0.5
803 31 0.499806 0.276937 0.5
357 33 0.587314 0.284393 0.5
620 29 0.507669 0.229122 0.5
467 31 0.545867 0.250485 0.5
955 29 0.592741 0.21648 0.5
919 27 0.588204 0.251341 0.5
3 32 0.610498 0.236322 0.5
88 35 0.584861 0.320712 0.5
397 31 0.657348 0.256335 0.5
579 29 0.621237 0.21241 0.5
315 29 0.686073 0.26333 0.5
496 30 0.626602 0.27879 0.5
627 32 0.751345 0.351025 0.5
762 31 0.727454 0.206607 0.5
362 31 0.750624 0.292669 0.5
822 32 0.766875 0.256691 0.5
423 32 0.785708 0.218198 0.5
581 27 0.866347 0.269502 0.5
165 27 0.853203 0.241032 0.5
763 32 0.920438 0.284023 0.5
828 30 0.986463 0.291618 0.5
27 32 0.0964491 0.309906 0.5
682 33 0.024156 0.284142 0.5
360 24 0.0531249 0.361446 0.5
932 29 0.141455 0.310575 0.5
428 29 0.0704351 0.34626 0.5
218 27 0.122556 0.237859 0.5
771 28 0.18117 0.290749 0.5
267 29 0.278294 0.329758 0.5
507 30 0.244904 0.336598 0.5
596 29 0.285154 0.272184 0.5
963 29 0.316 0.279352 0.5
930 28 0.299567 0.295555 0.5
987 32 0.335726 0.305028 0.5
852 32 0.308746 0.368588 0.5
656 26 0.387227 0.265298 0.5
184 29 0.310693 0.321305 0.5
735 29 0.37694 0.287512 0.5
812 29 0.423746 0.342061 0.5
998 31 0.429561 0.29357 0.5
503 34 0.492933 0.302391 0.5
10 30 0.448111 0.335871 0.5
327 31 0.46143 0.377655 0.5
831 30 0.443365 0.398034 0.5
873 31 0.556314 0.32944 0.5
651 28 0.535474 0.313333 0.5
787 29 0.523014 0.347483 0.5
605 28 0.573933 0.354244 0.5
644 30 0.608724 0.300167 0.5
191 33 0.634818 0.309298 0.5
610 30 0.693251 0.326025 0.5
324 34 0.664133 0.296342 0.5
97 27 0.727204 0.2979 0.5
238 28 0.712593 0.240037 0.5
776 31 0.735435 0.331181 0.5
841 31 0.760633 0.315302 0.5
921 33 0.786591 0.303627 0.5
445 33 0.777463 0.341343 0.5
668 27 0.815077 0.182714 0.5
18 36 0.829619 0.386365 0.5
41 31 0.828448 0.265587 0.5
731 32 0.939494 0.316893 0.5
881 29 0.940218 0.341964 0.5
33 30 0.0501784 0.325876 0.5
62 29 0.883377 0.29304 0.5
36 33 0.0211423 0.320566 0.5
24 30 0.0335769 0.347046 0.5
908 26 0.0723446 0.314613 0.5
161 29 0.139083 0.334536 0.5
75 26 0.166505 0.352556 0.5
125 30 0.117264 0.364515 0.5
85 27 0.212863 0.370983 0.5
713 33 0.167889 0.328401 0.5
386 33 0.134912 0.39118 0.5
192 33 0.141954 0.359185 0.5
749 29 0.251664 0.383806 0.5
148 32 0.215563 0.322216 0.5
284 33 0.266844 0.354129 0.5
298 34 0.242231 0.408812 0.5
408 29 0.319852 0.342293 0.5
361 32 0.280102 0.37877 0.5
933 30 0.346254 0.343794 0.5
550 28 0.367178 0.225222 0.5
176 31 0.342393 0.384787 0.5
868 34 0.427843 0.418864 0.5
319 30 0.404237 0.323466 0.5
52 34 0.359017 0.20026 0.5
126 31 0.401154 0.29375 0.5
157 31 0.511727 0.325053 0.5
829 28 0.395413 0.350042 0.5
750 31 0.485309 0.33313 0.5
8 28 0.602509 0.380873 0.5
222 32 0.608715 0.351288 0.5
74 33 0.512647 0.380138 0.5
510 33 0.646936 0.364144 0.5
588 29 0.642402 0.334079 0.5
792 31 0.72653 0.354536 0.5
580 29 0.735233 0.395712 0.5
67 30 0.702431 0.361165 0.5
179 31 0.802928 0.357243 0.5
117 31 0.700931 0.287765 0.5
533 33 0.878242 0.321061 0.5
103 31 0.821507 0.324767 0.5
107 30 0.962608 0.384101 0.5
738 31 0.855098 0.333934 0.5
990 35 0.988844 0.317367 0.5
785 32 0.910132 0.328868 0.5
633 30 0.993946 0.262941 0.5
439 29 0.886549 0.377374 0.5
619 31 0.981138 0.355982 0.5
513 29 0.00609195 0.343603 0.5
570 32 0.0947525 0.34438 0.5
589 27 0.00351842 0.410613 0.5
649 33 0.0848896 0.400905 0.5
850 27 0.0920049 0.372064 0.5
456 31 0.15809 0.410844 0.5
412 30 0.136129 0.452316 0.5
211 25 0.216838 0.415559 0.5
156 28 0.168522 0.378029 0.5
871 29 0.249685 0.459379 0.5
623 33 0.248698 0.434705 0.5
43 33 0.35601 0.428081 0.5
936 28 0.468106 0.40745 0.5
720 29 0.465495 0.306168 0.5
167 29 0.401707 0.411002 0.5
427 31 0.503068 0.526533 0.5
342 34 0.476306 0.467778 0.5
440 34 0.459815 0.432148 0.5
438 29 0.500507 0.405933 0.5
32 26 0.537865 0.288507 0.5
121 31 0.543314 0.397873 0.5
711 32 0.504806 0.477624 0.5
601 31 0.629006 0.439007 0.5
690 29 0.508374 0.45072 0.5
420 32 0.572866 0.379833 0.5
747 27 0.676193 0.416532 0.5
860 30 0.638862 0.390718 0.5
465 29 0.7203 0.481176 0.5
810 31 0.857745 0.378774 0.5
89 30 0.782671 0.372104 0.5
382 34 0.668614 0.383132 0.5
202 34 0.805361 0.400161 0.5
452 32 0.866504 0.414544 0.5
549 30 0.860509 0.456715 0.5
25 32 0.884169 0.465589 0.5
190 35 0.852569 0.302377 0.5
984 31 0.902997 0.406424 0.5
659 33 0.950224 0.406664 0.5
336 33 0.838069 0.357137 0.5
562 33 0.918795 0.382525 0.5
536 29 0.994287 0.38673 0.5
780 30 0.0659484 0.382297 0.5
429 29 0.00124294 0.439442 0.5
411 31 0.0436558 0.401334 0.5
709 30 0.108911 0.420359 0.5
231 31 0.124241 0.477526 0.5
797 31 0.135323 0.426206 0.5
511 34 0.111624 0.451583 0.5
593 28 0.199964 0.431263 0.5
884 33 0.18645 0.406307 0.5
769 30 0.190542 0.364244 0.5
422 30 0.267947 0.405888 0.5
772 31 0.328111 0.404893 0.5
845 29 0.295536 0.412745 0.5
558 31 0.417141 0.385815 0.5
339 33 0.311661 0.434635 0.5
110 30 0.281171 0.447945 0.5
248 28 0.373041 0.338801 0.5
784 29 0.427414 0.446519 0.5
662 31 0.395882 0.443042 0.5
501 32 0.578123 0.471345 0.5
285 30 0.531733 0.471334 0.5
824 31 0.628853 0.467342 0.5
889 29 0.59821 0.452837 0.5
347 37 0.536005 0.438515 0.5
99 28 0.652241 0.409901 0.5
883 33 0.687661 0.443988 0.5
228 29 0.699852 0.413958 0.5
878 31 0.699579 0.389251 0.5
504 34 0.677726 0.348631 0.5
606 32 0.736388 0.428391 0.5
641 30 0.769654 0.468277 0.5
402 34 0.835048 0.469421 0.5
363 28 0.815572 0.423268 0.5
595 33 0.891191 0.346543 0.5
375 30 0.831716 0.499129 0.5
325 31 0.899585 0.439119 0.5
233 29 0.975473 0.447854 0.5
354 32 0.926116 0.418215 0.5
699 27 0.00437853 0.47455 0.5
80 30 0.0236274 0.424289 0.5
577 33 0.0379709 0.454987 0.5
941 30 0.979505 0.476635 0.5
215 29 0.0893524 0.513444 0.5
152 32 0.0205708 0.512421 0.5
832 35 0.101453 0.491571 0.5
630 31 0.156757 0.519913 0.5
566 31 0.166623 0.448402 0.5
830 30 0.151282 0.469833 0.5
310 32 0.194321 0.459153 0.5
457 34 0.222454 0.459609 0.5
63 30 0.2482 0.564474 0.5
86 30 0.301387 0.467149 0.5
98 33 0.252514 0.49724 0.5
808 29 0.275019 0.480907 0.5
367 29 0.390566 0.54116 0.5
924 28 0.337062 0.458401 0.5
263 30 0.387295 0.3855 0.5
760 28 0.365 0.506225 0.5
431 31 0.391869 0.467166 0.5
529 29 0.363501 0.471851 0.5
132 31 0.478053 0.504951 0.5
636 27 0.470028 0.529281 0.5
821 28 0.52508 0.545057 0.5
638 38 0.548929 0.55174 0.5
802 33 0.65961 0.453455 0.5
966 28 0.580217 0.500989 0.5
47 31 0.568544 0.432209 0.5
143 30 0.592899 0.420592 0.5
759 33 0.730284 0.532511 0.5
840 28 0.685504 0.475084 0.5
247 27 0.710418 0.545925 0.5
875 32 0.762776 0.433609 0.5
349 35 0.726924 0.452966 0.5
978 27 0.807951 0.473075 0.5
591 28 0.814047 0.448553 0.5
332 29 0.792272 0.494693 0.5
448 31 0.804439 0.532973 0.5
417 28 0.898538 0.529402 0.5
259 26 0.851059 0.516997 0.5
788 32 0.910274 0.487882 0.5
42 35 0.931849 0.521918 0.5
55 29 0.0431961 0.482634 0.5
508 29 0.945605 0.460419 0.5
291 29 0.0668138 0.493634 0.5
487 30 0.0671109 0.417841 0.5
100 32 0.078587 0.443977 0.5
351 31 0.0851632 0.467554 0.5
645 32 0.143863 0.493384 0.5
872 34 0.112836 0.520018 0.5
809 29 0.227688 0.498335 0.5
141 31 0.269493 0.547377 0.5
575 31 0.180244 0.532754 0.5
474 29 0.198277 0.482592 0.5
995 28 0.230881 0.580668 0.5
479 26 0.282625 0.512347 0.5
616 30 0.290316 0.579883 0.5
801 28 0.303923 0.496291 0.5
138 31 0.333216 0.486126 0.5
206 31 0.306795 0.522073 0.5
348 29 0.360633 0.544453 0.5
400 32 0.389277 0.491982 0.5
752 28 0.401525 0.601424 0.5
149 29 0.400761 0.567025 0.5
920 30 0.411855 0.484517 0.5
28 29 0.419877 0.550219 0.5
58 29 0.444189 0.465802 0.5
468 29 0.448287 0.499189 0.5
299 28 0.577293 0.543807 0.5
534 32 0.604527 0.480018 0.5
968 34 0.691275 0.571598 0.5
950 31 0.675185 0.506303 0.5
258 34 0.720858 0.505938 0.5
393 34 0.684582 0.535818 0.5
223 25 0.717071 0.635306 0.5
421 32 0.752667 0.580146 0.5
964 32 0.780936 0.578958 0.5
21 31 0.754591 0.498943 0.5
635 27 0.858345 0.562751 0.5
395 29 0.761044 0.555311 0.5
934 28 0.871974 0.503559 0.5
758 27 0.919163 0.450251 0.5
804 30 0.0172273 0.585646 0.5
523 26 0.939159 0.48658 0.5
943 37 0.0163143 0.554497 0.5
981 30 0.0491041 0.541919 0.5
374 32 0.147123 0.587699 0.5
962 38 0.0446709 0.572706 0.5
377 29 0.071005 0.527894 0.5
127 27 0.998043 0.526413 0.5
916 28 0.153012 0.550535 0.5
789 29 0.124875 0.548167 0.5
454 31 0.176161 0.50232 0.5
29 30 0.212667 0.565447 0.5
897 31 0.237506 0.604227 0.5
892 27 0.259712 0.648312 0.5
986 30 0.26525 0.623404 0.5
355 31 0.32649 0.53879 0.5
102 27 0.344562 0.565269 0.5
59 27 0.377136 0.564206 0.5
999 33 0.345855 0.521772 0.5
30 31 0.451098 0.580719 0.5
207 31 0.399989 0.51841 0.5
913 30 0.427679 0.573563 0.5
680 30 0.548329 0.612956 0.5
639 26 0.594483 0.522872 0.5
489 26 0.56493 0.520591 0.5
974 28 0.59442 0.571079 0.5
57 31 0.626525 0.544398 0.5
611 33 0.634071 0.495895 0.5
855 31 0.593226 0.594853 0.5
942 28 0.623538 0.519525 0.5
540 32 0.657038 0.526547 0.5
433 28 0.636732 0.587075 0.5
155 30 0.723926 0.596984 0.5
602 28 0.756257 0.522642 0.5
894 29 0.781572 0.612703 0.5
146 28 0.796963 0.558767 0.5
814 31 0.840165 0.595984 0.5
583 28 0.823039 0.558829 0.5
576 32 0.840593 0.543304 0.5
4 31 0.976021 0.51946 0.5
818 28 0.885302 0.563297 0.5
697 33 0.929436 0.557438 0.5
615 29 0.0381574 0.608607 0.5
556 30 0.989702 0.549074 0.5
129 33 0.0716555 0.561381 0.5
443 29 0.118761 0.573375 0.5
401 28 0.0941457 0.551946 0.5
292 29 0.204424 0.542584 0.5
665 35 0.186164 0.589489 0.5
721 29 0.216959 0.647155 0.5
317 33 0.235636 0.533052 0.5
520 31 0.214645 0.597342 0.5
515 30 0.199431 0.619787 0.5
178 27 0.342079 0.587501 0.5
532 29 0.369294 0.594753 0.5
241 32 0.261603 0.597253 0.5
547 32 0.322472 0.573128 0.5
733 34 0.429244 0.628184 0.5
970 27 0.413385 0.654103 0.5
546 31 0.504173 0.607932 0.5
480 28 0.454907 0.676219 0.5
162 31 0.385443 0.691932 0.5
849 33 0.500035 0.560376 0.5
337 30 0.473135 0.561668 0.5
712 30 0.502584 0.656411 0.5
236 35 0.431953 0.599044 0.5
471 28 0.531394 0.634505 0.5
116 27 0.595228 0.619684 0.5
535 28 0.531024 0.576579 0.5
160 30 0.573779 0.629272 0.5
331 29 0.619973 0.623062 0.5
654 28 0.690814 0.625222 0.5
604 27 0.693935 0.663963 0.5
693 30 0.663296 0.571217 0.5
212 28 0.760891 0.629465 0.5
358 29 0.742091 0.654911 0.5
425 31 0.744807 0.608812 0.5
530 30 0.804879 0.626961 0.5
786 34 0.768461 0.654938 0.5
65 31 0.808756 0.59747 0.5
12 32 0.926507 0.599215 0.5
328 27 0.859969 0.665993 0.5
477 31 0.834123 0.630104 0.5
982 31 0.936179 0.633173 0.5
551 30 0.961831 0.543563 0.5
45 29 0.956165 0.620594 0.5
64 31 0.0353384 0.671224 0.5
770 35 0.0598995 0.595997 0.5
122 30 0.0590112 0.621224 0.5
778 28 0.118747 0.70756 0.5
848 30 0.111153 0.631304 0.5
900 28 0.0818555 0.713661 0.5
205 29 0.0355162 0.697356 0.5
244 30 0.0860331 0.609617 0.5
910 30 0.142705 0.629102 0.5
159 32 0.153965 0.651145 0.5
869 31 0.174716 0.562262 0.5
181 31 0.170943 0.632226 0.5
925 27 0.229217 0.627239 0.5
91 28 0.228762 0.687749 0.5
862 28 0.240648 0.661415 0.5
907 29 0.316795 0.6157 0.5
276 32 0.316583 0.640894 0.5
166 30 0.342031 0.634659 0.5
353 30 0.360647 0.617284 0.5
312 34 0.393894 0.624239 0.5
655 30 0.392358 0.667476 0.5
603 30 0.453065 0.612789 0.5
578 30 0.415857 0.678381 0.5
521 31 0.51442 0.688748 0.5
592 28 0.427978 0.70551 0.5
727 33 0.47127 0.596157 0.5
243 32 0.558928 0.704461 0.5
683 32 0.562147 0.585133 0.5
119 30 0.526333 0.662529 0.5
722 32 0.627397 0.687987 0.5
321 31 0.555367 0.679306 0.5
614 30 0.644307 0.612376 0.5
124 29 0.758162 0.680373 0.5
572 32 0.633845 0.713447 0.5
173 30 0.668782 0.645477 0.5
877 30 0.676987 0.595572 0.5
216 36 0.802942 0.66927 0.5
329 32 0.822474 0.693255 0.5
640 33 0.833077 0.734948 0.5
256 32 0.871666 0.687299 0.5
857 35 0.851753 0.706821 0.5
297 30 0.902865 0.679288 0.5
664 31 0.895581 0.703824 0.5
56 29 0.873319 0.593515 0.5
131 29 0.960121 0.581786 0.5
399 32 0.0520411 0.716645 0.5
486 34 0.0525556 0.648411 0.5
87 29 0.986002 0.581033 0.5
557 34 0.0116568 0.728165 0.5
972 30 0.0369728 0.738422 0.5
509 29 0.193105 0.654332 0.5
5 32 0.060513 0.681857 0.5
217 31 0.1614 0.736391 0.5
135 30 0.109134 0.657797 0.5
432 30 0.14336 0.711296 0.5
826 30 0.254626 0.683719 0.5
705 30 0.259114 0.711994 0.5
599 32 0.199618 0.688102 0.5
196 31 0.303305 0.667478 0.5
737 32 0.362079 0.663241 0.5
609 30 0.377872 0.74694 0.5
854 29 0.358223 0.732863 0.5
836 30 0.362444 0.705387 0.5
561 31 0.398994 0.725409 0.5
961 30 0.466811 0.654558 0.5
296 30 0.435663 0.792851 0.5
128 31 0.465181 0.698946 0.5
253 30 0.540684 0.728488 0.5
935 28 0.599665 0.6656 0.5
464 30 0.507168 0.711354 0.5
271 30 0.550462 0.760539 0.5
78 26 0.577491 0.672249 0.5
1 28 0.615167 0.80069 0.5
512 31 0.600574 0.705587 0.5
800 27 0.625216 0.646436 0.5
180 32 0.703746 0.693968 0.5
585 31 0.722497 0.668785 0.5
460 32 0.730506 0.694126 0.5
359 32 0.832937 0.786498 0.5
554 30 0.898759 0.774031 0.5
481 30 0.808918 0.726669 0.5
232 29 0.818676 0.767046 0.5
766 30 0.961919 0.675717 0.5
861 33 0.903403 0.591521 0.5
582 30 0.991182 0.617175 0.5
893 30 0.958797 0.699586 0.5
781 30 0.011325 0.642638 0.5
459 33 0.00863667 0.677513 0.5
996 28 0.994395 0.761991 0.5
732 29 0.100898 0.761605 0.5
326 36 0.106747 0.730586 0.5
918 35 0.0899536 0.676352 0.5
584 28 0.159544 0.689449 0.5
48 28 0.173403 0.765019 0.5
69 33 0.127435 0.681195 0.5
876 31 0.205322 0.712477 0.5
189 22 0.276821 0.68865 0.5
516 35 0.256859 0.739455 0.5
505 32 0.279813 0.773967 0.5
634 25 0.286501 0.635996 0.5
405 30 0.295489 0.731276 0.5
469 33 0.326306 0.739929 0.5
993 30 0.328732 0.677391 0.5
198 33 0.394773 0.771135 0.5
352 29 0.359951 0.764243 0.5
948 33 0.370502 0.7909 0.5
497 31 0.44816 0.719714 0.5
447 33 0.449753 0.765513 0.5
424 27 0.474282 0.737514 0.5
406 30 0.594306 0.732578 0.5
775 32 0.487634 0.680057 0.5
696 29 0.5018 0.738893 0.5
728 32 0.525613 0.760838 0.5
350 24 0.687825 0.731838 0.5
17 29 0.573875 0.777555 0.5
701 34 0.639581 0.750765 0.5
72 28 0.679485 0.69772 0.5
413 28 0.618165 0.732685 0.5
531 29 0.77728 0.778616 0.5
123 25 0.723018 0.758831 0.5
380 34 0.784593 0.698325 0.5
885 28 0.784226 0.738145 0.5
495 32 0.934641 0.680154 0.5
816 31 0.896505 0.742777 0.5
790 31 0.876548 0.759157 0.5
997 32 0.916199 0.656532 0.5
646 29 0.938954 0.714206 0.5
724 35 0.990534 0.708665 0.5
767 35 0.982742 0.74022 0.5
302 28 0.0554395 0.793882 0.5
714 30 0.0747841 0.777437 0.5
688 29 0.0336023 0.781818 0.5
734 31 0.136467 0.739581 0.5
262 31 0.128271 0.769682 0.5
911 30 0.151589 0.839594 0.5
46 32 0.216263 0.771807 0.5
863 29 0.179916 0.708438 0.5
466 36 0.226058 0.727782 0.5
49 29 0.192223 0.750559 0.5
105 31 0.226886 0.805853 0.5
835 32 0.237664 0.755875 0.5
444 32 0.303187 0.801427 0.5
84 29 0.327862 0.706439 0.5
307 31 0.34321 0.784967 0.5
988 25 0.400375 0.79825 0.5
186 31 0.402734 0.827991 0.5
692 29 0.372579 0.817884 0.5
842 29 0.464473 0.788397 0.5
887 31 0.420371 0.847771 0.5
246 32 0.491998 0.802186 0.5
368 32 0.482851 0.764163 0.5
195 33 0.506154 0.777863 0.5
219 29 0.541143 0.782966 0.5
490 31 0.590699 0.807547 0.5
552 30 0.555044 0.821485 0.5
151 34 0.530085 0.833214 0.5
959 29 0.64557 0.790505 0.5
15 32 0.595858 0.766345 0.5
407 28 0.745845 0.739563 0.5
764 33 0.701618 0.772508 0.5
543 32 0.709393 0.740434 0.5
458 33 0.753722 0.839632 0.5
172 26 0.751156 0.714178 0.5
306 29 0.861035 0.77945 0.5
94 28 0.749201 0.767665 0.5
774 32 0.927438 0.757734 0.5
945 32 0.885162 0.808741 0.5
563 33 0.865373 0.731284 0.5
929 32 0.95122 0.811327 0.5
545 34 0.922713 0.787375 0.5
569 32 0.969636 0.789679 0.5
174 31 0.955211 0.767982 0.5
698 26 0.00187413 0.785243 0.5
879 32 0.996387 0.811826 0.5
475 28 0.0186821 0.755292 0.5
213 31 0.0334315 0.808874 0.5
257 32 0.0471231 0.834727 0.5
373 33 0.0732275 0.750833 0.5
622 29 0.0761321 0.853215 0.5
392 30 0.143863 0.86198 0.5
120 30 0.123124 0.822481 0.5
954 27 0.152263 0.780542 0.5
330 29 0.205068 0.85959 0.5
118 28 0.193831 0.785676 0.5
672 31 0.245984 0.788833 0.5
261 34 0.26196 0.894791 0.5
418 32 0.298218 0.834037 0.5
201 32 0.278083 0.805797 0.5
175 36 0.37971 0.842888 0.5
365 29 0.400352 0.86353 0.5
853 25 0.426673 0.821678 0.5
537 29 0.449252 0.813968 0.5
677 34 0.467074 0.855552 0.5
806 29 0.468238 0.829518 0.5
185 33 0.631236 0.905651 0.5
240 30 0.517391 0.867077 0.5
658 33 0.50134 0.82544 0.5
269 31 0.658021 0.81313 0.5
364 31 0.521323 0.80928 0.5
528 32 0.659392 0.841274 0.5
565 29 0.678555 0.795879 0.5
938 27 0.706124 0.796367 0.5
783 28 0.732855 0.787219 0.5
608 30 0.760362 0.814971 0.5
446 29 0.782535 0.822022 0.5
793 30 0.820061 0.848907 0.5
492 35 0.836307 0.812632 0.5
989 32 0.857546 0.828665 0.5
756 29 0.927441 0.819481 0.5
171 32 0.954933 0.734718 0.5
81 29 0.944611 0.8495 0.5
214 32 0.969491 0.833197 0.5
514 28 0.0152452 0.83331 0.5
441 30 0.0132317 0.946189 0.5
385 31 0.0299461 0.906375 0.5
345 31 0.0722117 0.829075 0.5
403 28 0.141658 0.807049 0.5
590 28 0.0189191 0.873817 0.5
650 30 0.0975667 0.815527 0.5
864 28 0.129803 0.885975 0.5
730 31 0.0477499 0.87881 0.5
414 32 0.176469 0.807587 0.5
741 32 0.113895 0.845335 0.5
435 27 0.174182 0.832001 0.5
278 32 0.210203 0.91288 0.5
369 32 0.217042 0.831341 0.5
742 31 0.247145 0.818812 0.5
903 31 0.315074 0.76621 0.5
928 32 0.270404 0.832557 0.5
706 31 0.330089 0.844562 0.5
226 31 0.226149 0.885929 0.5
220 30 0.370928 0.878487 0.5
311 29 0.472171 0.889167 0.5
726 30 0.499045 0.892732 0.5
736 28 0.445398 0.83901 0.5
710 33 0.547948 0.904354 0.5
92 29 0.549802 0.872722 0.5
66 31 0.566452 0.852876 0.5
833 31 0.611566 0.848923 0.5
140 30 0.611314 0.824303 0.5
719 27 0.60384 0.873074 0.5
485 32 0.674516 0.769092 0.5
255 30 0.631735 0.861459 0.5
372 29 0.721361 0.913225 0.5
277 29 0.733311 0.815779 0.5
250 30 0.861545 0.896487 0.5
866 30 0.810873 0.884488 0.5
624 27 0.733968 0.892955 0.5
555 30 0.753661 0.868997 0.5
301 33 0.864195 0.857019 0.5
607 34 0.885882 0.836322 0.5
270 31 0.964315 0.866625 0.5
371 30 0.914151 0.894086 0.5
922 33 0.964007 0.896312 0.5
114 28 0.935105 0.979264 0.5
637 29 0.0570783 0.947528 0.5
249 32 0.0021001 0.924995 0.5
169 26 0.117172 0.967556 0.5
991 31 0.0862227 0.951347 0.5
517 33 0.0756342 0.891628 0.5
39 29 0.0918902 0.915971 0.5
50 31 0.111917 0.936416 0.5
795 33 0.201681 0.886529 0.5
139 30 0.176469 0.867337 0.5
11 34 0.27632 0.916417 0.5
643 29 0.175125 0.912681 0.5
437 31 0.236825 0.911894 0.5
813 30 0.262779 0.856495 0.5
983 31 0.307248 0.884634 0.5
807 27 0.202957 0.808335 0.5
975 29 0.400802 0.93218 0.5
19 29 0.304474 0.858089 0.5
560 30 0.230274 0.857327 0.5
221 27 0.355576 0.898008 0.5
35 34 0.547699 0.931663 0.5
632 30 0.560535 0.959484 0.5
426 27 0.585218 0.834378 0.5
779 34 0.597851 0.918784 0.5
753 31 0.57517 0.890364 0.5
379 29 0.64664 0.966373 0.5
559 32 0.653922 0.915211 0.5
805 29 0.683713 0.861981 0.5
958 27 0.697061 0.837186 0.5
904 32 0.795558 0.910064 0.5
197 30 0.723542 0.841131 0.5
279 31 0.767141 0.927699 0.5
150 34 0.660684 0.888984 0.5
979 32 0.716005 0.870985 0.5
917 34 0.785367 0.875926 0.5
663 32 0.894692 0.879978 0.5
613 29 0.890812 0.928186 0.5
415 28 0.91061 0.853373 0.5
626 33 0.996636 0.974194 0.5
739 36 0.966501 0.924257 0.5
661 30 0.00734137 0.896128 0.5
305 30 0.990916 0.850482 0.5
37 30 0.0349615 0.935735 0.5
488 28 0.0395946 0.967567 0.5
891 32 0.0679655 0.923386 0.5
612 29 0.098502 0.872854 0.5
695 26 0.110347 0.990648 0.5
675 29 0.180841 0.967477 0.5
409 30 0.149782 0.901289 0.5
394 30 0.128469 0.916987 0.5
260 29 0.24961 0.933328 0.5
164 32 0.234059 0.956432 0.5
657 28 0.207892 0.968759 0.5
314 31 0.250336 0.993113 0.5
971 26 0.324919 0.90203 0.5
957 33 0.28884 0.947281 0.5
880 35 0.400371 0.958027 0.5
335 32 0.32905 0.935816 0.5
470 30 0.398956 0.907078 0.5
694 31 0.424414 0.889484 0.5
976 27 0.433828 0.91567 0.5
973 26 0.492864 0.915968 0.5
54 30 0.385745 0.991437 0.5
288 33 0.525448 0.893568 0.5
761 30 0.45965 0.914749 0.5
76 28 0.574036 0.92295 0.5
844 32 0.523089 0.943102 0.5
130 29 0.537217 0.973725 0.5
378 31 0.42795 0.956968 0.5
224 30 0.587617 0.972009 0.5
235 33 0.581849 0.947975 0.5
455 31 0.597403 0.996158 0.5
500 35 0.640275 0.0160683 0.5
617 32 0.62378 0.974704 0.5
856 29 0.62114 0.929506 0.5
210 29 0.712445 0.982569 0.5
79 34 0.670193 0.976181 0.5
631 30 0.689552 0.899697 0.5
499 25 0.751895 0.91053 0.5
154 29 0.760997 0.952449 0.5
960 35 0.864466 0.924973 0.5
106 26 0.72443 0.937416 0.5
944 30 0.818835 0.91405 0.5
478 30 0.942489 0.916703 0.5
264 31 0.940115 0.892833 0.5
890 32 0.913076 0.918375 0.5
473 31 0.978708 0.0251532 0.5
782 29 0.994233 0.999216 0.5
40 34 0.0399368 0.0355373 0.5
865 26 0.0812304 0.98988 0.5
320 32 0.121804 0.0278435 0.5
93 36 0.0959293 0.0301849 0.5
483 29 0.180572 0.0614905 0.5
817 33 0.14844 0.975628 0.5
895 30 0.184487 0.991831 0.5
182 31 0.150183 0.945906 0.5
670 32 0.159094 0.00670325 0.5
194 31 0.183635 0.9385 0.5
811 29 0.238502 0.0387764 0.5
341 28 0.358261 0.936764 0.5
743 31 0.37508 0.043126 0.5
647 30 0.37524 0.968261 0.5
882 33 0.450762 0.940316 0.5
858 32 0.335846 0.991466 0.5
7 32 0.327118 0.016254 0.5
564 29 0.411267 0.980509 0.5
316 34 0.438253 0.995634 0.5
965 30 0.422242 0.0506785 0.5
544 29 0.457768 0.0294729 0.5
621 29 0.451056 0.974251 0.5
133 31 0.503032 0.957939 0.5
625 31 0.594046 0.0301104 0.5
275 31 0.648764 0.0414608 0.5
272 33 0.681366 0.000914529 0.5
287 33 0.703664 0.956697 0.5
691 34 0.697648 0.922987 0.5
384 36 0.700336 0.0183641 0.5
71 32 0.734518 0.958212 0.5
985 28 0.839348 0.0170816 0.5
145 28 0.760426 0.0147818 0.5
898 29 0.863901 -0.000827027 0.5
308 28 0.83675 0.989632 0.5
825 33 0.825298 0.939 0.5
203 35 0.883424 0.955622 0.5
6 23 0.889996 0.994788 0.5
177 28 0.955318 0.95345 0.5
847 34 0.0498289 0.993915 0.5
681 27 0.0261026 0.00702099 0.5
44 32 0.909477 0.974011 0.5
