ITEM: TIMESTEP
2270000
ITEM: NUMBER OF ATOMS
1000
ITEM: BOX BOUNDS pp pp pp
-1.6583404999999999e+01 1.6583404999999999e+01
-1.6583404999999999e+01 1.6583404999999999e+01
-5.0000000000000000e-01 5.0000000000000000e-01
ITEM: ATOMS id type xs ys zs
262 32 0.0154587 -0.000623243 0.5
656 21 0.0388287 0.0196321 0.5
242 36 0.0106926 0.0368265 0.5
89 30 0.0448021 0.0503556 0.5
37 28 0.0970334 0.0067479 0.5
710 37 0.0692303 0.0253391 0.5
685 30 0.103149 0.0369257 0.5
215 28 0.128855 0.0137861 0.5
161 27 0.156866 0.022816 0.5
846 34 0.135757 0.0472163 0.5
516 40 0.170095 0.0542984 0.5
984 32 0.185877 0.0111899 0.5
172 20 0.198897 0.0399853 0.5
659 35 0.221523 0.0172945 0.5
487 30 0.227578 0.0512338 0.5
255 29 0.252528 0.0291922 0.5
852 34 0.277576 0.00572722 0.5
180 33 0.285981 0.0388692 0.5
380 38 0.31373 0.0159409 0.5
148 34 0.347732 0.0308044 0.5
203 40 0.319673 0.0539387 0.5
559 33 0.373822 0.00759886 0.5
536 28 0.379209 0.0406263 0.5
58 27 0.404997 0.0180159 0.5
682 36 0.412135 0.0496727 0.5
31 23 0.434444 0.0257988 0.5
390 32 0.460018 0.007126 0.5
256 33 0.46342 0.039713 0.5
752 26 0.489458 0.0194811 0.5
192 36 0.515611 0.000280464 0.5
537 27 0.523493 0.0319264 0.5
844 33 0.495728 0.0517815 0.5
551 30 0.548678 0.011131 0.5
708 26 0.580579 0.0206679 0.5
735 27 0.555639 0.0410074 0.5
253 29 0.586075 0.052676 0.5
139 29 0.637318 0.00911586 0.5
413 26 0.610743 0.0320094 0.5
355 31 0.640832 0.0409991 0.5
926 34 0.606062 -0.000879318 0.5
609 30 0.668831 0.0228885 0.5
107 29 0.699736 0.0320887 0.5
838 22 0.67289 0.056058 0.5
301 36 0.727388 0.00415172 0.5
243 33 0.76062 0.0184901 0.5
990 40 0.734025 0.0413311 0.5
591 26 0.818588 0.0083046 0.5
75 21 0.796937 0.0282996 0.5
737 34 0.771707 0.0510266 0.5
940 27 0.826358 0.0368829 0.5
528 33 0.852173 0.0184498 0.5
483 28 0.879858 0.0322117 0.5
397 33 0.855913 0.0521671 0.5
115 22 0.894737 0.00613349 0.5
943 45 0.917214 0.0328931 0.5
249 34 0.985452 0.0118383 0.5
33 30 0.951916 0.0196252 0.5
379 27 0.97473 0.0426273 0.5
350 16 0.947723 0.0472931 0.5
143 30 0.022128 0.0748232 0.5
766 28 0.0522341 0.0806854 0.5
712 29 0.0290186 0.106843 0.5
124 27 0.060219 0.11021 0.5
538 34 0.0785196 0.059944 0.5
736 25 0.0830807 0.0923103 0.5
170 33 0.111552 0.0713082 0.5
813 30 0.116549 0.103727 0.5
193 28 0.143835 0.081063 0.5
298 38 0.149643 0.114574 0.5
498 29 0.175988 0.0903085 0.5
67 30 0.202426 0.0725597 0.5
461 32 0.231335 0.0871256 0.5
227 32 0.204976 0.1076 0.5
469 37 0.259185 0.0633037 0.5
577 36 0.264843 0.099558 0.5
819 30 0.290411 0.0748569 0.5
809 27 0.2964 0.108155 0.5
473 31 0.320741 0.0880583 0.5
953 29 0.355078 0.0658964 0.5
608 29 0.351827 0.0970029 0.5
996 26 0.385668 0.0700686 0.5
414 34 0.384307 0.103663 0.5
847 38 0.415268 0.0856026 0.5
592 24 0.441254 0.0626948 0.5
330 27 0.446793 0.0952631 0.5
831 29 0.470519 0.0735948 0.5
982 32 0.502634 0.0851212 0.5
835 33 0.476299 0.107117 0.5
769 28 0.5094 0.115711 0.5
444 33 0.529796 0.0630653 0.5
871 28 0.535807 0.0955647 0.5
957 36 0.561445 0.0747322 0.5
898 28 0.564845 0.109552 0.5
788 34 0.594997 0.0890124 0.5
824 31 0.617082 0.0622084 0.5
178 23 0.625028 0.0951978 0.5
561 32 0.646976 0.0742673 0.5
214 34 0.704501 0.0642609 0.5
241 33 0.679356 0.086808 0.5
57 32 0.655764 0.109307 0.5
420 34 0.715426 0.0961947 0.5
930 26 0.747223 0.0733535 0.5
229 32 0.748239 0.106081 0.5
768 31 0.775169 0.0864222 0.5
857 40 0.805349 0.0651905 0.5
676 31 0.807863 0.100438 0.5
356 25 0.8732 0.0808031 0.5
677 39 0.839366 0.0849165 0.5
663 33 0.871451 0.113367 0.5
660 27 0.8946 0.0608168 0.5
332 26 0.927325 0.0674176 0.5
378 31 0.900479 0.0936856 0.5
644 30 0.937422 0.0966037 0.5
920 28 0.997954 0.0948646 0.5
648 25 0.992965 0.0653238 0.5
272 37 0.962055 0.0741406 0.5
310 33 0.968184 0.107155 0.5
367 28 0.0032994 0.12498 0.5
245 22 0.0319605 0.139072 0.5
886 28 0.00762027 0.15617 0.5
210 27 0.0372854 0.168017 0.5
743 33 0.0907325 0.125584 0.5
369 35 0.0631662 0.147585 0.5
448 32 0.0965507 0.158469 0.5
754 31 0.122385 0.136741 0.5
517 36 0.153595 0.151337 0.5
488 26 0.126246 0.170108 0.5
756 28 0.181214 0.128095 0.5
290 31 0.213058 0.140091 0.5
132 31 0.186926 0.158963 0.5
279 32 0.217755 0.17388 0.5
455 31 0.237127 0.120117 0.5
81 27 0.242537 0.153796 0.5
385 32 0.268083 0.135756 0.5
260 28 0.276618 0.166783 0.5
442 35 0.301161 0.143348 0.5
71 34 0.327248 0.119698 0.5
991 33 0.335186 0.15423 0.5
927 32 0.30916 0.175997 0.5
280 38 0.36106 0.130564 0.5
995 25 0.392944 0.142035 0.5
841 31 0.367536 0.16484 0.5
856 28 0.398175 0.174469 0.5
860 30 0.414515 0.120901 0.5
961 30 0.423505 0.153862 0.5
798 34 0.448529 0.12918 0.5
649 36 0.457241 0.163973 0.5
430 33 0.484041 0.141564 0.5
914 25 0.516352 0.146202 0.5
104 25 0.530451 0.171876 0.5
900 25 0.537914 0.127031 0.5
16 32 0.556695 0.153434 0.5
580 27 0.581945 0.135405 0.5
358 28 0.586394 0.169772 0.5
14 28 0.607455 0.11912 0.5
845 27 0.61012 0.150489 0.5
699 23 0.634613 0.130754 0.5
102 22 0.637249 0.158037 0.5
211 18 0.660455 0.140447 0.5
138 31 0.686015 0.120739 0.5
744 33 0.69502 0.15391 0.5
485 35 0.665905 0.172061 0.5
317 37 0.721723 0.131237 0.5
986 28 0.752086 0.147078 0.5
582 28 0.725081 0.167581 0.5
571 43 0.779688 0.124133 0.5
456 31 0.810055 0.145404 0.5
797 31 0.780622 0.160518 0.5
382 38 0.835178 0.121507 0.5
365 27 0.864212 0.145487 0.5
27 33 0.837995 0.162786 0.5
938 23 0.91775 0.120357 0.5
68 31 0.89384 0.136538 0.5
751 24 0.921434 0.147973 0.5
106 20 0.899512 0.165945 0.5
700 26 0.944608 0.12886 0.5
849 35 0.975264 0.140531 0.5
2 28 0.948737 0.159497 0.5
923 33 0.979751 0.174103 0.5
933 29 0.0104986 0.186936 0.5
202 39 0.0429025 0.200944 0.5
155 30 0.0190959 0.225694 0.5
80 29 0.0720131 0.179819 0.5
881 27 0.10244 0.190707 0.5
199 36 0.0787138 0.21331 0.5
66 32 0.112023 0.225232 0.5
851 31 0.135208 0.200825 0.5
694 31 0.164891 0.184376 0.5
672 31 0.143419 0.232657 0.5
596 27 0.168794 0.21449 0.5
274 27 0.194608 0.197535 0.5
87 28 0.200458 0.226798 0.5
673 27 0.224568 0.20588 0.5
239 35 0.249929 0.18573 0.5
167 27 0.282738 0.195599 0.5
28 27 0.254705 0.218774 0.5
293 36 0.286936 0.229197 0.5
823 28 0.315083 0.208229 0.5
753 32 0.340586 0.188014 0.5
464 30 0.347418 0.219976 0.5
181 32 0.373128 0.197987 0.5
763 34 0.40496 0.20884 0.5
409 30 0.376385 0.230108 0.5
629 25 0.426326 0.185048 0.5
607 37 0.469969 0.198007 0.5
701 38 0.438575 0.216848 0.5
944 29 0.465913 0.23738 0.5
492 40 0.496981 0.174632 0.5
457 37 0.525085 0.203627 0.5
174 31 0.494756 0.221491 0.5
445 35 0.558713 0.18777 0.5
90 39 0.556051 0.224581 0.5
795 36 0.58818 0.206283 0.5
832 41 0.62068 0.187998 0.5
779 37 0.617854 0.225481 0.5
704 35 0.653696 0.207601 0.5
307 33 0.6944 0.191996 0.5
91 25 0.705224 0.221351 0.5
103 33 0.677923 0.23435 0.5
408 27 0.753941 0.178292 0.5
208 32 0.728629 0.200081 0.5
829 24 0.757201 0.211037 0.5
615 28 0.809331 0.177021 0.5
661 30 0.782328 0.191958 0.5
976 22 0.808312 0.206837 0.5
270 31 0.783805 0.226184 0.5
393 39 0.870739 0.179111 0.5
939 37 0.839012 0.199519 0.5
653 24 0.846472 0.230234 0.5
353 29 0.872801 0.21358 0.5
589 24 0.924107 0.176151 0.5
776 31 0.901104 0.19766 0.5
346 29 0.924643 0.220282 0.5
97 23 0.897731 0.232043 0.5
244 29 0.986999 0.208804 0.5
733 38 0.95195 0.19484 0.5
313 33 0.958467 0.230144 0.5
130 28 0.029541 0.255191 0.5
705 29 0.0538808 0.235088 0.5
24 29 0.00169885 0.271286 0.5
662 32 0.0304562 0.287697 0.5
729 23 0.055974 0.26694 0.5
345 32 0.0845596 0.247978 0.5
259 20 0.114186 0.254296 0.5
936 25 0.0820154 0.280231 0.5
628 31 0.113687 0.283216 0.5
762 33 0.174337 0.24747 0.5
706 32 0.145029 0.264968 0.5
216 42 0.175648 0.284814 0.5
18 42 0.208929 0.261042 0.5
513 27 0.238507 0.242221 0.5
935 25 0.266383 0.253684 0.5
564 26 0.241658 0.271728 0.5
837 33 0.271993 0.285687 0.5
325 32 0.318976 0.2403 0.5
389 39 0.351172 0.254944 0.5
848 28 0.295268 0.262092 0.5
646 27 0.323338 0.274875 0.5
977 36 0.407098 0.245575 0.5
376 40 0.354658 0.291989 0.5
621 27 0.382339 0.269516 0.5
368 33 0.439514 0.257031 0.5
114 25 0.413029 0.278716 0.5
949 34 0.441782 0.290366 0.5
434 24 0.468492 0.267533 0.5
934 25 0.493377 0.251185 0.5
734 32 0.521889 0.24072 0.5
333 30 0.500176 0.281467 0.5
424 23 0.528189 0.270989 0.5
372 27 0.554604 0.258482 0.5
834 31 0.585271 0.275401 0.5
671 25 0.557609 0.288908 0.5
305 29 0.58744 0.241982 0.5
121 32 0.615934 0.259483 0.5
799 27 0.64483 0.280078 0.5
425 32 0.647054 0.245482 0.5
994 28 0.706004 0.254183 0.5
742 31 0.67279 0.267074 0.5
94 24 0.700468 0.286156 0.5
912 39 0.734836 0.235785 0.5
265 42 0.734649 0.274105 0.5
377 27 0.817629 0.23495 0.5
530 29 0.763179 0.252965 0.5
855 31 0.793824 0.257685 0.5
963 27 0.773582 0.281914 0.5
611 36 0.872063 0.24943 0.5
312 38 0.837752 0.2632 0.5
803 31 0.876907 0.284075 0.5
745 35 0.904198 0.262694 0.5
85 23 0.933117 0.249171 0.5
806 27 0.935142 0.279819 0.5
597 24 0.99195 0.242744 0.5
652 41 0.966027 0.264422 0.5
480 26 0.0242988 0.320378 0.5
917 39 0.0587217 0.310455 0.5
787 27 0.0933575 0.307732 0.5
929 33 0.0977904 0.338917 0.5
542 32 0.0652931 0.347025 0.5
720 28 0.141245 0.296646 0.5
407 26 0.120808 0.318673 0.5
171 34 0.157885 0.327818 0.5
428 28 0.130629 0.347545 0.5
54 29 0.189364 0.317988 0.5
403 25 0.209962 0.294299 0.5
429 27 0.19328 0.347888 0.5
140 30 0.219412 0.327811 0.5
252 35 0.242282 0.302982 0.5
400 34 0.272688 0.320891 0.5
783 26 0.24852 0.342076 0.5
888 28 0.302281 0.297535 0.5
144 34 0.32994 0.317204 0.5
273 28 0.302399 0.332371 0.5
966 25 0.335209 0.348889 0.5
440 39 0.390025 0.30355 0.5
96 30 0.362269 0.326888 0.5
707 46 0.3973 0.344098 0.5
263 29 0.421375 0.315768 0.5
651 24 0.432452 0.343412 0.5
664 32 0.455521 0.322749 0.5
493 25 0.472825 0.296285 0.5
674 27 0.496765 0.313908 0.5
950 32 0.52898 0.302443 0.5
500 41 0.484019 0.34652 0.5
491 29 0.518337 0.33615 0.5
761 29 0.553926 0.323633 0.5
568 31 0.583831 0.308821 0.5
72 25 0.580698 0.341538 0.5
329 34 0.614948 0.294381 0.5
4 33 0.643128 0.312779 0.5
21 31 0.610757 0.327813 0.5
637 28 0.638165 0.345248 0.5
666 33 0.675084 0.302458 0.5
988 19 0.696469 0.324482 0.5
452 33 0.66987 0.336526 0.5
603 29 0.722033 0.306072 0.5
277 26 0.753185 0.304015 0.5
416 34 0.727391 0.339701 0.5
360 17 0.758238 0.330089 0.5
136 37 0.808645 0.289306 0.5
443 28 0.782812 0.311407 0.5
264 31 0.813476 0.327809 0.5
540 35 0.783812 0.343984 0.5
859 40 0.844415 0.300229 0.5
901 37 0.877552 0.319456 0.5
166 30 0.845719 0.338554 0.5
557 37 0.907934 0.300655 0.5
12 35 0.908958 0.338008 0.5
521 32 0.939024 0.321616 0.5
288 36 0.993119 0.304586 0.5
233 27 0.959158 0.298165 0.5
614 29 0.996007 0.339926 0.5
165 22 0.970203 0.325911 0.5
548 37 0.0299998 0.353237 0.5
822 35 0.0235956 0.389343 0.5
723 28 0.0546051 0.377388 0.5
545 38 0.0902768 0.37395 0.5
973 21 0.0723532 0.399439 0.5
770 41 0.162297 0.364716 0.5
534 33 0.12851 0.380239 0.5
897 31 0.168098 0.399892 0.5
616 30 0.223385 0.361141 0.5
792 31 0.194894 0.380062 0.5
162 32 0.224211 0.39464 0.5
750 32 0.252618 0.376107 0.5
802 35 0.280993 0.357457 0.5
965 29 0.254881 0.407546 0.5
458 37 0.285647 0.393924 0.5
555 30 0.312088 0.368091 0.5
120 30 0.343111 0.379136 0.5
169 21 0.319058 0.39554 0.5
690 26 0.363808 0.356744 0.5
815 30 0.374874 0.385575 0.5
331 26 0.409231 0.400394 0.5
427 31 0.351999 0.410635 0.5
73 31 0.421895 0.372374 0.5
303 28 0.453864 0.369223 0.5
175 44 0.447259 0.404301 0.5
309 34 0.515939 0.369037 0.5
645 33 0.483814 0.383599 0.5
658 36 0.513424 0.40447 0.5
497 32 0.547553 0.354736 0.5
566 31 0.575599 0.37324 0.5
176 33 0.544132 0.388123 0.5
232 27 0.571502 0.403911 0.5
887 33 0.608145 0.360857 0.5
587 36 0.602991 0.396487 0.5
44 33 0.634967 0.381504 0.5
508 28 0.697717 0.352696 0.5
874 38 0.669541 0.37178 0.5
383 35 0.665949 0.408048 0.5
952 34 0.698232 0.392873 0.5
892 23 0.719059 0.370895 0.5
225 35 0.752524 0.365129 0.5
9 27 0.736256 0.394644 0.5
679 43 0.815156 0.364351 0.5
426 22 0.782163 0.375104 0.5
531 26 0.765758 0.399285 0.5
980 28 0.79605 0.400606 0.5
217 32 0.879953 0.354791 0.5
418 34 0.85013 0.371969 0.5
364 32 0.828677 0.40172 0.5
716 30 0.861686 0.402541 0.5
6 14 0.87917 0.381656 0.5
363 25 0.906215 0.37254 0.5
618 36 0.93741 0.358955 0.5
606 34 0.928786 0.393699 0.5
879 33 0.895935 0.404349 0.5
983 32 0.992838 0.372293 0.5
574 22 0.968842 0.353233 0.5
41 31 0.962449 0.383983 0.5
294 29 0.988734 0.403991 0.5
807 23 0.043903 0.415754 0.5
686 30 0.0124441 0.423982 0.5
781 29 0.037575 0.446854 0.5
343 33 0.00796757 0.461171 0.5
26 40 0.10588 0.409049 0.5
326 43 0.0727673 0.432893 0.5
631 30 0.0987851 0.455996 0.5
84 27 0.139374 0.412825 0.5
405 29 0.128539 0.442967 0.5
154 28 0.152521 0.46186 0.5
111 28 0.162181 0.432291 0.5
586 42 0.19764 0.420545 0.5
636 22 0.230425 0.424074 0.5
60 27 0.183599 0.454202 0.5
951 29 0.217994 0.450321 0.5
201 34 0.277776 0.430823 0.5
885 25 0.247818 0.446924 0.5
22 34 0.275653 0.466522 0.5
967 24 0.307963 0.419067 0.5
668 22 0.329722 0.434762 0.5
532 28 0.305252 0.450107 0.5
902 30 0.332994 0.464666 0.5
728 34 0.384298 0.419649 0.5
785 33 0.359473 0.444564 0.5
36 37 0.392723 0.458578 0.5
740 34 0.41783 0.43213 0.5
228 27 0.426092 0.463837 0.5
112 25 0.448019 0.443503 0.5
619 32 0.481319 0.41951 0.5
730 32 0.477401 0.452803 0.5
581 23 0.50691 0.441161 0.5
306 27 0.507071 0.470257 0.5
105 31 0.545743 0.421722 0.5
665 42 0.540404 0.457365 0.5
402 37 0.575545 0.43725 0.5
529 28 0.632458 0.413956 0.5
864 24 0.607028 0.429812 0.5
476 21 0.602848 0.45804 0.5
893 30 0.633845 0.466615 0.5
421 34 0.688347 0.435672 0.5
431 31 0.652149 0.440092 0.5
100 33 0.67322 0.466142 0.5
821 26 0.717393 0.418272 0.5
177 24 0.746128 0.423117 0.5
866 28 0.706992 0.469019 0.5
348 27 0.72613 0.445947 0.5
101 27 0.757759 0.450955 0.5
267 27 0.777721 0.427249 0.5
578 29 0.809451 0.428805 0.5
590 24 0.79447 0.452974 0.5
156 24 0.827822 0.461006 0.5
137 33 0.842544 0.431169 0.5
141 33 0.858108 0.462569 0.5
999 36 0.879676 0.435419 0.5
283 37 0.9176 0.431244 0.5
375 30 0.921757 0.466601 0.5
191 37 0.952642 0.418561 0.5
713 37 0.981547 0.43828 0.5
544 28 0.950584 0.45312 0.5
503 37 0.0354462 0.482601 0.5
675 27 0.0275078 0.519918 0.5
764 37 0.00225801 0.496777 0.5
196 31 0.0699588 0.46928 0.5
641 29 0.0638696 0.503865 0.5
791 27 0.0935186 0.492229 0.5
714 29 0.0865427 0.525531 0.5
95 32 0.123428 0.476001 0.5
972 29 0.149466 0.496246 0.5
748 35 0.12005 0.512163 0.5
925 22 0.204303 0.476302 0.5
116 22 0.175651 0.482049 0.5
882 36 0.18338 0.51325 0.5
812 27 0.216286 0.503188 0.5
563 36 0.240376 0.478511 0.5
179 31 0.2443 0.519467 0.5
786 38 0.274263 0.501399 0.5
875 34 0.306249 0.485377 0.5
357 37 0.313032 0.521707 0.5
709 30 0.337061 0.497571 0.5
794 31 0.363286 0.478552 0.5
384 42 0.366196 0.519309 0.5
296 30 0.393057 0.494348 0.5
65 31 0.405251 0.525637 0.5
593 25 0.454449 0.476245 0.5
504 39 0.427984 0.497194 0.5
126 32 0.460118 0.513354 0.5
549 30 0.4831 0.488936 0.5
814 31 0.491979 0.521787 0.5
765 24 0.515131 0.499629 0.5
771 25 0.523363 0.526794 0.5
626 35 0.576387 0.472799 0.5
404 31 0.545704 0.492814 0.5
251 32 0.553798 0.525214 0.5
406 30 0.606905 0.487157 0.5
349 41 0.588909 0.517709 0.5
42 41 0.627664 0.515702 0.5
688 26 0.652217 0.490621 0.5
17 27 0.686567 0.495149 0.5
157 32 0.663868 0.519796 0.5
278 33 0.697663 0.524281 0.5
282 27 0.737461 0.473585 0.5
478 29 0.718731 0.498621 0.5
727 36 0.754341 0.503078 0.5
910 30 0.774359 0.476406 0.5
206 32 0.806587 0.484214 0.5
289 22 0.787291 0.507813 0.5
625 32 0.819832 0.515186 0.5
39 26 0.836919 0.488554 0.5
974 26 0.866676 0.492931 0.5
519 24 0.852083 0.518609 0.5
553 32 0.882623 0.520641 0.5
911 29 0.889748 0.47109 0.5
585 32 0.909109 0.49947 0.5
698 21 0.909884 0.530825 0.5
632 30 0.937076 0.52087 0.5
575 32 0.976566 0.473553 0.5
188 31 0.946319 0.488849 0.5
971 20 0.971325 0.506619 0.5
336 36 0.0548786 0.536653 0.5
187 33 0.0223203 0.552203 0.5
906 38 0.05093 0.573879 0.5
793 29 0.0810887 0.556652 0.5
962 47 0.118205 0.552033 0.5
600 36 0.151903 0.530588 0.5
524 33 0.153924 0.566713 0.5
696 27 0.13029 0.589193 0.5
594 33 0.213563 0.534678 0.5
186 31 0.182311 0.548481 0.5
985 24 0.184502 0.582754 0.5
512 31 0.212892 0.569159 0.5
410 40 0.276885 0.538888 0.5
541 33 0.241841 0.553094 0.5
8 25 0.270421 0.573363 0.5
361 33 0.340306 0.545648 0.5
833 33 0.306475 0.558148 0.5
45 28 0.329205 0.580446 0.5
556 29 0.358127 0.571961 0.5
275 32 0.384113 0.5506 0.5
506 37 0.386899 0.590787 0.5
62 28 0.435186 0.534526 0.5
928 33 0.416242 0.563003 0.5
77 20 0.447985 0.56939 0.5
117 31 0.467544 0.545634 0.5
20 35 0.478077 0.578615 0.5
595 35 0.50393 0.555296 0.5
128 31 0.526224 0.581849 0.5
620 28 0.541256 0.55553 0.5
691 39 0.575953 0.554876 0.5
125 30 0.557483 0.585822 0.5
209 26 0.6093 0.547532 0.5
324 39 0.645567 0.548759 0.5
79 38 0.621828 0.580467 0.5
133 32 0.657265 0.581216 0.5
311 27 0.67845 0.554187 0.5
522 36 0.690674 0.584744 0.5
1000 36 0.732301 0.529912 0.5
816 32 0.712248 0.557374 0.5
805 27 0.745886 0.562064 0.5
760 26 0.764335 0.534502 0.5
997 34 0.726201 0.587764 0.5
23 28 0.795415 0.537492 0.5
772 32 0.782969 0.566659 0.5
118 26 0.81173 0.576911 0.5
47 31 0.827393 0.547419 0.5
35 37 0.860956 0.550442 0.5
784 28 0.841623 0.576261 0.5
338 29 0.877595 0.581233 0.5
438 27 0.895592 0.554156 0.5
725 39 0.929821 0.554429 0.5
777 26 0.909768 0.581898 0.5
119 29 0.997742 0.529848 0.5
533 35 0.965327 0.537862 0.5
789 28 0.989771 0.562123 0.5
778 24 0.95923 0.571488 0.5
918 40 0.013718 0.586547 0.5
212 24 0.0328611 0.614358 0.5
271 30 0.00289342 0.620115 0.5
489 21 0.0230435 0.64023 0.5
968 38 0.0533801 0.640146 0.5
109 43 0.0942305 0.591381 0.5
135 29 0.0614275 0.60621 0.5
495 33 0.0872809 0.626738 0.5
826 30 0.119619 0.617273 0.5
477 31 0.110874 0.651239 0.5
854 28 0.158738 0.598996 0.5
790 32 0.148839 0.629884 0.5
441 30 0.208439 0.601317 0.5
234 34 0.18217 0.621977 0.5
447 37 0.235058 0.625684 0.5
872 39 0.241109 0.589541 0.5
680 29 0.266238 0.64564 0.5
423 34 0.271378 0.611824 0.5
51 31 0.29832 0.590847 0.5
687 33 0.354549 0.60432 0.5
10 29 0.322929 0.611209 0.5
640 37 0.299249 0.635707 0.5
92 27 0.333919 0.638323 0.5
702 28 0.366386 0.637079 0.5
40 39 0.40013 0.62685 0.5
412 29 0.421109 0.596575 0.5
446 28 0.451672 0.598053 0.5
246 33 0.436949 0.628259 0.5
11 37 0.473283 0.624971 0.5
692 28 0.501465 0.602188 0.5
394 29 0.506076 0.634292 0.5
767 40 0.537442 0.615567 0.5
820 29 0.572861 0.614381 0.5
371 29 0.561432 0.644543 0.5
281 25 0.588411 0.587215 0.5
432 29 0.59355 0.640058 0.5
870 30 0.607025 0.610793 0.5
83 31 0.640754 0.611059 0.5
411 31 0.625588 0.640991 0.5
560 28 0.657495 0.641451 0.5
323 30 0.67353 0.614432 0.5
573 30 0.705071 0.616193 0.5
46 34 0.759739 0.592749 0.5
123 18 0.720576 0.640528 0.5
70 28 0.738231 0.618045 0.5
584 25 0.74708 0.64782 0.5
471 24 0.791613 0.599717 0.5
43 35 0.77158 0.625771 0.5
981 30 0.805054 0.6321 0.5
110 30 0.822499 0.606111 0.5
381 32 0.856028 0.606015 0.5
134 34 0.838526 0.633975 0.5
946 30 0.871613 0.639819 0.5
862 24 0.939111 0.590792 0.5
711 34 0.88893 0.611692 0.5
853 19 0.920467 0.611496 0.5
318 35 0.908862 0.63935 0.5
960 40 0.976145 0.599726 0.5
818 25 0.947956 0.618138 0.5
601 31 0.973666 0.635464 0.5
869 32 0.0311392 0.669537 0.5
724 40 0.00288299 0.693107 0.5
684 25 0.0808815 0.658607 0.5
514 25 0.0603296 0.680307 0.5
959 27 0.0937439 0.683745 0.5
970 22 0.141571 0.659372 0.5
465 27 0.123621 0.680911 0.5
129 37 0.156938 0.68843 0.5
74 35 0.172084 0.655863 0.5
151 38 0.20876 0.650467 0.5
617 33 0.192165 0.684343 0.5
942 25 0.223009 0.684245 0.5
450 24 0.240769 0.659866 0.5
344 21 0.25009 0.684185 0.5
543 34 0.283175 0.673391 0.5
948 37 0.318154 0.667129 0.5
722 33 0.306307 0.700968 0.5
693 28 0.352746 0.665043 0.5
486 37 0.341547 0.696925 0.5
550 25 0.374384 0.693704 0.5
7 35 0.385695 0.663545 0.5
526 30 0.408289 0.691333 0.5
287 36 0.42133 0.658274 0.5
226 31 0.456515 0.656942 0.5
796 26 0.442363 0.684439 0.5
958 23 0.486375 0.655085 0.5
220 30 0.476301 0.683595 0.5
386 36 0.511422 0.676214 0.5
840 26 0.525112 0.705717 0.5
602 25 0.53027 0.650701 0.5
347 45 0.549339 0.679149 0.5
479 20 0.581833 0.666506 0.5
370 37 0.589953 0.698152 0.5
470 29 0.610222 0.668783 0.5
297 30 0.642109 0.668993 0.5
437 32 0.627712 0.698399 0.5
64 31 0.692599 0.646533 0.5
49 27 0.661799 0.696735 0.5
899 22 0.671787 0.668986 0.5
904 34 0.695003 0.691874 0.5
334 33 0.722688 0.670855 0.5
867 37 0.756657 0.678733 0.5
392 30 0.78379 0.656869 0.5
295 33 0.815369 0.66221 0.5
93 43 0.792871 0.693777 0.5
341 25 0.853455 0.665176 0.5
861 35 0.83389 0.691286 0.5
276 35 0.869298 0.693213 0.5
612 27 0.889338 0.667885 0.5
695 21 0.91787 0.668578 0.5
546 32 0.90394 0.697058 0.5
254 33 0.942725 0.649884 0.5
916 25 1.00061 0.65686 0.5
633 30 0.970369 0.667868 0.5
435 23 0.943056 0.680764 0.5
237 35 0.967848 0.701836 0.5
190 40 0.0380945 0.707689 0.5
401 25 0.0219157 0.735763 0.5
801 26 0.00388367 0.758699 0.5
992 37 0.0557752 0.740458 0.5
472 26 0.0781907 0.709307 0.5
19 28 0.0899855 0.73951 0.5
422 30 0.112377 0.710554 0.5
913 29 0.142804 0.717768 0.5
579 27 0.121241 0.740416 0.5
194 31 0.15881 0.744807 0.5
624 24 0.174277 0.716619 0.5
320 33 0.205699 0.716763 0.5
399 34 0.192149 0.752482 0.5
909 27 0.224539 0.743352 0.5
29 29 0.237685 0.710796 0.5
284 35 0.270937 0.706065 0.5
460 34 0.258193 0.741616 0.5
576 33 0.291069 0.733908 0.5
13 31 0.314065 0.760692 0.5
286 31 0.325012 0.729435 0.5
127 23 0.343379 0.754178 0.5
956 33 0.358263 0.72815 0.5
300 37 0.378764 0.757006 0.5
883 36 0.39217 0.721897 0.5
152 34 0.413473 0.748996 0.5
507 29 0.458742 0.709818 0.5
732 28 0.425433 0.717769 0.5
804 29 0.445939 0.742375 0.5
634 18 0.473056 0.734476 0.5
266 35 0.493302 0.712446 0.5
572 34 0.500467 0.74662 0.5
800 23 0.529212 0.735194 0.5
25 33 0.55473 0.715164 0.5
481 30 0.582645 0.73164 0.5
321 31 0.554936 0.74936 0.5
604 22 0.610217 0.72322 0.5
678 30 0.640254 0.731979 0.5
915 26 0.616232 0.751683 0.5
843 35 0.647394 0.764708 0.5
850 23 0.672033 0.723629 0.5
322 23 0.698589 0.723395 0.5
496 30 0.68143 0.755178 0.5
195 37 0.728193 0.708483 0.5
474 28 0.762449 0.710352 0.5
269 32 0.718661 0.745154 0.5
50 33 0.751134 0.739634 0.5
654 25 0.816213 0.722634 0.5
878 32 0.784753 0.73343 0.5
605 24 0.801004 0.759311 0.5
183 28 0.771698 0.764367 0.5
142 31 0.848285 0.721859 0.5
319 29 0.829098 0.749222 0.5
774 33 0.861062 0.752447 0.5
759 36 0.884276 0.726964 0.5
643 28 0.933444 0.708466 0.5
868 38 0.919383 0.737869 0.5
359 34 0.987644 0.730088 0.5
726 29 0.955214 0.733279 0.5
200 35 0.971993 0.761355 0.5
398 38 0.0353688 0.770989 0.5
98 35 0.0236585 0.805563 0.5
539 31 0.0571301 0.79748 0.5
240 29 0.0752653 0.768808 0.5
204 34 0.0929384 0.796464 0.5
830 29 0.106627 0.766442 0.5
747 24 0.136775 0.765355 0.5
827 41 0.131209 0.797887 0.5
419 33 0.166125 0.778209 0.5
205 27 0.165031 0.811349 0.5
342 39 0.198921 0.798978 0.5
145 25 0.217259 0.772521 0.5
462 29 0.235171 0.797243 0.5
352 27 0.279527 0.766624 0.5
865 21 0.247758 0.769582 0.5
947 34 0.268195 0.796597 0.5
717 30 0.288271 0.824015 0.5
907 27 0.30115 0.790332 0.5
475 26 0.317841 0.816054 0.5
32 21 0.328881 0.788217 0.5
639 21 0.345321 0.809403 0.5
86 30 0.356805 0.782295 0.5
731 35 0.376794 0.810699 0.5
15 33 0.401463 0.784113 0.5
235 35 0.470104 0.766232 0.5
417 25 0.424588 0.805421 0.5
937 32 0.435226 0.774564 0.5
825 36 0.455343 0.802154 0.5
932 27 0.52654 0.765576 0.5
554 29 0.489232 0.804195 0.5
758 22 0.498733 0.777195 0.5
198 35 0.522873 0.79758 0.5
184 27 0.552716 0.780986 0.5
335 34 0.585433 0.76543 0.5
638 48 0.579857 0.805858 0.5
163 25 0.614717 0.780806 0.5
454 32 0.642028 0.799481 0.5
908 21 0.613532 0.808597 0.5
354 34 0.673979 0.789349 0.5
395 27 0.698597 0.813483 0.5
373 35 0.667149 0.823922 0.5
599 33 0.705734 0.777467 0.5
810 31 0.738977 0.770965 0.5
463 26 0.76282 0.792149 0.5
185 36 0.73054 0.804612 0.5
635 22 0.822002 0.778352 0.5
314 32 0.793484 0.790119 0.5
501 34 0.822714 0.809802 0.5
147 30 0.850435 0.783669 0.5
719 23 0.853598 0.813491 0.5
880 40 0.881829 0.797951 0.5
683 34 0.895791 0.765648 0.5
149 27 0.915747 0.79196 0.5
238 25 0.935744 0.814597 0.5
876 31 0.93899 0.771145 0.5
515 29 0.995985 0.787667 0.5
757 39 0.963854 0.797633 0.5
231 32 0.992879 0.821162 0.5
236 41 0.0215195 0.84644 0.5
839 27 0.0390439 0.876115 0.5
223 19 0.045846 0.827084 0.5
647 30 0.0598431 0.853055 0.5
894 27 0.0758257 0.824062 0.5
610 30 0.0924888 0.857754 0.5
468 27 0.105277 0.829156 0.5
1 26 0.135055 0.83208 0.5
207 31 0.127242 0.862096 0.5
718 19 0.155597 0.869093 0.5
439 28 0.162913 0.842865 0.5
518 30 0.192011 0.83267 0.5
247 24 0.184099 0.864815 0.5
387 29 0.213188 0.859654 0.5
351 31 0.224797 0.829535 0.5
48 25 0.256563 0.825706 0.5
989 34 0.245244 0.855899 0.5
433 25 0.277057 0.85332 0.5
449 26 0.310795 0.844993 0.5
884 36 0.298704 0.877309 0.5
954 23 0.34041 0.836275 0.5
739 43 0.336566 0.872078 0.5
82 33 0.369139 0.847157 0.5
291 27 0.405233 0.827116 0.5
547 33 0.403938 0.85826 0.5
316 38 0.37619 0.882372 0.5
667 26 0.433455 0.870294 0.5
150 39 0.437834 0.83587 0.5
808 26 0.463577 0.859927 0.5
388 26 0.472651 0.831573 0.5
69 35 0.495584 0.85543 0.5
304 27 0.513268 0.827819 0.5
189 12 0.512804 0.878421 0.5
327 31 0.544491 0.821842 0.5
890 33 0.53061 0.856226 0.5
337 29 0.570064 0.844807 0.5
523 21 0.557834 0.870797 0.5
108 33 0.60206 0.839519 0.5
30 32 0.590107 0.872319 0.5
520 31 0.634446 0.83181 0.5
159 34 0.624614 0.866355 0.5
782 28 0.655857 0.855304 0.5
153 37 0.689559 0.851583 0.5
415 24 0.716075 0.870072 0.5
570 34 0.721001 0.838494 0.5
669 40 0.75647 0.829839 0.5
56 27 0.74581 0.861729 0.5
746 24 0.792439 0.822583 0.5
703 30 0.781073 0.85423 0.5
630 32 0.816013 0.843427 0.5
780 29 0.801962 0.88229 0.5
924 25 0.846787 0.841921 0.5
975 27 0.875788 0.836435 0.5
502 25 0.867266 0.864158 0.5
158 35 0.835302 0.872864 0.5
285 30 0.90566 0.824762 0.5
436 31 0.900065 0.855779 0.5
219 28 0.930923 0.843692 0.5
689 30 0.92553 0.877174 0.5
969 28 0.960447 0.83456 0.5
642 31 0.986316 0.856146 0.5
613 27 0.955619 0.866684 0.5
697 36 0.00739983 0.883708 0.5
146 24 0.00970168 0.915654 0.5
459 36 0.0461615 0.908415 0.5
248 25 0.0298116 0.937542 0.5
160 29 0.069303 0.883544 0.5
466 43 0.0827722 0.918429 0.5
213 32 0.105142 0.888268 0.5
510 35 0.120053 0.919484 0.5
131 27 0.138268 0.891679 0.5
224 30 0.155818 0.919562 0.5
315 28 0.171133 0.892657 0.5
811 26 0.20142 0.887967 0.5
257 33 0.190146 0.918589 0.5
552 30 0.223478 0.921917 0.5
903 31 0.232347 0.88838 0.5
391 25 0.252939 0.912427 0.5
61 32 0.265307 0.883247 0.5
451 33 0.287926 0.91055 0.5
657 25 0.267143 0.937731 0.5
218 23 0.318086 0.901917 0.5
339 36 0.328031 0.931629 0.5
567 29 0.349868 0.904551 0.5
122 30 0.382658 0.917542 0.5
627 33 0.411792 0.893459 0.5
863 26 0.360911 0.940973 0.5
921 37 0.415466 0.929667 0.5
78 20 0.441217 0.911883 0.5
99 25 0.456703 0.888095 0.5
230 31 0.447338 0.93998 0.5
525 26 0.48494 0.885908 0.5
53 35 0.475543 0.917672 0.5
755 25 0.508468 0.902793 0.5
993 30 0.506216 0.935162 0.5
292 28 0.536769 0.889527 0.5
494 22 0.531717 0.918476 0.5
59 23 0.566051 0.898618 0.5
773 20 0.556601 0.927152 0.5
268 44 0.590752 0.925669 0.5
482 29 0.61288 0.896362 0.5
362 32 0.639196 0.915691 0.5
3 33 0.654377 0.88733 0.5
527 28 0.687171 0.885005 0.5
562 37 0.673604 0.91673 0.5
52 38 0.701276 0.940375 0.5
681 24 0.707106 0.906885 0.5
858 33 0.734999 0.893665 0.5
221 23 0.757416 0.914393 0.5
302 26 0.733861 0.930732 0.5
484 34 0.768473 0.884912 0.5
340 22 0.786945 0.90986 0.5
569 33 0.795266 0.940084 0.5
88 42 0.823573 0.913144 0.5
258 38 0.861113 0.897688 0.5
955 28 0.854197 0.932748 0.5
895 29 0.88612 0.92177 0.5
308 26 0.89466 0.886207 0.5
113 35 0.918569 0.910827 0.5
328 23 0.977204 0.888405 0.5
931 30 0.950084 0.90048 0.5
34 31 0.979618 0.918962 0.5
998 31 0.945575 0.932514 0.5
889 28 0.0490324 0.992714 0.5
964 33 0.0261316 0.968604 0.5
505 33 0.0598513 0.948579 0.5
922 36 0.0806125 0.978 0.5
905 30 0.102393 0.949209 0.5
891 33 0.117551 0.979445 0.5
987 35 0.151907 0.990567 0.5
261 38 0.13716 0.94995 0.5
490 32 0.173505 0.947179 0.5
721 27 0.182817 0.9788 0.5
197 29 0.205996 0.948232 0.5
623 37 0.216119 0.981981 0.5
565 27 0.246595 0.996379 0.5
775 33 0.239542 0.953157 0.5
511 38 0.270634 0.970674 0.5
941 29 0.343599 0.996738 0.5
168 37 0.30575 0.981344 0.5
5 34 0.298003 0.947292 0.5
670 34 0.338236 0.964051 0.5
535 25 0.368234 0.975946 0.5
738 32 0.390296 0.951121 0.5
374 35 0.399857 0.984279 0.5
509 26 0.429296 0.99602 0.5
896 29 0.424226 0.962117 0.5
650 29 0.453059 0.974914 0.5
467 31 0.483915 0.986885 0.5
222 33 0.478285 0.953624 0.5
366 29 0.509383 0.965629 0.5
817 36 0.540794 0.977094 0.5
978 22 0.536365 0.944195 0.5
877 29 0.572474 0.989881 0.5
979 35 0.566826 0.954939 0.5
598 34 0.600836 0.964887 0.5
741 34 0.634901 0.974315 0.5
453 25 0.622333 0.941299 0.5
655 29 0.692643 1.00134 0.5
715 22 0.661038 0.993595 0.5
173 30 0.653996 0.946224 0.5
250 30 0.678198 0.968615 0.5
76 26 0.70946 0.976829 0.5
558 31 0.755239 0.98256 0.5
299 25 0.731809 0.960223 0.5
945 35 0.762074 0.946477 0.5
63 29 0.789355 0.999561 0.5
919 23 0.783448 0.969775 0.5
836 29 0.812618 0.976634 0.5
396 31 0.868874 0.98943 0.5
499 18 0.83961 0.990152 0.5
588 26 0.828043 0.949061 0.5
583 24 0.851753 0.963478 0.5
749 28 0.878534 0.953394 0.5
164 34 0.927719 0.995094 0.5
55 28 0.900658 0.975304 0.5
182 33 0.91116 0.945164 0.5
622 28 0.938109 0.963425 0.5
828 29 0.999708 0.946311 0.5
38 29 0.992011 0.976352 0.5
873 32 0.960999 0.98793 0.5
842 28 0.968981 0.95562 0.5
