ITEM: TIMESTEP
2250000
ITEM: NUMBER OF ATOMS
1000
ITEM: BOX BOUNDS pp pp pp
-1.6583404999999999e+01 1.6583404999999999e+01
-1.6583404999999999e+01 1.6583404999999999e+01
-5.0000000000000000e-01 5.0000000000000000e-01
ITEM: ATOMS id type xs ys zs
262 32 0.0163421 0.00474361 0.5
656 21 0.0379586 0.0238963 0.5
242 36 0.0107574 0.042116 0.5
889 28 0.047188 -0.00458382 0.5
37 28 0.0980455 0.00621019 0.5
710 37 0.0693944 0.0251608 0.5
685 30 0.104396 0.0374019 0.5
215 28 0.128668 0.0126485 0.5
161 27 0.158911 0.0220209 0.5
987 35 0.150129 -0.0124462 0.5
984 32 0.187769 0.00861726 0.5
172 20 0.198431 0.0389179 0.5
659 35 0.220554 0.0181491 0.5
565 27 0.24574 -0.00337979 0.5
255 29 0.252598 0.0285458 0.5
852 34 0.278537 0.0040786 0.5
380 38 0.313369 0.0175692 0.5
180 33 0.284278 0.0375276 0.5
941 29 0.342903 -0.00188062 0.5
559 33 0.37275 0.0119156 0.5
148 34 0.34524 0.0319669 0.5
536 28 0.376754 0.0456696 0.5
509 26 0.42674 -0.00295672 0.5
58 27 0.403541 0.0181125 0.5
31 23 0.432335 0.027922 0.5
390 32 0.456668 0.00892867 0.5
752 26 0.485977 0.0225263 0.5
256 33 0.462419 0.0426531 0.5
192 36 0.515667 0.0017726 0.5
537 27 0.523274 0.033781 0.5
551 30 0.548593 0.0126104 0.5
708 26 0.579872 0.0210042 0.5
735 27 0.553478 0.0426232 0.5
926 34 0.606788 -0.00329076 0.5
139 29 0.635892 0.0120418 0.5
413 26 0.608682 0.0308912 0.5
355 31 0.64234 0.043084 0.5
715 22 0.659828 -0.00462171 0.5
655 29 0.68801 0.000837555 0.5
609 30 0.667077 0.0248773 0.5
107 29 0.697428 0.0302842 0.5
301 36 0.722057 0.00564605 0.5
243 33 0.755759 0.0179354 0.5
990 40 0.729808 0.0438459 0.5
63 29 0.787401 0.00690041 0.5
591 26 0.816455 0.0116249 0.5
75 21 0.795325 0.0349745 0.5
940 27 0.824627 0.0421292 0.5
528 33 0.848127 0.0195619 0.5
483 28 0.879825 0.0290269 0.5
396 31 0.871747 -0.00744593 0.5
115 22 0.897386 0.00652401 0.5
164 34 0.927491 -0.00371131 0.5
943 45 0.91604 0.0340504 0.5
249 34 0.98283 0.0117009 0.5
33 30 0.952177 0.0215963 0.5
379 27 0.974131 0.0447037 0.5
143 30 0.0231956 0.0750545 0.5
920 28 -9.29101e-05 0.0961641 0.5
89 30 0.0457065 0.0525915 0.5
538 34 0.0786732 0.0596778 0.5
766 28 0.0547323 0.0839469 0.5
736 25 0.0866742 0.0926465 0.5
846 34 0.136208 0.0460637 0.5
170 33 0.109709 0.0708215 0.5
193 28 0.142207 0.0792627 0.5
516 40 0.170432 0.0546247 0.5
67 30 0.199921 0.0742566 0.5
498 29 0.171981 0.0891664 0.5
487 30 0.225202 0.0530279 0.5
469 37 0.260091 0.0617129 0.5
461 32 0.230437 0.0860396 0.5
577 36 0.262766 0.0980721 0.5
203 40 0.316662 0.0538439 0.5
819 30 0.291246 0.0789382 0.5
473 31 0.323691 0.0886978 0.5
953 29 0.351513 0.06479 0.5
608 29 0.356313 0.0971437 0.5
996 26 0.379593 0.0766255 0.5
682 36 0.410649 0.0499735 0.5
847 38 0.414578 0.0870481 0.5
592 24 0.440469 0.0669256 0.5
831 29 0.46911 0.0757252 0.5
330 27 0.447187 0.097029 0.5
844 33 0.495988 0.0521698 0.5
444 33 0.526658 0.0640526 0.5
982 32 0.501246 0.0857299 0.5
871 28 0.531349 0.0983044 0.5
253 29 0.585222 0.051238 0.5
957 36 0.561131 0.0768064 0.5
788 34 0.594929 0.0868959 0.5
824 31 0.615548 0.0612609 0.5
561 32 0.645898 0.0776848 0.5
178 23 0.624601 0.0987067 0.5
838 22 0.66808 0.0565001 0.5
214 34 0.701479 0.0652903 0.5
241 33 0.678213 0.0892878 0.5
420 34 0.710083 0.098329 0.5
930 26 0.736421 0.0781687 0.5
737 34 0.768557 0.0493187 0.5
768 31 0.770029 0.0862098 0.5
857 40 0.80104 0.0682721 0.5
676 31 0.808357 0.1049 0.5
397 33 0.858167 0.0521348 0.5
356 25 0.869303 0.0826552 0.5
677 39 0.836013 0.0822677 0.5
660 27 0.889024 0.0611108 0.5
332 26 0.928443 0.0711399 0.5
378 31 0.900995 0.0889876 0.5
644 30 0.937445 0.102332 0.5
648 25 0.991854 0.0672901 0.5
350 16 0.945397 0.0497337 0.5
272 37 0.95991 0.0769815 0.5
712 29 0.0344321 0.107261 0.5
367 28 0.0102421 0.12737 0.5
245 22 0.0351557 0.143281 0.5
124 27 0.0645747 0.113971 0.5
743 33 0.0928132 0.127142 0.5
369 35 0.0654684 0.148068 0.5
813 30 0.11757 0.103775 0.5
298 38 0.149381 0.114378 0.5
754 31 0.123899 0.137341 0.5
517 36 0.155311 0.152217 0.5
227 32 0.205874 0.108392 0.5
756 28 0.180773 0.129212 0.5
290 31 0.213372 0.141019 0.5
455 31 0.23804 0.119026 0.5
81 27 0.243064 0.151737 0.5
385 32 0.268412 0.132615 0.5
809 27 0.292751 0.111165 0.5
442 35 0.301774 0.142996 0.5
71 34 0.327816 0.121437 0.5
280 38 0.360836 0.131354 0.5
991 33 0.332726 0.155561 0.5
414 34 0.386715 0.108715 0.5
860 30 0.418747 0.123487 0.5
995 25 0.394377 0.142171 0.5
961 30 0.424498 0.155836 0.5
835 33 0.477823 0.109298 0.5
798 34 0.45067 0.131624 0.5
430 33 0.485012 0.143942 0.5
769 28 0.508602 0.1197 0.5
900 25 0.542259 0.126748 0.5
914 25 0.518943 0.146866 0.5
16 32 0.549463 0.155646 0.5
898 28 0.569038 0.109479 0.5
580 27 0.577108 0.140256 0.5
14 28 0.600147 0.118174 0.5
845 27 0.607564 0.147785 0.5
699 23 0.628002 0.125834 0.5
102 22 0.638404 0.151345 0.5
57 32 0.65354 0.111236 0.5
211 18 0.663679 0.141768 0.5
138 31 0.686188 0.122043 0.5
744 33 0.690945 0.155159 0.5
317 37 0.719201 0.132984 0.5
229 32 0.744804 0.108383 0.5
986 28 0.74945 0.149574 0.5
571 43 0.77763 0.123095 0.5
456 31 0.81044 0.142245 0.5
663 33 0.876344 0.112987 0.5
382 38 0.840214 0.120491 0.5
365 27 0.86402 0.143551 0.5
938 23 0.910566 0.116087 0.5
68 31 0.896021 0.141262 0.5
751 24 0.925011 0.151823 0.5
310 33 0.970809 0.109859 0.5
700 26 0.947854 0.132932 0.5
849 35 0.98106 0.143174 0.5
886 28 0.0112487 0.15889 0.5
210 27 0.0400821 0.172408 0.5
933 29 0.0130204 0.191543 0.5
202 39 0.045099 0.205574 0.5
448 32 0.0979052 0.159948 0.5
80 29 0.0716247 0.181914 0.5
881 27 0.103095 0.192671 0.5
488 26 0.127518 0.170373 0.5
851 31 0.136523 0.20199 0.5
694 31 0.165239 0.186993 0.5
132 31 0.188214 0.160672 0.5
274 27 0.194751 0.196805 0.5
279 32 0.217632 0.174268 0.5
239 35 0.250498 0.185861 0.5
260 28 0.274272 0.163792 0.5
927 32 0.305149 0.177013 0.5
167 27 0.281889 0.199226 0.5
823 28 0.3125 0.210287 0.5
841 31 0.366495 0.165496 0.5
753 32 0.338476 0.187049 0.5
181 32 0.370082 0.197547 0.5
856 28 0.397543 0.173317 0.5
629 25 0.43294 0.187919 0.5
763 34 0.401928 0.206511 0.5
649 36 0.45659 0.166035 0.5
607 37 0.461966 0.202477 0.5
492 40 0.491648 0.179575 0.5
104 25 0.525905 0.175056 0.5
457 37 0.524046 0.206943 0.5
358 28 0.586563 0.169469 0.5
445 35 0.555445 0.189405 0.5
795 36 0.588494 0.203084 0.5
832 41 0.625459 0.182632 0.5
704 35 0.652223 0.208594 0.5
485 35 0.662842 0.174245 0.5
307 33 0.695804 0.187996 0.5
582 28 0.723614 0.16755 0.5
408 27 0.753353 0.180462 0.5
208 32 0.727974 0.198919 0.5
829 24 0.758122 0.212471 0.5
797 31 0.780848 0.159593 0.5
615 28 0.809351 0.173771 0.5
661 30 0.782673 0.191382 0.5
976 22 0.809257 0.203868 0.5
27 33 0.838255 0.16157 0.5
393 39 0.872802 0.178997 0.5
939 37 0.840349 0.197179 0.5
106 20 0.902489 0.169515 0.5
589 24 0.926981 0.180317 0.5
776 31 0.904108 0.199029 0.5
244 29 0.987996 0.208997 0.5
2 28 0.95308 0.163129 0.5
923 33 0.983767 0.177203 0.5
733 38 0.95513 0.19745 0.5
155 30 0.0146349 0.225038 0.5
130 28 0.0268342 0.254882 0.5
705 29 0.0551969 0.240032 0.5
199 36 0.0804598 0.217284 0.5
345 32 0.0867167 0.251588 0.5
66 32 0.113907 0.223973 0.5
672 31 0.144534 0.232987 0.5
259 20 0.115667 0.254307 0.5
596 27 0.173165 0.217707 0.5
87 28 0.202211 0.228999 0.5
762 33 0.174164 0.249698 0.5
673 27 0.22443 0.208355 0.5
28 27 0.254977 0.219222 0.5
513 27 0.233066 0.239615 0.5
935 25 0.26515 0.255386 0.5
293 36 0.287103 0.232216 0.5
325 32 0.318488 0.243167 0.5
464 30 0.342983 0.220324 0.5
409 30 0.375396 0.230436 0.5
389 39 0.350198 0.255963 0.5
977 36 0.405547 0.247043 0.5
701 38 0.433343 0.222937 0.5
368 33 0.438656 0.258235 0.5
944 29 0.464464 0.238119 0.5
434 24 0.470616 0.269504 0.5
174 31 0.491363 0.219931 0.5
934 25 0.497572 0.252484 0.5
734 32 0.528387 0.242168 0.5
90 39 0.558877 0.226243 0.5
305 29 0.589085 0.242019 0.5
372 27 0.553558 0.261072 0.5
779 37 0.619541 0.224101 0.5
425 32 0.644575 0.248576 0.5
121 32 0.61445 0.260989 0.5
91 25 0.703765 0.22039 0.5
103 33 0.675452 0.233058 0.5
994 28 0.702923 0.249964 0.5
742 31 0.671691 0.267475 0.5
912 39 0.733844 0.234079 0.5
530 29 0.766452 0.249573 0.5
270 31 0.788117 0.225326 0.5
377 27 0.817471 0.233185 0.5
855 31 0.79705 0.257545 0.5
653 24 0.846666 0.228844 0.5
353 29 0.874252 0.213373 0.5
611 36 0.874946 0.246884 0.5
312 38 0.839211 0.261723 0.5
346 29 0.929567 0.219577 0.5
97 23 0.901186 0.229718 0.5
745 35 0.907157 0.262454 0.5
85 23 0.93672 0.251591 0.5
597 24 0.991744 0.243911 0.5
313 33 0.961976 0.23131 0.5
652 41 0.966566 0.267372 0.5
24 29 0.00130604 0.275577 0.5
662 32 0.0311981 0.293154 0.5
480 26 0.0295108 0.325816 0.5
729 23 0.0526608 0.270581 0.5
936 25 0.0766656 0.284663 0.5
917 39 0.0599146 0.312544 0.5
787 27 0.0955477 0.310538 0.5
706 32 0.14081 0.269252 0.5
628 31 0.108817 0.281981 0.5
720 28 0.140514 0.299969 0.5
18 42 0.207922 0.26406 0.5
216 42 0.173459 0.286527 0.5
54 29 0.184747 0.31971 0.5
403 25 0.206865 0.299264 0.5
564 26 0.240893 0.273018 0.5
252 35 0.240174 0.308096 0.5
837 33 0.269808 0.288405 0.5
848 28 0.296 0.267534 0.5
888 28 0.297597 0.303084 0.5
400 34 0.273056 0.325608 0.5
646 27 0.324146 0.278786 0.5
144 34 0.328604 0.313945 0.5
376 40 0.35607 0.291658 0.5
621 27 0.381468 0.26992 0.5
114 25 0.413898 0.279989 0.5
440 39 0.391321 0.303991 0.5
263 29 0.422138 0.31807 0.5
949 34 0.442072 0.292967 0.5
493 25 0.473062 0.29746 0.5
674 27 0.495571 0.316558 0.5
424 23 0.527606 0.272129 0.5
333 30 0.499166 0.28494 0.5
950 32 0.527604 0.302772 0.5
761 29 0.550911 0.324942 0.5
834 31 0.584092 0.274003 0.5
671 25 0.556943 0.289809 0.5
568 31 0.581104 0.311173 0.5
799 27 0.639779 0.279795 0.5
329 34 0.610602 0.294915 0.5
4 33 0.639767 0.312617 0.5
94 24 0.698254 0.280291 0.5
666 33 0.672256 0.300312 0.5
988 19 0.696169 0.325145 0.5
603 29 0.716146 0.303928 0.5
265 42 0.735672 0.271933 0.5
277 26 0.747013 0.306115 0.5
963 27 0.769814 0.280859 0.5
136 37 0.805545 0.292262 0.5
443 28 0.776704 0.310808 0.5
803 31 0.873818 0.282249 0.5
859 40 0.841112 0.299578 0.5
901 37 0.874587 0.315985 0.5
557 37 0.905584 0.297543 0.5
806 27 0.937739 0.285611 0.5
288 36 1.00071 0.308648 0.5
233 27 0.967836 0.301427 0.5
548 37 0.0280512 0.359937 0.5
614 29 -0.000662839 0.342667 0.5
929 33 0.0962899 0.343331 0.5
542 32 0.0636802 0.352599 0.5
407 26 0.121782 0.323932 0.5
171 34 0.154298 0.333666 0.5
428 28 0.127311 0.354362 0.5
770 41 0.158958 0.370535 0.5
429 27 0.188528 0.350581 0.5
140 30 0.21421 0.330807 0.5
616 30 0.218851 0.361263 0.5
783 26 0.244166 0.342427 0.5
750 32 0.24971 0.372923 0.5
273 28 0.30446 0.336114 0.5
802 35 0.282002 0.359503 0.5
555 30 0.31487 0.367822 0.5
96 30 0.362409 0.32579 0.5
966 25 0.337549 0.34517 0.5
690 26 0.364522 0.357507 0.5
120 30 0.345319 0.381103 0.5
707 46 0.396484 0.343901 0.5
73 31 0.418161 0.374414 0.5
651 24 0.432768 0.346194 0.5
664 32 0.457238 0.325503 0.5
500 41 0.483628 0.349773 0.5
303 28 0.451445 0.367128 0.5
491 29 0.519147 0.337098 0.5
497 32 0.546276 0.357085 0.5
309 34 0.515127 0.370495 0.5
72 25 0.576852 0.345483 0.5
566 31 0.572972 0.376331 0.5
21 31 0.609638 0.329013 0.5
637 28 0.63638 0.344915 0.5
887 33 0.604195 0.362417 0.5
452 33 0.667244 0.334084 0.5
508 28 0.698795 0.35196 0.5
874 38 0.669036 0.370071 0.5
416 34 0.726025 0.333841 0.5
360 17 0.756592 0.333181 0.5
892 23 0.725314 0.365686 0.5
225 35 0.755991 0.365179 0.5
264 31 0.81574 0.325204 0.5
540 35 0.785404 0.342144 0.5
679 43 0.817996 0.361548 0.5
426 22 0.786693 0.372709 0.5
166 30 0.846843 0.33713 0.5
418 34 0.854027 0.370692 0.5
217 32 0.880074 0.350718 0.5
521 32 0.942304 0.320396 0.5
12 35 0.910495 0.333776 0.5
363 25 0.907492 0.367508 0.5
618 36 0.938664 0.35464 0.5
983 32 0.995113 0.375021 0.5
165 22 0.972237 0.329361 0.5
574 22 0.969603 0.356699 0.5
822 35 0.022777 0.396474 0.5
807 23 0.041719 0.420151 0.5
686 30 0.0129352 0.428993 0.5
723 28 0.0520686 0.38289 0.5
545 38 0.0925127 0.379113 0.5
973 21 0.073487 0.403047 0.5
26 40 0.104667 0.417127 0.5
534 33 0.126907 0.387955 0.5
84 27 0.138516 0.417711 0.5
897 31 0.167551 0.404845 0.5
792 31 0.194207 0.382714 0.5
586 42 0.200762 0.423482 0.5
162 32 0.224941 0.394486 0.5
965 29 0.256589 0.405632 0.5
636 22 0.233031 0.424339 0.5
458 37 0.289301 0.394974 0.5
169 21 0.321033 0.397434 0.5
967 24 0.308765 0.422555 0.5
201 34 0.277931 0.431621 0.5
427 31 0.349198 0.412922 0.5
815 30 0.377991 0.38551 0.5
668 22 0.331542 0.437791 0.5
728 34 0.3821 0.423394 0.5
331 26 0.406033 0.4008 0.5
740 34 0.416654 0.431717 0.5
645 33 0.478857 0.387725 0.5
175 44 0.444974 0.404435 0.5
619 32 0.478128 0.421285 0.5
176 33 0.542426 0.391606 0.5
658 36 0.509776 0.404092 0.5
105 31 0.541017 0.424744 0.5
232 27 0.570575 0.40915 0.5
587 36 0.601626 0.397976 0.5
864 24 0.610852 0.429966 0.5
44 33 0.633348 0.377104 0.5
529 28 0.634069 0.409923 0.5
383 35 0.672099 0.406853 0.5
952 34 0.701538 0.38717 0.5
421 34 0.693487 0.436494 0.5
821 26 0.718695 0.416247 0.5
9 27 0.736516 0.391751 0.5
531 26 0.767405 0.395215 0.5
177 24 0.747176 0.420087 0.5
980 28 0.797995 0.400731 0.5
267 27 0.778637 0.424648 0.5
578 29 0.811535 0.428138 0.5
364 32 0.831064 0.399948 0.5
716 30 0.863247 0.403361 0.5
137 33 0.842885 0.431863 0.5
6 14 0.882113 0.378093 0.5
606 34 0.928976 0.393466 0.5
879 33 0.895055 0.403856 0.5
283 37 0.917198 0.433024 0.5
41 31 0.963073 0.385741 0.5
294 29 0.986365 0.407265 0.5
191 37 0.950991 0.421015 0.5
781 29 0.0374858 0.451067 0.5
343 33 0.00799433 0.4625 0.5
503 37 0.0340824 0.486483 0.5
326 43 0.0708626 0.435977 0.5
196 31 0.0661123 0.47292 0.5
631 30 0.0971946 0.462616 0.5
405 29 0.126641 0.447326 0.5
95 32 0.125205 0.481139 0.5
154 28 0.154203 0.46547 0.5
111 28 0.16397 0.43738 0.5
60 27 0.188303 0.455943 0.5
925 22 0.20718 0.476566 0.5
116 22 0.179035 0.483025 0.5
951 29 0.220811 0.452133 0.5
885 25 0.249794 0.446416 0.5
563 36 0.240625 0.483409 0.5
22 34 0.274865 0.466011 0.5
532 28 0.30537 0.451895 0.5
875 34 0.304375 0.484939 0.5
785 33 0.36145 0.448712 0.5
902 30 0.333718 0.467559 0.5
794 31 0.362952 0.48281 0.5
36 37 0.393735 0.461641 0.5
228 27 0.428328 0.461166 0.5
112 25 0.451327 0.439158 0.5
730 32 0.477708 0.453288 0.5
593 25 0.455186 0.476552 0.5
549 30 0.484622 0.484872 0.5
581 23 0.509719 0.435438 0.5
306 27 0.508994 0.465312 0.5
665 42 0.542663 0.460193 0.5
402 37 0.580042 0.440107 0.5
626 35 0.576113 0.479506 0.5
476 21 0.607046 0.457099 0.5
406 30 0.608504 0.487249 0.5
893 30 0.635536 0.467884 0.5
431 31 0.652461 0.437602 0.5
688 26 0.656653 0.491909 0.5
100 33 0.673748 0.464683 0.5
866 28 0.706204 0.468543 0.5
348 27 0.725978 0.445804 0.5
101 27 0.757474 0.448456 0.5
282 27 0.741353 0.474602 0.5
910 30 0.773749 0.476852 0.5
590 24 0.793688 0.452162 0.5
206 32 0.805598 0.486467 0.5
156 24 0.822232 0.460667 0.5
141 33 0.856479 0.463767 0.5
39 26 0.837278 0.490795 0.5
999 36 0.881743 0.436472 0.5
911 29 0.888927 0.472051 0.5
375 30 0.919338 0.467192 0.5
713 37 0.980853 0.44074 0.5
544 28 0.947918 0.454174 0.5
575 32 0.974126 0.474696 0.5
188 31 0.943181 0.487657 0.5
764 37 -2.26136e-06 0.497645 0.5
675 27 0.0271981 0.519412 0.5
119 29 -0.00202806 0.52987 0.5
641 29 0.0608208 0.50684 0.5
791 27 0.0909248 0.495242 0.5
714 29 0.0862656 0.527434 0.5
336 36 0.0536313 0.541547 0.5
972 29 0.153407 0.497749 0.5
748 35 0.118844 0.514633 0.5
600 36 0.150231 0.532049 0.5
882 36 0.182215 0.516128 0.5
812 27 0.214901 0.503379 0.5
594 33 0.211673 0.535815 0.5
179 31 0.241399 0.521727 0.5
786 38 0.273036 0.502133 0.5
410 40 0.272625 0.539249 0.5
357 37 0.305709 0.521336 0.5
709 30 0.333654 0.499885 0.5
384 42 0.364726 0.519385 0.5
361 33 0.336102 0.542456 0.5
296 30 0.392646 0.49656 0.5
504 39 0.427487 0.495759 0.5
65 31 0.406878 0.525718 0.5
62 28 0.437949 0.532225 0.5
126 32 0.460688 0.509355 0.5
117 31 0.470086 0.540679 0.5
814 31 0.49203 0.517217 0.5
765 24 0.513817 0.493699 0.5
771 25 0.524638 0.519837 0.5
404 31 0.544682 0.496468 0.5
251 32 0.554909 0.527618 0.5
349 41 0.588868 0.517201 0.5
42 41 0.629911 0.514456 0.5
209 26 0.608709 0.544785 0.5
17 27 0.686453 0.49559 0.5
157 32 0.666107 0.520606 0.5
278 33 0.69938 0.524024 0.5
478 29 0.719354 0.498688 0.5
727 36 0.75503 0.50475 0.5
1000 36 0.733038 0.532152 0.5
760 26 0.767224 0.535366 0.5
289 22 0.785881 0.509949 0.5
625 32 0.818918 0.517306 0.5
23 28 0.79667 0.539666 0.5
974 26 0.867264 0.493954 0.5
519 24 0.850809 0.520202 0.5
553 32 0.88277 0.522347 0.5
585 32 0.908761 0.498767 0.5
698 21 0.910565 0.529195 0.5
632 30 0.937661 0.518666 0.5
971 20 0.969126 0.506881 0.5
533 35 0.965389 0.536982 0.5
187 33 0.0212724 0.553815 0.5
918 40 0.0115006 0.589065 0.5
906 38 0.0482984 0.578317 0.5
793 29 0.0808962 0.557975 0.5
109 43 0.0940092 0.591947 0.5
962 47 0.116597 0.555136 0.5
524 33 0.153944 0.567583 0.5
696 27 0.129417 0.589233 0.5
186 31 0.183518 0.553465 0.5
985 24 0.183941 0.587162 0.5
512 31 0.211021 0.570404 0.5
541 33 0.242235 0.557256 0.5
872 39 0.241749 0.592176 0.5
8 25 0.269024 0.574113 0.5
833 33 0.304175 0.555685 0.5
51 31 0.29705 0.589402 0.5
45 28 0.327389 0.577866 0.5
556 29 0.356402 0.569164 0.5
687 33 0.35287 0.601126 0.5
275 32 0.383121 0.550417 0.5
928 33 0.420752 0.559293 0.5
506 37 0.385829 0.586807 0.5
412 29 0.418466 0.592173 0.5
77 20 0.45053 0.564096 0.5
20 35 0.480957 0.572357 0.5
446 28 0.456374 0.59361 0.5
595 35 0.50751 0.547962 0.5
620 28 0.540164 0.556684 0.5
128 31 0.5205 0.581763 0.5
691 39 0.578124 0.554847 0.5
125 30 0.553572 0.585035 0.5
281 25 0.584746 0.587077 0.5
324 39 0.64423 0.5489 0.5
79 38 0.618454 0.575987 0.5
133 32 0.65533 0.582184 0.5
311 27 0.67938 0.55432 0.5
816 32 0.710195 0.559674 0.5
522 36 0.689461 0.587156 0.5
805 27 0.745684 0.564316 0.5
997 34 0.724421 0.59079 0.5
46 34 0.759549 0.592798 0.5
47 31 0.827273 0.549378 0.5
772 32 0.780939 0.566502 0.5
118 26 0.812248 0.577315 0.5
471 24 0.791895 0.600195 0.5
35 37 0.861803 0.55105 0.5
784 28 0.843422 0.578646 0.5
338 29 0.876164 0.581751 0.5
438 27 0.89555 0.553437 0.5
725 39 0.929545 0.554801 0.5
777 26 0.909447 0.585292 0.5
862 24 0.938325 0.590604 0.5
789 28 0.988681 0.563081 0.5
778 24 0.959536 0.568104 0.5
960 40 0.974819 0.598149 0.5
212 24 0.0335531 0.612448 0.5
271 30 0.0014425 0.622096 0.5
489 21 0.0243597 0.642937 0.5
968 38 0.0559601 0.644048 0.5
135 29 0.0624483 0.61118 0.5
495 33 0.0893659 0.6299 0.5
854 28 0.157998 0.60092 0.5
826 30 0.1206 0.618991 0.5
790 32 0.149851 0.632011 0.5
477 31 0.112833 0.65251 0.5
441 30 0.210238 0.604027 0.5
234 34 0.182879 0.623399 0.5
151 38 0.208515 0.653513 0.5
447 37 0.236146 0.6291 0.5
680 29 0.266323 0.646346 0.5
423 34 0.271704 0.612604 0.5
10 29 0.32065 0.610212 0.5
640 37 0.299313 0.636288 0.5
92 27 0.334107 0.63641 0.5
702 28 0.364469 0.631359 0.5
40 39 0.39822 0.622348 0.5
287 36 0.417987 0.655476 0.5
246 33 0.43491 0.621343 0.5
11 37 0.470768 0.625981 0.5
226 31 0.452831 0.655413 0.5
958 23 0.484825 0.655139 0.5
692 28 0.495179 0.602345 0.5
767 40 0.53432 0.615618 0.5
394 29 0.50399 0.633129 0.5
602 25 0.528545 0.652028 0.5
820 29 0.570329 0.614075 0.5
432 29 0.591849 0.639407 0.5
371 29 0.560282 0.643197 0.5
870 30 0.604834 0.610164 0.5
83 31 0.638014 0.609894 0.5
411 31 0.622989 0.639777 0.5
560 28 0.656923 0.642926 0.5
323 30 0.670523 0.614317 0.5
573 30 0.705733 0.618441 0.5
64 31 0.68839 0.646992 0.5
123 18 0.719203 0.644137 0.5
70 28 0.737952 0.621052 0.5
584 25 0.748316 0.649971 0.5
43 35 0.771275 0.626059 0.5
110 30 0.825069 0.604671 0.5
981 30 0.806735 0.630507 0.5
392 30 0.776983 0.662877 0.5
381 32 0.857206 0.608473 0.5
134 34 0.838917 0.639771 0.5
946 30 0.874428 0.64063 0.5
711 34 0.891128 0.610442 0.5
853 19 0.920965 0.613818 0.5
318 35 0.909609 0.641942 0.5
818 25 0.947731 0.620318 0.5
601 31 0.973234 0.638525 0.5
254 33 0.942704 0.65231 0.5
916 25 -0.00102601 0.657675 0.5
869 32 0.0322535 0.672905 0.5
724 40 -2.49182e-05 0.691839 0.5
190 40 0.0363682 0.708081 0.5
684 25 0.0842048 0.660202 0.5
514 25 0.0618709 0.683229 0.5
959 27 0.0909844 0.688952 0.5
970 22 0.141334 0.661883 0.5
465 27 0.120904 0.682909 0.5
129 37 0.154854 0.69031 0.5
74 35 0.173299 0.657425 0.5
617 33 0.190686 0.686828 0.5
450 24 0.240406 0.661532 0.5
344 21 0.253988 0.684568 0.5
942 25 0.222556 0.683518 0.5
284 35 0.273196 0.707788 0.5
948 37 0.317676 0.666044 0.5
543 34 0.282941 0.672521 0.5
722 33 0.307604 0.700304 0.5
693 28 0.351861 0.662869 0.5
550 25 0.374075 0.689422 0.5
486 37 0.342909 0.695392 0.5
7 35 0.383715 0.65808 0.5
526 30 0.405758 0.687246 0.5
796 26 0.438573 0.685003 0.5
220 30 0.472188 0.683016 0.5
266 35 0.491559 0.710445 0.5
507 29 0.456724 0.710586 0.5
386 36 0.507711 0.677564 0.5
840 26 0.524296 0.706945 0.5
347 45 0.549436 0.680896 0.5
479 20 0.578846 0.665588 0.5
370 37 0.584759 0.697905 0.5
470 29 0.607427 0.666687 0.5
297 30 0.638392 0.66945 0.5
437 32 0.621414 0.695559 0.5
49 27 0.655286 0.700596 0.5
899 22 0.669838 0.670909 0.5
904 34 0.688122 0.694366 0.5
334 33 0.715234 0.673613 0.5
867 37 0.74852 0.682692 0.5
195 37 0.723172 0.712411 0.5
474 28 0.76134 0.713033 0.5
295 33 0.814696 0.663421 0.5
93 43 0.791671 0.696527 0.5
341 25 0.849164 0.670504 0.5
861 35 0.830147 0.696613 0.5
276 35 0.868223 0.695523 0.5
612 27 0.887195 0.669738 0.5
695 21 0.919486 0.67352 0.5
546 32 0.903454 0.699176 0.5
643 28 0.933177 0.711315 0.5
633 30 0.971055 0.671424 0.5
435 23 0.943481 0.68411 0.5
237 35 0.966314 0.707668 0.5
401 25 0.0223085 0.737742 0.5
801 26 0.00087639 0.761736 0.5
472 26 0.0688305 0.711726 0.5
992 37 0.0547135 0.74119 0.5
19 28 0.0883959 0.7365 0.5
422 30 0.11037 0.711731 0.5
913 29 0.141587 0.721326 0.5
579 27 0.120868 0.744258 0.5
194 31 0.16236 0.746389 0.5
624 24 0.174731 0.717398 0.5
320 33 0.206797 0.719379 0.5
399 34 0.195413 0.756706 0.5
29 29 0.238954 0.711514 0.5
909 27 0.227296 0.743111 0.5
460 34 0.260345 0.741586 0.5
576 33 0.293098 0.734942 0.5
13 31 0.311861 0.763592 0.5
352 27 0.281257 0.767427 0.5
286 31 0.325212 0.730866 0.5
956 33 0.357951 0.727193 0.5
127 23 0.343153 0.755607 0.5
300 37 0.379055 0.75484 0.5
883 36 0.391677 0.718052 0.5
732 28 0.425441 0.715699 0.5
152 34 0.41294 0.747355 0.5
634 18 0.472466 0.735959 0.5
804 29 0.445693 0.740175 0.5
235 35 0.468669 0.766334 0.5
800 23 0.530384 0.73436 0.5
572 34 0.49895 0.745674 0.5
932 27 0.525311 0.762406 0.5
25 33 0.555942 0.718416 0.5
481 30 0.58289 0.737817 0.5
321 31 0.554676 0.752074 0.5
604 22 0.607013 0.722252 0.5
678 30 0.637206 0.726931 0.5
915 26 0.61338 0.749648 0.5
843 35 0.645729 0.761711 0.5
850 23 0.665819 0.730835 0.5
322 23 0.693381 0.72622 0.5
496 30 0.681481 0.75647 0.5
269 32 0.716581 0.747134 0.5
50 33 0.749773 0.741839 0.5
654 25 0.816035 0.724721 0.5
878 32 0.784883 0.733439 0.5
605 24 0.801667 0.759805 0.5
183 28 0.771942 0.764243 0.5
142 31 0.847246 0.727757 0.5
319 29 0.832407 0.756841 0.5
774 33 0.866441 0.759538 0.5
759 36 0.881574 0.728876 0.5
868 38 0.915809 0.739684 0.5
683 34 0.899949 0.772089 0.5
359 34 0.991867 0.73012 0.5
726 29 0.949509 0.736802 0.5
200 35 0.968678 0.763187 0.5
398 38 0.035069 0.771144 0.5
98 35 0.0213147 0.80933 0.5
515 29 -0.00774383 0.789899 0.5
240 29 0.0701789 0.772445 0.5
539 31 0.0537427 0.799374 0.5
204 34 0.0914951 0.800512 0.5
747 24 0.139972 0.767678 0.5
830 29 0.101709 0.769171 0.5
827 41 0.128746 0.799037 0.5
419 33 0.169242 0.77946 0.5
342 39 0.200152 0.798252 0.5
205 27 0.162197 0.810709 0.5
145 25 0.223423 0.772089 0.5
865 21 0.250854 0.770444 0.5
462 29 0.23468 0.799847 0.5
947 34 0.266819 0.796555 0.5
907 27 0.298667 0.793304 0.5
475 26 0.317323 0.816026 0.5
717 30 0.286643 0.824535 0.5
32 21 0.327282 0.789675 0.5
86 30 0.356421 0.782403 0.5
639 21 0.346831 0.810061 0.5
731 35 0.377921 0.809269 0.5
15 33 0.399815 0.782507 0.5
417 25 0.423202 0.803424 0.5
937 32 0.435502 0.772823 0.5
825 36 0.454777 0.800194 0.5
554 29 0.488561 0.80573 0.5
758 22 0.498296 0.777296 0.5
198 35 0.520914 0.797466 0.5
327 31 0.541895 0.826224 0.5
184 27 0.55128 0.783469 0.5
335 34 0.583465 0.772349 0.5
638 48 0.576543 0.809243 0.5
163 25 0.614176 0.779932 0.5
454 32 0.640732 0.798923 0.5
908 21 0.612865 0.809351 0.5
354 34 0.673666 0.78914 0.5
599 33 0.706094 0.779136 0.5
395 27 0.698188 0.816758 0.5
373 35 0.665997 0.82289 0.5
810 31 0.73937 0.773654 0.5
463 26 0.761083 0.795533 0.5
185 36 0.728617 0.805486 0.5
635 22 0.819403 0.782216 0.5
314 32 0.79188 0.794035 0.5
501 34 0.820973 0.815909 0.5
147 30 0.847882 0.788835 0.5
719 23 0.851856 0.819266 0.5
880 40 0.881372 0.80403 0.5
149 27 0.916419 0.799033 0.5
238 25 0.935585 0.822104 0.5
231 32 0.989387 0.823663 0.5
876 31 0.934251 0.770237 0.5
757 39 0.957977 0.797276 0.5
236 41 0.019069 0.847881 0.5
839 27 0.039748 0.877638 0.5
223 19 0.044715 0.82778 0.5
894 27 0.0713213 0.825298 0.5
647 30 0.0574444 0.852985 0.5
610 30 0.088075 0.856906 0.5
468 27 0.102205 0.831045 0.5
1 26 0.13136 0.833177 0.5
207 31 0.122959 0.863341 0.5
718 19 0.152729 0.869211 0.5
439 28 0.159016 0.84212 0.5
518 30 0.190614 0.832015 0.5
247 24 0.179521 0.864663 0.5
387 29 0.207928 0.859341 0.5
48 25 0.252691 0.824365 0.5
351 31 0.22256 0.828755 0.5
989 34 0.24175 0.855842 0.5
449 26 0.311321 0.845726 0.5
433 25 0.274466 0.853096 0.5
884 36 0.299011 0.876836 0.5
954 23 0.337601 0.835832 0.5
82 33 0.369814 0.844819 0.5
739 43 0.336398 0.871137 0.5
291 27 0.403655 0.827872 0.5
547 33 0.401407 0.860418 0.5
667 26 0.431771 0.873454 0.5
150 39 0.437794 0.840024 0.5
388 26 0.472056 0.831582 0.5
808 26 0.465387 0.86299 0.5
69 35 0.496692 0.857441 0.5
304 27 0.508913 0.828141 0.5
890 33 0.53205 0.859268 0.5
189 12 0.51443 0.880974 0.5
337 29 0.566967 0.84793 0.5
108 33 0.60073 0.839482 0.5
523 21 0.558006 0.875292 0.5
30 32 0.589574 0.871949 0.5
520 31 0.632741 0.831574 0.5
782 28 0.655439 0.853722 0.5
159 34 0.624635 0.864593 0.5
153 37 0.689651 0.852214 0.5
415 24 0.713803 0.875938 0.5
570 34 0.722099 0.839496 0.5
669 40 0.75749 0.828771 0.5
56 27 0.743446 0.866122 0.5
746 24 0.791361 0.826971 0.5
703 30 0.780657 0.855795 0.5
630 32 0.812656 0.849408 0.5
924 25 0.844988 0.845245 0.5
975 27 0.87449 0.838779 0.5
502 25 0.868719 0.871975 0.5
158 35 0.834613 0.876377 0.5
285 30 0.90491 0.829401 0.5
436 31 0.898544 0.861146 0.5
219 28 0.929912 0.849547 0.5
689 30 0.922569 0.881108 0.5
969 28 0.961061 0.839558 0.5
642 31 0.985434 0.859591 0.5
613 27 0.951352 0.869666 0.5
697 36 0.00880318 0.887592 0.5
146 24 0.00566453 0.920393 0.5
459 36 0.0378059 0.909276 0.5
160 29 0.0683744 0.882946 0.5
466 43 0.0753636 0.918824 0.5
213 32 0.100414 0.888891 0.5
131 27 0.135641 0.891789 0.5
510 35 0.115225 0.920676 0.5
224 30 0.15028 0.920604 0.5
315 28 0.168462 0.892108 0.5
811 26 0.199255 0.888777 0.5
257 33 0.184136 0.91953 0.5
552 30 0.218518 0.91883 0.5
903 31 0.230558 0.88685 0.5
391 25 0.249407 0.912926 0.5
61 32 0.264719 0.883511 0.5
218 23 0.319768 0.900807 0.5
451 33 0.287173 0.910608 0.5
339 36 0.326724 0.931544 0.5
316 38 0.374335 0.882319 0.5
567 29 0.350411 0.907918 0.5
122 30 0.3825 0.916791 0.5
627 33 0.408053 0.8944 0.5
921 37 0.413063 0.931918 0.5
78 20 0.43989 0.916812 0.5
99 25 0.454454 0.890599 0.5
525 26 0.483763 0.886672 0.5
53 35 0.473484 0.917875 0.5
292 28 0.536546 0.893565 0.5
755 25 0.507095 0.905141 0.5
494 22 0.531573 0.921631 0.5
993 30 0.505589 0.936245 0.5
59 23 0.572523 0.896891 0.5
773 20 0.558677 0.92127 0.5
268 44 0.592441 0.925366 0.5
482 29 0.613051 0.894319 0.5
3 33 0.651559 0.887605 0.5
362 32 0.636463 0.916411 0.5
527 28 0.685311 0.886082 0.5
681 24 0.707347 0.908802 0.5
562 37 0.671868 0.916383 0.5
858 33 0.736356 0.897812 0.5
221 23 0.758135 0.918503 0.5
302 26 0.732199 0.928782 0.5
484 34 0.769434 0.888698 0.5
780 29 0.802524 0.886173 0.5
340 22 0.787897 0.916438 0.5
88 42 0.821906 0.918617 0.5
258 38 0.85688 0.904388 0.5
955 28 0.853171 0.937318 0.5
895 29 0.883639 0.92649 0.5
308 26 0.889214 0.893876 0.5
113 35 0.915656 0.913728 0.5
328 23 0.97638 0.890816 0.5
931 30 0.948342 0.900951 0.5
34 31 0.976115 0.921552 0.5
998 31 0.942089 0.932871 0.5
964 33 0.0236959 0.971612 0.5
248 25 0.0276344 0.939889 0.5
828 29 -0.00160718 0.949407 0.5
922 36 0.0794894 0.980076 0.5
505 33 0.0568281 0.953564 0.5
905 30 0.0957461 0.948841 0.5
891 33 0.115756 0.980534 0.5
261 38 0.13482 0.951157 0.5
721 27 0.183715 0.978335 0.5
490 32 0.169923 0.949574 0.5
197 29 0.203214 0.947694 0.5
623 37 0.217592 0.97927 0.5
775 33 0.236769 0.947835 0.5
511 38 0.265508 0.969224 0.5
657 25 0.265692 0.936431 0.5
168 37 0.305748 0.981973 0.5
5 34 0.295759 0.947329 0.5
863 26 0.358658 0.938472 0.5
670 34 0.337653 0.964738 0.5
535 25 0.366413 0.978965 0.5
738 32 0.384965 0.954275 0.5
374 35 0.396966 0.986188 0.5
896 29 0.423688 0.965459 0.5
650 29 0.452949 0.976178 0.5
467 31 0.484009 0.988986 0.5
222 33 0.478219 0.955732 0.5
230 31 0.447217 0.944325 0.5
817 36 0.542966 0.978895 0.5
366 29 0.509402 0.968361 0.5
978 22 0.532226 0.948574 0.5
877 29 0.574453 0.988401 0.5
598 34 0.597869 0.963835 0.5
979 35 0.565861 0.95259 0.5
741 34 0.634654 0.977066 0.5
453 25 0.624591 0.947118 0.5
173 30 0.65509 0.945999 0.5
76 26 0.706063 0.976365 0.5
250 30 0.677242 0.969956 0.5
52 38 0.700821 0.942317 0.5
558 31 0.748421 0.983234 0.5
299 25 0.730471 0.957776 0.5
945 35 0.761602 0.949476 0.5
919 23 0.78055 0.978048 0.5
836 29 0.812588 0.979163 0.5
569 33 0.7957 0.945817 0.5
499 18 0.837113 0.992907 0.5
588 26 0.828468 0.953046 0.5
583 24 0.85079 0.970465 0.5
749 28 0.877711 0.957378 0.5
55 28 0.900375 0.977968 0.5
182 33 0.909169 0.946711 0.5
622 28 0.936168 0.963377 0.5
38 29 0.993504 0.980585 0.5
873 32 0.960949 0.98498 0.5
842 28 0.96697 0.951121 0.5
