ITEM: TIMESTEP
2100000
ITEM: NUMBER OF ATOMS
1000
ITEM: BOX BOUNDS pp pp pp
-1.6508578000000000e+01 1.6508578000000000e+01
-1.6508578000000000e+01 1.6508578000000000e+01
-5.0000000000000000e-01 5.0000000000000000e-01
ITEM: ATOMS id type xs ys zs
502 28 0.0199873 0.0156001 0.5
656 27 0.0418537 0.0364111 0.5
895 30 0.0110241 0.0450721 0.5
89 30 0.0532279 -0.000142467 0.5
33 30 0.0764431 0.0251787 0.5
846 32 0.101081 0.046166 0.5
987 32 0.111775 0.0151616 0.5
998 31 0.135318 0.0399308 0.5
328 27 0.145142 0.00383234 0.5
461 31 0.165851 0.0271317 0.5
505 31 0.196718 0.0166359 0.5
197 30 0.190429 0.0504406 0.5
466 35 0.224326 0.0386687 0.5
565 29 0.231905 0.00690826 0.5
721 29 0.257635 0.0323206 0.5
947 32 0.264764 -0.000355428 0.5
279 31 0.289855 0.0240467 0.5
490 31 0.323279 0.0169094 0.5
80 30 0.311155 0.0480314 0.5
255 30 0.345842 0.0406347 0.5
577 33 0.378782 0.0284973 0.5
380 34 0.35354 0.00444199 0.5
218 27 0.416026 0.0141998 0.5
168 33 0.407674 0.0469308 0.5
852 32 0.438738 0.0374912 0.5
835 31 0.470375 0.0301231 0.5
122 30 0.445759 0.0059972 0.5
58 29 0.493612 0.0545768 0.5
921 33 0.50135 0.0200823 0.5
409 30 0.523485 0.0439509 0.5
808 29 0.534312 0.00892923 0.5
934 28 0.560279 0.028084 0.5
451 31 0.591126 0.0192593 0.5
682 33 0.583514 0.0514921 0.5
31 27 0.616538 0.0437621 0.5
752 29 0.646248 0.0349373 0.5
824 31 0.625802 0.0106289 0.5
445 32 0.676395 0.0209701 0.5
704 32 0.703633 0.0441626 0.5
898 29 0.672551 0.0552633 0.5
655 30 0.712687 0.0136429 0.5
75 27 0.734528 0.0369653 0.5
749 29 0.762657 0.0591973 0.5
420 32 0.768801 0.0258334 0.5
76 29 0.805061 0.0168808 0.5
250 30 0.794548 0.0462793 0.5
926 32 0.830664 0.0405125 0.5
924 28 0.836816 0.00919181 0.5
243 31 0.861493 0.0291675 0.5
591 29 0.896501 0.0244617 0.5
483 29 0.918427 0.0459245 0.5
52 33 0.926953 0.0148379 0.5
484 32 0.882752 0.0532178 0.5
182 31 0.95325 0.0351521 0.5
397 31 0.984685 0.0243401 0.5
258 34 0.959529 0.00135848 0.5
332 29 0.0349055 0.0648584 0.5
940 29 0.00419679 0.0762613 0.5
229 31 0.0301872 0.0973678 0.5
663 31 0.0599811 0.0864896 0.5
378 31 0.0689531 0.055664 0.5
242 33 0.0927046 0.0790582 0.5
67 30 0.159952 0.0601009 0.5
920 30 0.123961 0.0703752 0.5
298 34 0.151758 0.0919476 0.5
685 30 0.120939 0.102168 0.5
498 30 0.183205 0.0830717 0.5
891 32 0.215631 0.0714541 0.5
754 31 0.207939 0.105716 0.5
516 34 0.248089 0.0642066 0.5
694 31 0.239678 0.0959905 0.5
37 30 0.275204 0.0882189 0.5
215 29 0.279493 0.053967 0.5
455 31 0.305775 0.0804599 0.5
180 31 0.369247 0.0621052 0.5
819 30 0.336764 0.0701978 0.5
811 29 0.364923 0.0934174 0.5
247 28 0.328373 0.101694 0.5
738 31 0.399013 0.0790682 0.5
374 32 0.430755 0.0732785 0.5
227 31 0.42054 0.105179 0.5
592 28 0.460853 0.0613476 0.5
673 29 0.454711 0.0949517 0.5
71 32 0.48752 0.0858607 0.5
473 31 0.518449 0.0751715 0.5
953 30 0.543761 0.0965991 0.5
203 34 0.513122 0.108004 0.5
844 31 0.551927 0.0587624 0.5
649 33 0.57394 0.0846252 0.5
961 30 0.599568 0.104503 0.5
467 31 0.607446 0.0732709 0.5
430 32 0.639052 0.065929 0.5
788 32 0.631051 0.0977394 0.5
178 27 0.664594 0.086195 0.5
107 30 0.696669 0.0785329 0.5
699 27 0.68799 0.109231 0.5
930 29 0.721847 0.0986923 0.5
301 33 0.731192 0.067915 0.5
305 30 0.753616 0.0913941 0.5
744 32 0.789259 0.0779517 0.5
715 27 0.821699 0.0716307 0.5
485 32 0.81407 0.103136 0.5
312 34 0.780955 0.111633 0.5
241 32 0.851819 0.0653933 0.5
986 30 0.84775 0.0979208 0.5
158 32 0.87813 0.08763 0.5
703 30 0.910244 0.0759724 0.5
63 30 0.93655 0.0993536 0.5
528 32 0.903278 0.109011 0.5
660 29 0.97757 0.0573013 0.5
990 34 0.943616 0.0673648 0.5
857 34 0.969883 0.0892677 0.5
365 29 0.0204833 0.129806 0.5
589 28 0.0411459 0.153925 0.5
379 29 0.057078 0.118083 0.5
676 31 0.0887069 0.111288 0.5
964 32 0.0771529 0.144819 0.5
155 30 0.111209 0.136552 0.5
976 27 0.144648 0.124854 0.5
712 30 0.135994 0.15719 0.5
614 30 0.166594 0.149899 0.5
448 31 0.174509 0.116078 0.5
770 35 0.199027 0.138172 0.5
290 31 0.230714 0.128038 0.5
813 30 0.26582 0.11917 0.5
517 33 0.258421 0.151093 0.5
903 31 0.300039 0.113657 0.5
442 32 0.292043 0.145435 0.5
81 29 0.328907 0.135016 0.5
193 29 0.357702 0.123513 0.5
511 33 0.352939 0.156662 0.5
487 30 0.384581 0.147913 0.5
996 29 0.388861 0.115561 0.5
325 31 0.414025 0.136192 0.5
802 32 0.443094 0.15757 0.5
559 31 0.478784 0.117044 0.5
927 31 0.445446 0.124317 0.5
991 31 0.475055 0.149287 0.5
493 28 0.504824 0.139249 0.5
871 30 0.536357 0.130809 0.5
763 32 0.530355 0.162933 0.5
896 30 0.569109 0.117582 0.5
14 30 0.562348 0.149264 0.5
607 33 0.598506 0.140172 0.5
551 30 0.658316 0.117634 0.5
104 28 0.630119 0.129016 0.5
795 33 0.653894 0.14967 0.5
492 34 0.62263 0.165175 0.5
16 31 0.685464 0.141333 0.5
413 29 0.709687 0.161524 0.5
425 31 0.715021 0.129215 0.5
737 32 0.747212 0.122565 0.5
307 31 0.743024 0.154527 0.5
317 33 0.774844 0.144847 0.5
779 33 0.806906 0.135844 0.5
677 34 0.801188 0.170816 0.5
211 26 0.834294 0.15576 0.5
408 29 0.87358 0.120681 0.5
499 26 0.838633 0.126508 0.5
994 30 0.867325 0.153389 0.5
138 31 0.898056 0.142951 0.5
561 31 0.928106 0.130799 0.5
270 31 0.922004 0.164704 0.5
208 31 0.995454 0.110471 0.5
838 27 0.954389 0.154409 0.5
356 28 0.961555 0.120904 0.5
569 31 0.989704 0.143212 0.5
939 33 0.0117479 0.167432 0.5
700 29 0.0344368 0.195267 0.5
249 32 0.00190694 0.200001 0.5
766 30 0.101272 0.167387 0.5
272 33 0.0618518 0.211808 0.5
170 32 0.0656778 0.176421 0.5
350 25 0.0893411 0.197435 0.5
143 30 0.121601 0.19186 0.5
97 27 0.157477 0.178655 0.5
662 31 0.15107 0.208462 0.5
513 29 0.191553 0.169546 0.5
18 35 0.20945 0.198885 0.5
216 35 0.225816 0.167725 0.5
245 27 0.254421 0.183776 0.5
488 29 0.24065 0.211358 0.5
706 31 0.319059 0.165669 0.5
367 29 0.286061 0.176716 0.5
564 29 0.30847 0.197479 0.5
385 31 0.272559 0.21328 0.5
389 34 0.341325 0.192147 0.5
280 34 0.378029 0.180939 0.5
169 27 0.365998 0.211938 0.5
847 33 0.410548 0.168615 0.5
809 29 0.404751 0.201222 0.5
239 32 0.435374 0.191466 0.5
274 29 0.467454 0.181519 0.5
464 30 0.490336 0.207382 0.5
414 32 0.45787 0.215188 0.5
181 31 0.498613 0.170655 0.5
372 29 0.520025 0.194819 0.5
957 33 0.546996 0.214572 0.5
845 29 0.556498 0.180384 0.5
900 28 0.585331 0.172756 0.5
646 29 0.579565 0.209012 0.5
769 30 0.613605 0.198529 0.5
944 30 0.648336 0.185123 0.5
174 31 0.642808 0.216198 0.5
799 29 0.678732 0.175678 0.5
568 31 0.6753 0.207028 0.5
358 29 0.704215 0.192324 0.5
57 31 0.7368 0.187487 0.5
103 31 0.768035 0.180841 0.5
761 30 0.758979 0.21308 0.5
582 30 0.724512 0.216675 0.5
603 30 0.791353 0.20465 0.5
100 32 0.825274 0.194579 0.5
644 30 0.855549 0.183373 0.5
530 30 0.85268 0.214782 0.5
768 31 0.884241 0.204868 0.5
653 28 0.8911 0.174296 0.5
938 27 0.914487 0.194886 0.5
574 27 0.938039 0.212723 0.5
68 31 0.949283 0.184807 0.5
933 30 0.979862 0.175615 0.5
382 33 0.968877 0.217379 0.5
733 33 0.0278128 0.228949 0.5
661 30 0.00391743 0.261584 0.5
115 27 -0.00330726 0.231126 0.5
310 32 0.0409785 0.270487 0.5
705 30 0.0920345 0.227794 0.5
849 32 0.0667648 0.246935 0.5
2 30 0.0735871 0.278315 0.5
648 28 0.097012 0.258375 0.5
936 28 0.122343 0.223894 0.5
210 29 0.129396 0.260327 0.5
199 33 0.155556 0.240493 0.5
252 32 0.181921 0.218411 0.5
787 29 0.190044 0.253155 0.5
66 31 0.21754 0.23304 0.5
596 29 0.248962 0.242581 0.5
130 30 0.225224 0.26425 0.5
54 30 0.278018 0.254852 0.5
403 28 0.299617 0.229185 0.5
597 28 0.308765 0.258244 0.5
469 33 0.331263 0.225007 0.5
966 28 0.363303 0.24265 0.5
171 32 0.342842 0.267081 0.5
608 30 0.424219 0.232678 0.5
132 31 0.392452 0.22965 0.5
28 29 0.401008 0.260092 0.5
995 28 0.429887 0.266822 0.5
856 29 0.453056 0.247273 0.5
671 28 0.484504 0.250199 0.5
73 31 0.515196 0.229807 0.5
621 29 0.515887 0.262956 0.5
753 31 0.544015 0.246667 0.5
440 34 0.577451 0.248617 0.5
402 33 0.606589 0.231961 0.5
114 28 0.61297 0.269672 0.5
914 28 0.635608 0.248955 0.5
497 31 0.646254 0.28071 0.5
457 33 0.671559 0.257652 0.5
950 31 0.694493 0.234151 0.5
834 31 0.704742 0.267237 0.5
225 32 0.730744 0.247461 0.5
121 31 0.763129 0.259082 0.5
112 28 0.738607 0.283251 0.5
217 31 0.814975 0.231515 0.5
508 29 0.783472 0.235331 0.5
94 28 0.791668 0.268156 0.5
580 29 0.82378 0.269818 0.5
742 31 0.844501 0.246322 0.5
912 34 0.879599 0.250298 0.5
393 34 0.857319 0.276962 0.5
571 36 0.909341 0.229393 0.5
329 32 0.920744 0.261778 0.5
832 35 0.89414 0.284364 0.5
855 31 0.946564 0.241918 0.5
106 26 0.974039 0.254861 0.5
529 30 0.94963 0.276245 0.5
803 31 0.01729 0.294159 0.5
886 29 0.0491916 0.30137 0.5
776 31 0.0220874 0.327139 0.5
762 31 0.0797105 0.311487 0.5
346 30 0.109621 0.28767 0.5
545 34 0.112882 0.321108 0.5
729 27 0.139028 0.299594 0.5
24 30 0.157272 0.274997 0.5
202 34 0.174778 0.306909 0.5
120 30 0.199572 0.284258 0.5
429 29 0.206135 0.318083 0.5
124 29 0.25564 0.276614 0.5
140 30 0.230522 0.297988 0.5
736 28 0.261099 0.307208 0.5
815 30 0.286239 0.285196 0.5
837 31 0.317443 0.29086 0.5
260 30 0.292814 0.316043 0.5
967 28 0.326036 0.326482 0.5
823 30 0.374521 0.276019 0.5
902 30 0.347154 0.303583 0.5
756 30 0.377442 0.313655 0.5
427 31 0.402567 0.292054 0.5
96 30 0.437023 0.298328 0.5
376 34 0.415862 0.324778 0.5
273 29 0.462764 0.275997 0.5
701 33 0.492955 0.286966 0.5
664 31 0.469164 0.31083 0.5
841 31 0.503443 0.319693 0.5
90 34 0.526128 0.294324 0.5
728 32 0.554987 0.276962 0.5
232 29 0.558666 0.30868 0.5
434 28 0.589386 0.290362 0.5
888 29 0.591744 0.321016 0.5
263 30 0.621234 0.300286 0.5
645 31 0.65127 0.312281 0.5
452 32 0.623185 0.332424 0.5
91 28 0.681566 0.289845 0.5
424 27 0.710202 0.298199 0.5
368 31 0.684725 0.320586 0.5
251 31 0.715443 0.330961 0.5
666 31 0.76887 0.290197 0.5
988 26 0.745607 0.312283 0.5
637 29 0.778686 0.320354 0.5
887 31 0.801046 0.298161 0.5
963 29 0.813465 0.328213 0.5
265 35 0.835241 0.303734 0.5
797 31 0.86932 0.309594 0.5
521 31 0.899961 0.318709 0.5
456 31 0.925837 0.297192 0.5
615 29 0.929395 0.328847 0.5
377 29 0.981592 0.283874 0.5
611 33 0.957717 0.308194 0.5
353 30 0.991578 0.313866 0.5
27 32 0.0323776 0.357364 0.5
923 32 0.0063715 0.380982 0.5
345 31 0.0560468 0.333053 0.5
177 28 0.0635094 0.364715 0.5
244 30 0.0863748 0.342338 0.5
283 33 0.0922431 0.378418 0.5
618 33 0.147066 0.330896 0.5
557 33 0.117724 0.354871 0.5
751 28 0.146948 0.365945 0.5
652 35 0.179224 0.346272 0.5
407 29 0.1855 0.379205 0.5
369 32 0.212782 0.349574 0.5
881 29 0.240708 0.329299 0.5
720 30 0.268795 0.342795 0.5
84 29 0.242943 0.359855 0.5
672 31 0.273445 0.375902 0.5
293 33 0.301871 0.34726 0.5
196 31 0.30692 0.380605 0.5
897 31 0.332276 0.359197 0.5
794 31 0.356315 0.337428 0.5
935 28 0.364792 0.372387 0.5
87 30 0.390132 0.345598 0.5
668 27 0.420133 0.359132 0.5
167 29 0.394773 0.377637 0.5
651 28 0.445141 0.33803 0.5
400 32 0.45473 0.367809 0.5
144 32 0.478634 0.343743 0.5
707 37 0.487634 0.37741 0.5
296 30 0.533761 0.328823 0.5
357 33 0.511 0.351742 0.5
581 27 0.543675 0.360349 0.5
458 33 0.519526 0.389473 0.5
77 26 0.567492 0.342965 0.5
491 30 0.57312 0.378475 0.5
949 32 0.599008 0.357351 0.5
348 29 0.630712 0.364523 0.5
4 31 0.611043 0.389049 0.5
278 32 0.65976 0.343106 0.5
500 35 0.666596 0.376422 0.5
587 33 0.691827 0.353493 0.5
593 28 0.699524 0.387727 0.5
309 32 0.725028 0.363502 0.5
72 28 0.751675 0.341782 0.5
874 33 0.756763 0.372903 0.5
384 35 0.784873 0.35331 0.5
674 29 0.817335 0.364329 0.5
21 31 0.78736 0.386341 0.5
44 32 0.843671 0.33834 0.5
745 32 0.876222 0.343808 0.5
980 29 0.848891 0.36995 0.5
12 32 0.882085 0.375747 0.5
806 29 0.907399 0.35145 0.5
363 28 0.93809 0.362717 0.5
859 34 0.914345 0.386577 0.5
418 32 0.996617 0.347502 0.5
606 32 0.963645 0.341047 0.5
6 24 0.972774 0.371918 0.5
544 29 0.0361741 0.391678 0.5
288 33 0.0427875 0.42351 0.5
375 30 0.0108514 0.414855 0.5
141 31 0.0665119 0.399683 0.5
698 27 0.0758128 0.431397 0.5
548 33 0.101397 0.411307 0.5
259 26 0.126499 0.392556 0.5
233 29 0.137111 0.421919 0.5
542 31 0.157644 0.395622 0.5
781 30 0.168422 0.431573 0.5
326 36 0.218679 0.386366 0.5
686 30 0.194569 0.410448 0.5
851 31 0.252139 0.399224 0.5
405 30 0.22636 0.421659 0.5
8 28 0.261075 0.433526 0.5
586 35 0.284575 0.407798 0.5
234 32 0.317342 0.415654 0.5
687 31 0.293584 0.439836 0.5
631 30 0.340766 0.393782 0.5
882 33 0.349597 0.427279 0.5
532 30 0.375809 0.404274 0.5
331 29 0.381868 0.43613 0.5
885 28 0.431178 0.392027 0.5
785 32 0.406723 0.412334 0.5
563 33 0.437969 0.423896 0.5
333 30 0.461837 0.399605 0.5
36 33 0.492015 0.413378 0.5
162 31 0.469907 0.438525 0.5
734 31 0.523722 0.42421 0.5
228 29 0.500567 0.447371 0.5
201 32 0.550051 0.405298 0.5
658 33 0.561151 0.438334 0.5
977 33 0.582552 0.410862 0.5
692 29 0.592418 0.447175 0.5
626 32 0.643846 0.401121 0.5
893 30 0.614793 0.42226 0.5
549 30 0.651458 0.432367 0.5
125 30 0.674398 0.408774 0.5
866 30 0.706687 0.416981 0.5
870 30 0.68078 0.441836 0.5
206 31 0.730554 0.396936 0.5
404 31 0.737916 0.427367 0.5
531 29 0.761895 0.404733 0.5
431 31 0.771195 0.438126 0.5
360 25 0.823222 0.397093 0.5
892 27 0.798566 0.419686 0.5
426 27 0.838161 0.422184 0.5
416 32 0.860085 0.400044 0.5
443 29 0.865682 0.434994 0.5
166 30 0.891008 0.41057 0.5
156 28 0.926013 0.417857 0.5
540 32 0.90144 0.440834 0.5
901 33 0.947543 0.39328 0.5
879 32 0.957676 0.425456 0.5
85 27 0.980616 0.403176 0.5
438 29 0.990573 0.438383 0.5
973 27 0.0214984 0.447098 0.5
983 31 0.0247376 0.481935 0.5
553 31 0.0521545 0.454709 0.5
723 30 0.0569131 0.486845 0.5
962 37 0.111473 0.444145 0.5
911 30 0.0834077 0.466255 0.5
191 33 0.0926342 0.497799 0.5
713 33 0.120465 0.477642 0.5
512 31 0.143024 0.454915 0.5
791 29 0.151062 0.487264 0.5
336 33 0.200882 0.443884 0.5
428 29 0.17692 0.466917 0.5
792 31 0.207274 0.479114 0.5
917 34 0.233413 0.454643 0.5
179 31 0.240474 0.487248 0.5
750 31 0.270724 0.463963 0.5
541 31 0.325353 0.449468 0.5
22 32 0.299986 0.475582 0.5
929 32 0.332363 0.482128 0.5
616 30 0.356894 0.460137 0.5
534 32 0.367979 0.493645 0.5
848 30 0.389064 0.46939 0.5
786 34 0.413983 0.447587 0.5
783 29 0.41865 0.480576 0.5
965 30 0.444331 0.460539 0.5
690 29 0.481247 0.473348 0.5
620 29 0.454858 0.49658 0.5
665 35 0.533359 0.457435 0.5
875 32 0.512031 0.48487 0.5
476 27 0.546965 0.492459 0.5
133 31 0.569157 0.471049 0.5
421 32 0.601181 0.478841 0.5
504 34 0.624493 0.453428 0.5
306 29 0.632054 0.487172 0.5
730 31 0.657464 0.466296 0.5
727 33 0.712597 0.448873 0.5
899 27 0.689779 0.471437 0.5
23 29 0.661561 0.497894 0.5
17 29 0.722222 0.479858 0.5
157 31 0.748651 0.461649 0.5
101 29 0.756607 0.493 0.5
821 29 0.806186 0.449134 0.5
176 31 0.781776 0.469133 0.5
383 32 0.816461 0.479791 0.5
952 32 0.840511 0.454531 0.5
277 29 0.850367 0.486968 0.5
165 27 0.879806 0.464416 0.5
679 35 0.883497 0.497283 0.5
566 31 0.933696 0.448714 0.5
829 28 0.910304 0.473025 0.5
47 31 0.940906 0.480168 0.5
519 28 0.99475 0.471456 0.5
343 32 0.965662 0.458662 0.5
39 29 0.974004 0.493883 0.5
471 28 0.0375628 0.513278 0.5
480 29 0.0421172 0.546088 0.5
41 31 0.0112445 0.539572 0.5
533 32 0.00434541 0.507505 0.5
313 32 0.0686786 0.519705 0.5
575 31 0.0995786 0.530033 0.5
188 31 0.0738679 0.553377 0.5
716 30 0.127559 0.510756 0.5
807 27 0.134145 0.542911 0.5
600 33 0.158158 0.521122 0.5
503 33 0.170509 0.55327 0.5
555 30 0.180394 0.497529 0.5
764 33 0.218877 0.513852 0.5
959 29 0.190444 0.527994 0.5
971 26 0.226674 0.544278 0.5
985 28 0.275578 0.496523 0.5
812 29 0.252891 0.516906 0.5
872 34 0.283642 0.528751 0.5
111 30 0.308655 0.507098 0.5
26 34 0.318098 0.539294 0.5
7 32 0.342251 0.513901 0.5
550 28 0.377169 0.52669 0.5
154 30 0.350448 0.545551 0.5
51 31 0.399123 0.504731 0.5
556 30 0.428775 0.514752 0.5
693 30 0.406469 0.537315 0.5
636 27 0.435881 0.5477 0.5
709 30 0.485057 0.506171 0.5
105 31 0.461442 0.527761 0.5
412 30 0.49148 0.536866 0.5
740 32 0.519285 0.516685 0.5
126 31 0.552585 0.527901 0.5
423 32 0.524018 0.549322 0.5
175 36 0.577151 0.504575 0.5
446 30 0.581562 0.541695 0.5
394 30 0.609372 0.512188 0.5
349 35 0.615088 0.545643 0.5
65 31 0.641127 0.524846 0.5
771 28 0.65 0.554603 0.5
1000 33 0.696816 0.502074 0.5
688 29 0.674098 0.526832 0.5
324 34 0.706112 0.534623 0.5
83 31 0.729616 0.511777 0.5
590 28 0.767748 0.521738 0.5
9 29 0.740577 0.545516 0.5
267 29 0.773946 0.552404 0.5
478 30 0.79243 0.500642 0.5
70 29 0.826112 0.511377 0.5
136 33 0.800447 0.532759 0.5
110 30 0.832128 0.543241 0.5
999 33 0.857506 0.522897 0.5
364 31 0.890445 0.530766 0.5
968 33 0.918142 0.503979 0.5
867 33 0.924034 0.537258 0.5
822 32 0.949616 0.514489 0.5
633 30 0.977925 0.529519 0.5
632 30 0.953 0.551519 0.5
579 29 0.0187679 0.572312 0.5
960 34 0.0510263 0.577511 0.5
294 30 0.0269003 0.604552 0.5
725 34 0.0842885 0.587825 0.5
918 34 0.107393 0.561815 0.5
212 28 0.117748 0.595199 0.5
951 30 0.142792 0.572797 0.5
190 34 0.149523 0.605123 0.5
422 30 0.176999 0.585113 0.5
793 30 0.200766 0.565074 0.5
472 29 0.20588 0.597586 0.5
628 31 0.259213 0.552357 0.5
748 32 0.231665 0.575743 0.5
524 32 0.265632 0.585641 0.5
450 28 0.24093 0.607045 0.5
60 29 0.290815 0.561957 0.5
972 30 0.297235 0.593254 0.5
826 30 0.320737 0.572337 0.5
129 33 0.330786 0.604141 0.5
594 32 0.38016 0.558868 0.5
410 34 0.355337 0.580186 0.5
29 30 0.385957 0.59325 0.5
702 29 0.412877 0.569171 0.5
928 31 0.416891 0.603985 0.5
506 33 0.442203 0.583134 0.5
361 31 0.467984 0.562532 0.5
486 33 0.474182 0.59483 0.5
92 29 0.499144 0.570152 0.5
765 28 0.531798 0.580421 0.5
266 32 0.505833 0.6084 0.5
303 30 0.555423 0.559844 0.5
40 34 0.563617 0.593663 0.5
11 33 0.59106 0.572296 0.5
560 30 0.598514 0.605385 0.5
595 32 0.62349 0.578531 0.5
128 31 0.658428 0.586885 0.5
864 28 0.634138 0.608232 0.5
691 34 0.681741 0.559217 0.5
347 36 0.715723 0.568536 0.5
281 28 0.690647 0.590247 0.5
805 29 0.729535 0.598883 0.5
760 29 0.750076 0.574905 0.5
981 30 0.760385 0.604258 0.5
772 31 0.783767 0.582207 0.5
289 27 0.808415 0.562944 0.5
910 30 0.813568 0.593794 0.5
264 31 0.865921 0.554431 0.5
578 30 0.839057 0.575026 0.5
974 29 0.869716 0.58591 0.5
35 33 0.843663 0.606925 0.5
282 29 0.896379 0.563504 0.5
625 31 0.903869 0.595257 0.5
906 34 0.927599 0.572183 0.5
584 28 0.940771 0.603143 0.5
784 29 0.987356 0.559521 0.5
135 30 0.964936 0.581053 0.5
585 31 0.995645 0.593773 0.5
818 28 0.0304791 0.638404 0.5
861 32 0.00343517 0.662532 0.5
862 28 0.00159623 0.631248 0.5
187 32 0.0583313 0.612399 0.5
495 31 0.0615579 0.645624 0.5
916 28 0.0875553 0.623908 0.5
868 34 0.0974809 0.659378 0.5
95 31 0.118263 0.631995 0.5
854 29 0.150715 0.638187 0.5
641 30 0.177114 0.622335 0.5
789 29 0.191035 0.658061 0.5
680 30 0.207489 0.62965 0.5
145 28 0.222269 0.658353 0.5
925 27 0.269505 0.618164 0.5
1 29 0.244984 0.637307 0.5
465 29 0.275795 0.647535 0.5
833 31 0.300102 0.626065 0.5
624 28 0.306308 0.656844 0.5
942 28 0.330185 0.63699 0.5
948 33 0.361292 0.618979 0.5
804 30 0.368058 0.65226 0.5
287 33 0.393982 0.629013 0.5
275 31 0.423582 0.642941 0.5
956 32 0.446332 0.617991 0.5
25 31 0.479608 0.627632 0.5
796 29 0.454886 0.651358 0.5
732 30 0.484974 0.659128 0.5
300 33 0.54125 0.618737 0.5
20 32 0.513874 0.640158 0.5
814 31 0.548694 0.663198 0.5
619 31 0.574504 0.626548 0.5
411 31 0.580465 0.660376 0.5
767 34 0.61022 0.636396 0.5
432 30 0.646998 0.639008 0.5
908 27 0.670603 0.620219 0.5
470 30 0.671507 0.659073 0.5
311 29 0.702753 0.62005 0.5
321 31 0.70394 0.653055 0.5
195 33 0.733647 0.633786 0.5
904 32 0.766423 0.636893 0.5
137 32 0.792163 0.617504 0.5
42 35 0.794449 0.656428 0.5
118 29 0.822695 0.631793 0.5
341 28 0.878253 0.618012 0.5
338 30 0.853414 0.638815 0.5
778 28 0.882145 0.653563 0.5
381 31 0.910523 0.627169 0.5
295 32 0.942171 0.636687 0.5
322 27 0.915169 0.658414 0.5
601 31 0.970298 0.614417 0.5
134 32 0.973187 0.647194 0.5
271 30 0.0354321 0.672464 0.5
946 30 0.0387362 0.703826 0.5
675 29 0.00708969 0.695069 0.5
514 28 -0.0155387 0.717201 0.5
684 28 0.0669156 0.677538 0.5
546 31 0.0946973 0.692931 0.5
231 31 0.0746174 0.718106 0.5
109 35 0.128996 0.674913 0.5
790 31 0.150129 0.702939 0.5
401 28 0.118406 0.71349 0.5
441 30 0.161191 0.66833 0.5
447 33 0.182055 0.694502 0.5
696 29 0.210409 0.720986 0.5
869 31 0.215643 0.688897 0.5
830 30 0.252777 0.670628 0.5
718 26 0.243323 0.703281 0.5
204 32 0.28248 0.681904 0.5
714 30 0.316843 0.68684 0.5
475 29 0.301238 0.713699 0.5
954 28 0.34176 0.668892 0.5
32 27 0.345104 0.699295 0.5
117 31 0.372502 0.684663 0.5
48 28 0.391966 0.708414 0.5
722 32 0.399123 0.664318 0.5
13 31 0.432804 0.673365 0.5
543 32 0.425379 0.704889 0.5
958 27 0.45571 0.696836 0.5
186 31 0.486657 0.690939 0.5
388 29 0.480735 0.721798 0.5
246 32 0.514312 0.673954 0.5
406 30 0.512833 0.708717 0.5
79 33 0.542688 0.695356 0.5
840 29 0.574474 0.692545 0.5
572 32 0.599177 0.713891 0.5
209 29 0.605765 0.679648 0.5
481 30 0.636572 0.669281 0.5
825 33 0.631238 0.70292 0.5
638 37 0.666257 0.692402 0.5
915 29 0.698824 0.684985 0.5
297 30 0.729544 0.675436 0.5
323 30 0.760703 0.6698 0.5
816 31 0.752155 0.701518 0.5
850 28 0.721418 0.710766 0.5
711 32 0.823979 0.676444 0.5
43 32 0.790672 0.68991 0.5
573 30 0.816326 0.710922 0.5
454 31 0.777386 0.721704 0.5
853 26 0.859099 0.673439 0.5
997 32 0.847803 0.70314 0.5
46 32 0.886558 0.688397 0.5
654 28 0.919288 0.688932 0.5
163 28 0.905787 0.715099 0.5
392 30 0.944128 0.668889 0.5
318 32 0.946849 0.704509 0.5
276 32 0.975414 0.684721 0.5
489 27 0.0126603 0.726662 0.5
643 29 0.0474921 0.766539 0.5
630 31 0.0452182 0.735153 0.5
269 31 0.0124269 0.768863 0.5
757 34 0.078595 0.75368 0.5
237 32 0.11395 0.745905 0.5
398 33 0.145684 0.736809 0.5
477 31 0.139017 0.769378 0.5
359 32 0.178006 0.72924 0.5
777 29 0.169205 0.760333 0.5
913 30 0.203628 0.754957 0.5
205 29 0.270184 0.716784 0.5
344 27 0.238045 0.733108 0.5
151 33 0.265779 0.748619 0.5
970 27 0.234089 0.765652 0.5
86 30 0.333245 0.733156 0.5
116 27 0.299733 0.74471 0.5
989 32 0.322128 0.766992 0.5
634 25 0.365153 0.72392 0.5
284 32 0.355564 0.755427 0.5
909 29 0.388198 0.747665 0.5
152 32 0.418543 0.740391 0.5
352 29 0.410445 0.771338 0.5
883 33 0.443486 0.762283 0.5
62 30 0.448371 0.727692 0.5
286 31 0.476122 0.752705 0.5
226 31 0.497879 0.776352 0.5
371 30 0.505656 0.740981 0.5
758 27 0.53525 0.735383 0.5
45 30 0.529494 0.766841 0.5
370 33 0.565048 0.724893 0.5
386 33 0.562483 0.758679 0.5
479 26 0.597709 0.74459 0.5
547 32 0.590971 0.776196 0.5
820 30 0.65499 0.726068 0.5
526 30 0.622125 0.765186 0.5
604 27 0.624465 0.733822 0.5
773 26 0.653116 0.759768 0.5
437 31 0.691721 0.7223 0.5
800 27 0.681486 0.752117 0.5
978 27 0.716517 0.743334 0.5
993 30 0.708427 0.773092 0.5
520 31 0.739815 0.763923 0.5
932 29 0.747795 0.73347 0.5
522 33 0.772198 0.753758 0.5
108 32 0.803129 0.741536 0.5
50 31 0.798562 0.774759 0.5
463 29 0.82858 0.762641 0.5
119 30 0.876169 0.724358 0.5
635 27 0.840188 0.734142 0.5
683 32 0.862893 0.755397 0.5
599 32 0.926249 0.739111 0.5
64 31 0.895562 0.749249 0.5
678 30 0.919177 0.77131 0.5
695 27 0.958438 0.733458 0.5
612 29 0.950349 0.76301 0.5
605 28 0.988589 0.747846 0.5
98 32 0.0404623 0.797865 0.5
88 35 0.00554331 0.804004 0.5
240 30 0.0307102 0.829516 0.5
876 31 0.103783 0.776656 0.5
889 29 0.0646818 0.818873 0.5
149 29 0.0710232 0.786794 0.5
308 29 0.0945671 0.807645 0.5
969 30 0.132203 0.802621 0.5
435 28 0.155729 0.825957 0.5
146 28 0.162094 0.792885 0.5
726 30 0.191742 0.784847 0.5
827 35 0.189818 0.818491 0.5
724 34 0.222759 0.796065 0.5
19 30 0.257713 0.789145 0.5
160 30 0.249511 0.819984 0.5
82 32 0.284367 0.807851 0.5
460 32 0.28855 0.775387 0.5
10 30 0.314266 0.798288 0.5
15 32 0.338401 0.822224 0.5
74 32 0.347866 0.789488 0.5
399 32 0.378527 0.778022 0.5
639 27 0.370597 0.809552 0.5
717 30 0.435097 0.792816 0.5
576 31 0.402561 0.803418 0.5
640 33 0.429689 0.825566 0.5
602 28 0.467817 0.785052 0.5
417 28 0.460076 0.815244 0.5
99 28 0.489773 0.807731 0.5
667 29 0.520032 0.79918 0.5
735 29 0.546715 0.821527 0.5
222 31 0.514833 0.830351 0.5
863 29 0.551016 0.789939 0.5
198 32 0.577262 0.808242 0.5
59 28 0.601518 0.82973 0.5
69 32 0.614375 0.800809 0.5
979 32 0.643968 0.78894 0.5
755 28 0.640705 0.82005 0.5
3 32 0.676936 0.783262 0.5
189 23 0.673438 0.814797 0.5
337 30 0.702178 0.808517 0.5
335 32 0.764928 0.787059 0.5
327 31 0.731892 0.795361 0.5
49 29 0.760465 0.821092 0.5
562 33 0.728054 0.828228 0.5
184 29 0.793505 0.807523 0.5
782 29 0.81933 0.834367 0.5
354 32 0.823076 0.795168 0.5
373 32 0.847664 0.818879 0.5
123 25 0.853285 0.784402 0.5
878 31 0.884445 0.780731 0.5
142 31 0.880848 0.812906 0.5
319 30 0.91177 0.804084 0.5
955 29 0.937291 0.82753 0.5
200 32 0.978467 0.777886 0.5
93 35 0.945883 0.79577 0.5
474 29 0.971207 0.817952 0.5
236 35 0.0217475 0.862218 0.5
254 31 -0.00310247 0.835944 0.5
510 32 0.057126 0.849866 0.5
839 29 0.0879132 0.840277 0.5
515 30 0.0824301 0.872053 0.5
613 29 0.0501373 0.881084 0.5
539 31 0.118423 0.831601 0.5
223 26 0.114279 0.861825 0.5
224 30 0.145015 0.855848 0.5
468 29 0.220117 0.830758 0.5
747 28 0.172141 0.877764 0.5
801 29 0.176814 0.848341 0.5
351 31 0.207564 0.866491 0.5
342 34 0.239478 0.858675 0.5
617 32 0.272431 0.842707 0.5
554 30 0.264369 0.880456 0.5
320 32 0.307038 0.834629 0.5
439 29 0.29619 0.867828 0.5
552 30 0.329332 0.860706 0.5
739 35 0.363497 0.845491 0.5
127 27 0.354737 0.879885 0.5
419 32 0.389667 0.868117 0.5
53 32 0.398312 0.836236 0.5
220 30 0.423865 0.860369 0.5
449 29 0.444336 0.884045 0.5
235 32 0.454338 0.851054 0.5
627 31 0.483473 0.837458 0.5
670 32 0.476065 0.875698 0.5
507 30 0.505481 0.861344 0.5
391 28 0.540832 0.852657 0.5
941 30 0.530919 0.885414 0.5
535 28 0.569566 0.843114 0.5
291 29 0.567145 0.875393 0.5
390 31 0.595065 0.861599 0.5
268 36 0.62815 0.854965 0.5
877 30 0.653704 0.878564 0.5
817 33 0.61861 0.889524 0.5
304 29 0.661497 0.844673 0.5
292 30 0.692012 0.838195 0.5
139 30 0.687718 0.872178 0.5
153 33 0.719478 0.862214 0.5
482 30 0.751057 0.85271 0.5
774 32 0.743248 0.885189 0.5
669 34 0.778472 0.87418 0.5
30 31 0.788035 0.839227 0.5
185 33 0.810727 0.866048 0.5
302 29 0.841014 0.857049 0.5
697 33 0.872126 0.847642 0.5
221 27 0.862953 0.881467 0.5
570 32 0.833284 0.890823 0.5
496 30 0.905844 0.836019 0.5
759 33 0.894579 0.871503 0.5
285 30 0.929855 0.858965 0.5
810 31 0.961582 0.847993 0.5
56 29 0.986056 0.869729 0.5
880 34 0.954578 0.879974 0.5
689 30 0.0117893 0.892779 0.5
238 28 0.0372004 0.911796 0.5
931 30 0.00249705 0.924379 0.5
396 31 0.07138 0.906096 0.5
873 31 0.0958873 0.927143 0.5
905 30 0.0602879 0.935483 0.5
194 31 0.137571 0.886934 0.5
161 29 0.10628 0.892351 0.5
518 30 0.130704 0.918561 0.5
894 29 0.156596 0.942999 0.5
433 28 0.16175 0.908329 0.5
992 33 0.196728 0.898444 0.5
207 31 0.186686 0.931572 0.5
610 30 0.229599 0.890507 0.5
865 27 0.219948 0.921675 0.5
647 30 0.256977 0.911867 0.5
213 31 0.28197 0.934414 0.5
567 30 0.318772 0.890581 0.5
315 30 0.287997 0.900116 0.5
775 32 0.313162 0.923033 0.5
387 30 0.347446 0.908924 0.5
257 32 0.380412 0.901305 0.5
316 34 0.371958 0.93366 0.5
5 32 0.411832 0.893294 0.5
330 29 0.403455 0.924893 0.5
860 30 0.435258 0.918388 0.5
731 32 0.466081 0.909691 0.5
150 34 0.491823 0.930096 0.5
230 31 0.461397 0.942203 0.5
657 28 0.500274 0.896038 0.5
525 29 0.522969 0.919836 0.5
890 32 0.547002 0.944634 0.5
937 31 0.554265 0.910037 0.5
362 31 0.587754 0.899954 0.5
523 27 0.577284 0.933254 0.5
537 29 0.610357 0.923473 0.5
192 33 0.645976 0.910327 0.5
444 32 0.638447 0.943216 0.5
609 30 0.711052 0.895526 0.5
102 27 0.670206 0.932908 0.5
366 30 0.677689 0.902134 0.5
395 29 0.7029 0.925569 0.5
708 29 0.734312 0.917104 0.5
741 32 0.767392 0.909145 0.5
453 28 0.757677 0.94031 0.5
253 30 0.727507 0.947073 0.5
147 30 0.801774 0.900701 0.5
746 28 0.793656 0.930849 0.5
681 28 0.825014 0.921798 0.5
843 32 0.856006 0.91596 0.5
975 29 0.881601 0.936536 0.5
945 32 0.848707 0.947342 0.5
558 31 0.921974 0.892922 0.5
314 31 0.88717 0.903614 0.5
334 32 0.913488 0.927214 0.5
299 28 0.946057 0.91186 0.5
501 32 0.97728 0.904803 0.5
219 29 0.971746 0.936803 0.5
113 32 0.0276578 0.951006 0.5
922 33 0.0245467 0.984085 0.5
436 31 -0.00291417 0.961533 0.5
164 32 0.0840496 0.992449 0.5
34 31 0.0559105 0.966919 0.5
943 36 0.0898722 0.960037 0.5
262 31 0.116318 0.980999 0.5
248 28 0.122304 0.950027 0.5
38 30 0.149739 0.974223 0.5
172 26 0.174787 0.992731 0.5
642 31 0.181661 0.963087 0.5
828 30 0.212091 0.953087 0.5
538 32 0.205629 0.985338 0.5
261 33 0.244848 0.941709 0.5
710 33 0.242523 0.975137 0.5
61 31 0.277268 0.967815 0.5
459 33 0.309139 0.956956 0.5
339 33 0.300865 0.993327 0.5
462 30 0.3326 0.979632 0.5
131 29 0.34159 0.94586 0.5
907 29 0.364353 0.970178 0.5
743 31 0.387186 0.994665 0.5
984 31 0.427152 0.949869 0.5
659 32 0.395642 0.958436 0.5
884 33 0.419546 0.982331 0.5
536 29 0.47585 0.997912 0.5
623 33 0.451948 0.974062 0.5
148 32 0.485788 0.962984 0.5
831 30 0.515755 0.952578 0.5
650 30 0.510523 0.987232 0.5
494 27 0.538246 0.975481 0.5
256 32 0.565906 0.997101 0.5
78 26 0.608361 0.952863 0.5
798 32 0.578489 0.965858 0.5
982 31 0.600975 0.989328 0.5
629 28 0.654083 0.997848 0.5
598 32 0.631148 0.975186 0.5
355 31 0.662437 0.965448 0.5
159 32 0.693025 0.955787 0.5
214 32 0.684953 0.989712 0.5
173 30 0.743131 1.00684 0.5
509 29 0.717212 0.982693 0.5
340 27 0.747268 0.969922 0.5
583 28 0.775573 0.994909 0.5
415 28 0.816584 0.954232 0.5
836 30 0.780763 0.962228 0.5
858 31 0.809123 0.984697 0.5
719 27 0.871484 0.998687 0.5
527 30 0.841287 0.978112 0.5
55 29 0.875303 0.966741 0.5
588 29 0.903352 0.992932 0.5
842 29 0.905873 0.957785 0.5
919 28 0.931613 0.974051 0.5
183 29 0.941243 0.94339 0.5
622 30 0.991752 0.992727 0.5
780 30 0.964176 0.966881 0.5
