ITEM: TIMESTEP
2000000
ITEM: NUMBER OF ATOMS
1000
ITEM: BOX BOUNDS pp pp pp
-1.6508578000000000e+01 1.6508578000000000e+01
-1.6508578000000000e+01 1.6508578000000000e+01
-5.0000000000000000e-01 5.0000000000000000e-01
ITEM: ATOMS id type xs ys zs
502 28 0.00997194 0.0125209 0.5
656 27 0.0369343 0.0363803 0.5
89 30 0.0430839 0.00552605 0.5
895 30 0.00493335 0.0437692 0.5
33 30 0.0669083 0.0286472 0.5
846 32 0.094364 0.0524662 0.5
987 32 0.0988656 0.0196224 0.5
998 31 0.124598 0.0391908 0.5
461 31 0.160626 0.0302398 0.5
328 27 0.134348 0.00913081 0.5
172 26 0.16097 -0.00422867 0.5
505 31 0.19185 0.0204011 0.5
197 30 0.184161 0.0514309 0.5
466 35 0.217084 0.0431435 0.5
565 29 0.221979 0.0111308 0.5
721 29 0.248845 0.0350925 0.5
947 32 0.258662 0.00248627 0.5
279 31 0.279207 0.0267312 0.5
80 30 0.303926 0.0521909 0.5
490 31 0.310763 0.0189213 0.5
255 30 0.338297 0.0354855 0.5
577 33 0.373386 0.0274397 0.5
380 34 0.343685 0.00310292 0.5
218 27 0.405132 0.0189188 0.5
168 33 0.397262 0.0497585 0.5
852 32 0.428771 0.0399631 0.5
122 30 0.43784 0.00510616 0.5
835 31 0.459868 0.0300496 0.5
58 29 0.483901 0.0516797 0.5
921 33 0.490178 0.0173272 0.5
409 30 0.517665 0.0396739 0.5
934 28 0.548029 0.031281 0.5
808 29 0.52157 0.00439703 0.5
451 31 0.582576 0.0242785 0.5
682 33 0.576014 0.056464 0.5
31 27 0.609374 0.0466958 0.5
752 29 0.639881 0.0403602 0.5
824 31 0.614538 0.0158516 0.5
629 28 0.645084 0.00888459 0.5
445 32 0.671847 0.0267438 0.5
704 32 0.697005 0.0484575 0.5
655 30 0.710606 0.0139646 0.5
75 27 0.734914 0.0354585 0.5
420 32 0.764961 0.0279813 0.5
173 30 0.740919 0.00357816 0.5
76 29 0.795714 0.0198838 0.5
250 30 0.788201 0.0505972 0.5
926 32 0.818977 0.0411797 0.5
924 28 0.826575 0.0097012 0.5
243 31 0.8548 0.0292158 0.5
591 29 0.885848 0.0189476 0.5
719 27 0.864159 -0.00228865 0.5
483 29 0.910481 0.0411911 0.5
52 33 0.920975 0.00936184 0.5
182 31 0.948737 0.0339082 0.5
397 31 0.978672 0.0234081 0.5
258 34 0.954425 0.00111703 0.5
332 29 0.0267801 0.0677321 0.5
229 31 0.0197757 0.103146 0.5
663 31 0.0532942 0.0925431 0.5
378 31 0.0575803 0.0597933 0.5
242 33 0.0849611 0.0841505 0.5
685 30 0.111229 0.104134 0.5
67 30 0.151761 0.0626993 0.5
920 30 0.119439 0.0733698 0.5
298 34 0.143622 0.0954326 0.5
498 30 0.174446 0.0852552 0.5
891 32 0.20509 0.0755756 0.5
215 29 0.272423 0.061207 0.5
516 34 0.240076 0.0701969 0.5
694 31 0.234588 0.103053 0.5
37 30 0.265649 0.0935697 0.5
455 31 0.300393 0.0837513 0.5
247 28 0.324628 0.106759 0.5
819 30 0.330134 0.0742044 0.5
180 31 0.361153 0.0591765 0.5
811 29 0.353157 0.0953434 0.5
738 31 0.38322 0.0855216 0.5
227 31 0.411372 0.103419 0.5
374 32 0.420452 0.0721891 0.5
673 29 0.445729 0.0953324 0.5
592 28 0.45263 0.0612194 0.5
71 32 0.475527 0.0834127 0.5
844 31 0.540774 0.0624321 0.5
473 31 0.510018 0.0707605 0.5
953 30 0.533899 0.0953704 0.5
203 34 0.502947 0.105259 0.5
649 33 0.566634 0.0889104 0.5
961 30 0.589878 0.112616 0.5
467 31 0.600217 0.0787627 0.5
430 32 0.631771 0.0717076 0.5
788 32 0.621889 0.104689 0.5
178 27 0.660326 0.0870416 0.5
898 29 0.665896 0.0574145 0.5
107 30 0.690665 0.0795761 0.5
930 29 0.71735 0.0995538 0.5
301 33 0.724875 0.0676736 0.5
749 29 0.757219 0.0603248 0.5
305 30 0.750692 0.0909059 0.5
744 32 0.781692 0.0822617 0.5
715 27 0.81505 0.072098 0.5
485 32 0.811399 0.103596 0.5
484 32 0.881173 0.0517177 0.5
241 32 0.848456 0.0645346 0.5
986 30 0.842768 0.0989911 0.5
158 32 0.872311 0.0867454 0.5
990 34 0.933596 0.0662862 0.5
703 30 0.902566 0.0760478 0.5
63 30 0.928589 0.098698 0.5
660 29 0.975534 0.0546368 0.5
940 29 0.997788 0.0788797 0.5
857 34 0.964532 0.085943 0.5
379 29 0.0435198 0.127794 0.5
365 29 0.0104853 0.13319 0.5
589 28 0.0369681 0.158225 0.5
676 31 0.0796061 0.116169 0.5
964 32 0.0700088 0.148845 0.5
155 30 0.104893 0.135632 0.5
976 27 0.134548 0.125705 0.5
712 30 0.128282 0.156086 0.5
614 30 0.159118 0.150273 0.5
754 31 0.202963 0.11069 0.5
448 31 0.168521 0.116808 0.5
770 35 0.191064 0.141245 0.5
290 31 0.225424 0.13538 0.5
813 30 0.260312 0.125483 0.5
517 33 0.24806 0.158799 0.5
903 31 0.291757 0.114733 0.5
442 32 0.281901 0.149309 0.5
81 29 0.313586 0.138686 0.5
511 33 0.337284 0.15967 0.5
996 29 0.378781 0.117416 0.5
193 29 0.346095 0.128774 0.5
487 30 0.370777 0.147735 0.5
927 31 0.43651 0.125491 0.5
325 31 0.401733 0.139353 0.5
802 32 0.426581 0.159564 0.5
559 31 0.47036 0.116598 0.5
991 31 0.459425 0.147286 0.5
493 28 0.493661 0.136941 0.5
871 30 0.525793 0.12982 0.5
763 32 0.516044 0.160575 0.5
14 30 0.548345 0.152265 0.5
896 30 0.560805 0.123464 0.5
607 33 0.583306 0.146663 0.5
551 30 0.651173 0.117808 0.5
104 28 0.612451 0.135033 0.5
795 33 0.636561 0.155518 0.5
699 27 0.683232 0.111258 0.5
16 31 0.672196 0.142407 0.5
425 31 0.707935 0.135455 0.5
413 29 0.700594 0.167719 0.5
312 34 0.773315 0.115386 0.5
737 32 0.739442 0.124067 0.5
307 31 0.732635 0.157584 0.5
317 33 0.763855 0.148389 0.5
779 33 0.799729 0.134898 0.5
499 26 0.834528 0.128661 0.5
211 26 0.824333 0.155969 0.5
408 29 0.86807 0.11822 0.5
994 30 0.860126 0.14866 0.5
138 31 0.891531 0.140053 0.5
528 32 0.898117 0.107136 0.5
561 31 0.92204 0.131395 0.5
208 31 0.988309 0.108956 0.5
838 27 0.945962 0.15192 0.5
356 28 0.954451 0.117582 0.5
569 31 0.97913 0.141506 0.5
939 33 0.00730644 0.170168 0.5
700 29 0.027746 0.199201 0.5
272 33 0.0578654 0.216619 0.5
766 30 0.0977727 0.167538 0.5
170 32 0.0636075 0.182141 0.5
350 25 0.0917931 0.197063 0.5
143 30 0.121251 0.191131 0.5
97 27 0.15053 0.180639 0.5
662 31 0.146201 0.210899 0.5
216 35 0.215299 0.168748 0.5
513 29 0.183469 0.176831 0.5
18 35 0.208302 0.203136 0.5
252 32 0.176602 0.221436 0.5
245 27 0.242343 0.189962 0.5
488 29 0.236349 0.219975 0.5
367 29 0.273345 0.179556 0.5
385 31 0.267089 0.226963 0.5
706 31 0.305272 0.173558 0.5
564 29 0.294236 0.204719 0.5
389 34 0.326447 0.202049 0.5
280 34 0.357008 0.187117 0.5
169 27 0.362409 0.220285 0.5
809 29 0.385675 0.201422 0.5
847 33 0.395088 0.170847 0.5
239 32 0.420825 0.197262 0.5
414 32 0.449073 0.216137 0.5
181 31 0.483533 0.168683 0.5
274 29 0.45331 0.178471 0.5
464 30 0.478033 0.202488 0.5
372 29 0.507903 0.192135 0.5
957 33 0.530017 0.215438 0.5
845 29 0.540201 0.184617 0.5
900 28 0.56889 0.175153 0.5
174 31 0.587754 0.202253 0.5
492 34 0.605576 0.1737 0.5
944 30 0.644235 0.189597 0.5
457 33 0.619454 0.213383 0.5
568 31 0.656777 0.218474 0.5
799 29 0.670631 0.173813 0.5
358 29 0.689615 0.198461 0.5
57 31 0.724415 0.188852 0.5
103 31 0.757633 0.180865 0.5
761 30 0.749015 0.211832 0.5
603 30 0.785946 0.200994 0.5
677 34 0.796874 0.170006 0.5
100 32 0.820733 0.192499 0.5
653 28 0.88312 0.170515 0.5
644 30 0.852382 0.179782 0.5
530 30 0.847153 0.211012 0.5
768 31 0.877985 0.201245 0.5
270 31 0.915304 0.164279 0.5
938 27 0.908835 0.194268 0.5
574 27 0.933032 0.213283 0.5
68 31 0.943653 0.184204 0.5
249 32 0.99454 0.201354 0.5
933 30 0.975064 0.17296 0.5
733 33 0.0240159 0.239085 0.5
310 32 0.0361373 0.273019 0.5
849 32 0.0612169 0.249385 0.5
705 30 0.086909 0.229296 0.5
648 28 0.0915807 0.261087 0.5
936 28 0.118768 0.232288 0.5
210 29 0.124484 0.264887 0.5
199 33 0.149961 0.24368 0.5
66 31 0.20874 0.239316 0.5
787 29 0.183292 0.257559 0.5
130 30 0.217075 0.271201 0.5
596 29 0.246548 0.251203 0.5
54 30 0.276673 0.260498 0.5
403 28 0.297761 0.235871 0.5
597 28 0.307521 0.268385 0.5
469 33 0.330574 0.238349 0.5
171 32 0.338997 0.27288 0.5
966 28 0.365649 0.251887 0.5
132 31 0.392485 0.235141 0.5
28 29 0.398238 0.268674 0.5
608 30 0.424455 0.242117 0.5
995 28 0.430252 0.27385 0.5
856 29 0.45371 0.254282 0.5
671 28 0.475885 0.233275 0.5
621 29 0.484475 0.262379 0.5
73 31 0.506484 0.239457 0.5
753 31 0.516737 0.26989 0.5
440 34 0.53933 0.247491 0.5
769 30 0.561151 0.222361 0.5
402 33 0.594274 0.235278 0.5
646 29 0.570971 0.256259 0.5
114 28 0.60627 0.270507 0.5
914 28 0.629298 0.24592 0.5
834 31 0.660349 0.251886 0.5
950 31 0.68656 0.231131 0.5
225 32 0.693802 0.262921 0.5
582 30 0.718981 0.23066 0.5
121 31 0.750524 0.250903 0.5
508 29 0.779984 0.231727 0.5
217 31 0.810452 0.224651 0.5
94 28 0.783665 0.265044 0.5
742 31 0.839136 0.243528 0.5
912 34 0.872399 0.251659 0.5
571 36 0.900898 0.226711 0.5
329 32 0.91529 0.259583 0.5
855 31 0.943394 0.242464 0.5
382 33 0.965478 0.218521 0.5
661 30 1.0031 0.263183 0.5
115 27 0.992934 0.233377 0.5
106 26 0.972369 0.256786 0.5
803 31 0.00947876 0.295843 0.5
886 29 0.0424724 0.305739 0.5
776 31 0.0169979 0.326288 0.5
2 30 0.0668669 0.283141 0.5
346 30 0.100137 0.291389 0.5
762 31 0.0718641 0.317223 0.5
545 34 0.105288 0.323818 0.5
24 30 0.160871 0.279272 0.5
729 27 0.130181 0.299483 0.5
202 34 0.16426 0.312121 0.5
120 30 0.190868 0.291508 0.5
429 29 0.197335 0.322924 0.5
124 29 0.251353 0.28365 0.5
140 30 0.221912 0.302797 0.5
736 28 0.263032 0.312383 0.5
881 29 0.237369 0.330713 0.5
815 30 0.285931 0.291195 0.5
260 30 0.293222 0.322859 0.5
837 31 0.317331 0.298469 0.5
967 28 0.323157 0.330928 0.5
823 30 0.369377 0.285689 0.5
902 30 0.346595 0.30896 0.5
756 30 0.377757 0.322034 0.5
427 31 0.402565 0.299172 0.5
376 34 0.410651 0.331905 0.5
96 30 0.434225 0.30651 0.5
273 29 0.458793 0.285437 0.5
701 33 0.493832 0.295833 0.5
664 31 0.467099 0.319073 0.5
841 31 0.498701 0.329407 0.5
90 34 0.525568 0.308461 0.5
728 32 0.547674 0.281078 0.5
232 29 0.558189 0.318217 0.5
434 28 0.57946 0.292489 0.5
888 29 0.588744 0.321984 0.5
497 31 0.637927 0.275477 0.5
263 30 0.613069 0.300588 0.5
645 31 0.647628 0.30615 0.5
91 28 0.672274 0.287131 0.5
424 27 0.703216 0.295273 0.5
368 31 0.681788 0.318157 0.5
112 28 0.725397 0.269289 0.5
666 31 0.758946 0.283218 0.5
988 26 0.732477 0.302296 0.5
637 29 0.763148 0.315935 0.5
580 29 0.812565 0.274584 0.5
887 31 0.790554 0.296764 0.5
963 29 0.802432 0.326456 0.5
265 35 0.827739 0.305853 0.5
393 34 0.84808 0.275578 0.5
797 31 0.861997 0.307007 0.5
832 35 0.885449 0.282644 0.5
521 31 0.894298 0.318036 0.5
456 31 0.919976 0.297959 0.5
529 30 0.946018 0.276035 0.5
377 29 0.978853 0.287117 0.5
611 33 0.953148 0.308169 0.5
353 30 0.985144 0.317467 0.5
345 31 0.0468361 0.33722 0.5
27 32 0.0222514 0.3603 0.5
177 28 0.0534291 0.368377 0.5
244 30 0.0826458 0.347345 0.5
283 33 0.0867112 0.379412 0.5
557 33 0.114559 0.359309 0.5
618 33 0.139102 0.333759 0.5
751 28 0.146413 0.367576 0.5
652 35 0.171704 0.345962 0.5
407 29 0.175986 0.380611 0.5
369 32 0.213067 0.351811 0.5
720 30 0.268298 0.343669 0.5
84 29 0.242886 0.362667 0.5
672 31 0.274076 0.376367 0.5
293 33 0.299749 0.354808 0.5
196 31 0.304732 0.386875 0.5
897 31 0.331386 0.367204 0.5
794 31 0.353402 0.343084 0.5
935 28 0.36285 0.381644 0.5
87 30 0.38398 0.357288 0.5
167 29 0.39334 0.386855 0.5
668 27 0.415872 0.363437 0.5
651 28 0.440636 0.343089 0.5
400 32 0.447775 0.376874 0.5
144 32 0.474864 0.351636 0.5
707 37 0.481684 0.385529 0.5
296 30 0.533744 0.340571 0.5
357 33 0.508897 0.362026 0.5
581 27 0.540124 0.37312 0.5
77 26 0.564494 0.348384 0.5
491 30 0.570585 0.379994 0.5
949 32 0.596791 0.35875 0.5
4 31 0.603839 0.390695 0.5
452 32 0.618244 0.33366 0.5
278 32 0.651482 0.338778 0.5
348 29 0.62995 0.363662 0.5
500 35 0.66197 0.371732 0.5
251 31 0.71338 0.329135 0.5
587 33 0.688483 0.350293 0.5
309 32 0.720686 0.36702 0.5
72 28 0.743454 0.338885 0.5
874 33 0.753997 0.373348 0.5
384 35 0.776125 0.346493 0.5
674 29 0.811171 0.361276 0.5
44 32 0.833858 0.338984 0.5
745 32 0.871261 0.340818 0.5
980 29 0.843866 0.369502 0.5
12 32 0.876927 0.373889 0.5
615 29 0.925722 0.328987 0.5
806 29 0.902419 0.352065 0.5
363 28 0.932845 0.359349 0.5
923 32 1.00068 0.385669 0.5
606 32 0.958807 0.34185 0.5
418 32 0.99139 0.349169 0.5
6 24 0.971102 0.373488 0.5
544 29 0.031358 0.391771 0.5
288 33 0.0366293 0.426003 0.5
375 30 0.00518729 0.417786 0.5
141 31 0.0634062 0.402445 0.5
698 27 0.0678809 0.434162 0.5
548 33 0.0977347 0.410949 0.5
259 26 0.123437 0.389056 0.5
233 29 0.128614 0.423015 0.5
542 31 0.152142 0.401171 0.5
781 30 0.157923 0.433834 0.5
326 36 0.208195 0.385609 0.5
686 30 0.183233 0.411895 0.5
405 30 0.213838 0.419947 0.5
851 31 0.243566 0.399056 0.5
8 28 0.24969 0.430312 0.5
586 35 0.276331 0.409904 0.5
687 31 0.28307 0.442387 0.5
234 32 0.308309 0.419709 0.5
631 30 0.333916 0.399947 0.5
882 33 0.340709 0.433281 0.5
532 30 0.36665 0.414214 0.5
331 29 0.37422 0.446014 0.5
885 28 0.422493 0.39799 0.5
785 32 0.398472 0.423148 0.5
563 33 0.431386 0.431273 0.5
333 30 0.456183 0.409903 0.5
162 31 0.462782 0.443301 0.5
36 33 0.487175 0.422626 0.5
458 33 0.515679 0.394157 0.5
201 32 0.547664 0.403197 0.5
734 31 0.520241 0.426709 0.5
658 33 0.551648 0.437636 0.5
977 33 0.580505 0.414746 0.5
893 30 0.614118 0.420507 0.5
626 32 0.636869 0.395368 0.5
549 30 0.646049 0.428531 0.5
593 28 0.692571 0.383067 0.5
125 30 0.668833 0.404445 0.5
870 30 0.67719 0.435315 0.5
866 30 0.702456 0.413687 0.5
206 31 0.729986 0.398005 0.5
404 31 0.740559 0.429276 0.5
531 29 0.762396 0.405403 0.5
431 31 0.771566 0.437357 0.5
21 31 0.789109 0.385213 0.5
360 25 0.820649 0.392599 0.5
892 27 0.793489 0.414775 0.5
426 27 0.831281 0.419779 0.5
416 32 0.855332 0.398945 0.5
443 29 0.860131 0.430548 0.5
166 30 0.888391 0.4094 0.5
859 34 0.910552 0.383849 0.5
156 28 0.920643 0.413096 0.5
901 33 0.945289 0.39102 0.5
879 32 0.953083 0.427093 0.5
438 29 0.981532 0.439928 0.5
85 27 0.975874 0.405688 0.5
973 27 0.0112744 0.448243 0.5
553 31 0.0446598 0.457551 0.5
983 31 0.0183948 0.480975 0.5
723 30 0.0498683 0.494187 0.5
962 37 0.101716 0.444374 0.5
911 30 0.0757727 0.467255 0.5
713 33 0.108617 0.478735 0.5
512 31 0.134368 0.458195 0.5
791 29 0.144549 0.487817 0.5
336 33 0.191273 0.445753 0.5
428 29 0.165536 0.465062 0.5
792 31 0.199713 0.478062 0.5
555 30 0.174587 0.498419 0.5
917 34 0.224274 0.454024 0.5
179 31 0.233887 0.485641 0.5
750 31 0.256174 0.461149 0.5
985 28 0.264508 0.494449 0.5
541 31 0.31538 0.454138 0.5
22 32 0.289992 0.474802 0.5
929 32 0.322931 0.486825 0.5
616 30 0.349475 0.467015 0.5
534 32 0.355603 0.498451 0.5
848 30 0.38002 0.476204 0.5
786 34 0.406343 0.455288 0.5
965 30 0.437215 0.463703 0.5
783 29 0.414073 0.486442 0.5
620 29 0.444535 0.494839 0.5
228 29 0.494642 0.454709 0.5
690 29 0.471001 0.475377 0.5
665 35 0.526958 0.461717 0.5
875 32 0.503106 0.486503 0.5
476 27 0.534587 0.494643 0.5
692 29 0.589211 0.44973 0.5
133 31 0.563134 0.469107 0.5
421 32 0.59818 0.480597 0.5
504 34 0.623492 0.453741 0.5
306 29 0.6291 0.486554 0.5
730 31 0.655584 0.462166 0.5
23 29 0.65869 0.49706 0.5
727 33 0.707601 0.447474 0.5
899 27 0.684796 0.470268 0.5
17 29 0.715343 0.479783 0.5
157 31 0.741622 0.462678 0.5
101 29 0.750449 0.492782 0.5
176 31 0.777467 0.469619 0.5
821 29 0.802285 0.443697 0.5
383 32 0.809746 0.475754 0.5
952 32 0.835351 0.454124 0.5
277 29 0.840292 0.485933 0.5
165 27 0.865574 0.461074 0.5
540 32 0.891953 0.442862 0.5
566 31 0.924097 0.449355 0.5
829 28 0.901083 0.474678 0.5
47 31 0.933184 0.482752 0.5
519 28 0.988289 0.472007 0.5
343 32 0.957321 0.459984 0.5
39 29 0.962427 0.494609 0.5
471 28 0.0237229 0.512154 0.5
480 29 0.0335934 0.543592 0.5
191 33 0.0841643 0.501105 0.5
313 32 0.0595098 0.52486 0.5
575 31 0.090749 0.533976 0.5
716 30 0.114941 0.512754 0.5
807 27 0.124124 0.546297 0.5
600 33 0.148858 0.519835 0.5
503 33 0.156237 0.553077 0.5
764 33 0.210963 0.5116 0.5
959 29 0.179882 0.53014 0.5
971 26 0.206943 0.543913 0.5
812 29 0.242728 0.51664 0.5
628 31 0.241949 0.548418 0.5
872 34 0.27212 0.530489 0.5
111 30 0.296265 0.507988 0.5
26 34 0.303704 0.542613 0.5
7 32 0.327057 0.518444 0.5
154 30 0.336327 0.550166 0.5
550 28 0.361676 0.529796 0.5
51 31 0.388741 0.507566 0.5
556 30 0.421698 0.516447 0.5
693 30 0.397878 0.540429 0.5
636 27 0.425942 0.553963 0.5
709 30 0.475684 0.506335 0.5
105 31 0.451007 0.53031 0.5
412 30 0.483917 0.542678 0.5
740 32 0.505047 0.518577 0.5
423 32 0.514932 0.551374 0.5
126 31 0.541476 0.527455 0.5
175 36 0.566245 0.503232 0.5
394 30 0.603992 0.513009 0.5
446 30 0.578862 0.534546 0.5
349 35 0.611365 0.545984 0.5
65 31 0.63692 0.523356 0.5
771 28 0.643736 0.556188 0.5
688 29 0.667091 0.531376 0.5
1000 33 0.692145 0.501853 0.5
324 34 0.699975 0.536675 0.5
83 31 0.723715 0.511575 0.5
590 28 0.756492 0.524519 0.5
9 29 0.733658 0.547114 0.5
478 30 0.780154 0.50228 0.5
70 29 0.811021 0.50932 0.5
136 33 0.788604 0.532906 0.5
110 30 0.821446 0.53864 0.5
679 35 0.873834 0.492675 0.5
999 33 0.846541 0.518322 0.5
364 31 0.878343 0.52707 0.5
968 33 0.905486 0.506582 0.5
867 33 0.911161 0.539722 0.5
822 32 0.93733 0.515492 0.5
41 31 0.999304 0.540673 0.5
533 32 0.992941 0.506782 0.5
632 30 0.948096 0.553196 0.5
633 30 0.968346 0.528196 0.5
579 29 0.00779568 0.571491 0.5
294 30 0.0137747 0.607074 0.5
960 34 0.0389531 0.581963 0.5
188 31 0.0658544 0.559457 0.5
918 34 0.0995215 0.566801 0.5
725 34 0.072778 0.593369 0.5
212 28 0.104188 0.599773 0.5
951 30 0.130718 0.576029 0.5
190 34 0.135389 0.609625 0.5
422 30 0.159937 0.586382 0.5
793 30 0.186046 0.565502 0.5
472 29 0.190866 0.597498 0.5
748 32 0.217338 0.573502 0.5
450 28 0.227481 0.607225 0.5
524 32 0.249539 0.580332 0.5
60 29 0.276499 0.563165 0.5
972 30 0.284154 0.593192 0.5
826 30 0.310595 0.575049 0.5
129 33 0.319466 0.608935 0.5
594 32 0.369744 0.560187 0.5
410 34 0.343471 0.583559 0.5
29 30 0.375604 0.594211 0.5
702 29 0.400785 0.573588 0.5
928 31 0.405169 0.607179 0.5
506 33 0.430973 0.587036 0.5
361 31 0.459713 0.564584 0.5
92 29 0.489781 0.576793 0.5
486 33 0.462839 0.599727 0.5
266 32 0.49707 0.610403 0.5
303 30 0.551804 0.560214 0.5
765 28 0.523083 0.582995 0.5
40 34 0.556001 0.593177 0.5
11 33 0.583563 0.568083 0.5
560 30 0.587605 0.605461 0.5
595 32 0.613699 0.582496 0.5
128 31 0.646567 0.589195 0.5
691 34 0.67572 0.562997 0.5
347 36 0.709044 0.572728 0.5
281 28 0.678084 0.601032 0.5
805 29 0.7066 0.613673 0.5
267 29 0.765694 0.555785 0.5
760 29 0.742252 0.576942 0.5
772 31 0.773721 0.585775 0.5
289 27 0.797205 0.564154 0.5
910 30 0.807811 0.593004 0.5
578 30 0.832833 0.573496 0.5
264 31 0.853439 0.549928 0.5
35 33 0.838218 0.606209 0.5
974 29 0.863187 0.581272 0.5
282 29 0.884004 0.557513 0.5
625 31 0.893967 0.593634 0.5
906 34 0.920271 0.57253 0.5
784 29 0.976886 0.565977 0.5
135 30 0.95171 0.586709 0.5
585 31 0.98315 0.597413 0.5
187 32 0.0451938 0.614685 0.5
818 28 0.0224272 0.636856 0.5
271 30 0.0313388 0.671271 0.5
495 31 0.0536075 0.646886 0.5
916 28 0.0779555 0.625903 0.5
868 34 0.0847504 0.659378 0.5
95 31 0.108176 0.632896 0.5
854 29 0.140961 0.642929 0.5
641 30 0.166352 0.624881 0.5
789 29 0.190585 0.658583 0.5
680 30 0.199486 0.628019 0.5
145 28 0.223249 0.650391 0.5
925 27 0.258081 0.611665 0.5
1 29 0.252858 0.642479 0.5
465 29 0.275313 0.663516 0.5
833 31 0.292844 0.627612 0.5
624 28 0.306132 0.656327 0.5
942 28 0.334716 0.64371 0.5
948 33 0.352072 0.617564 0.5
804 30 0.361946 0.658296 0.5
287 33 0.382724 0.632506 0.5
275 31 0.41216 0.648016 0.5
956 32 0.436727 0.623817 0.5
25 31 0.469294 0.631828 0.5
796 29 0.446816 0.654059 0.5
732 30 0.476202 0.668518 0.5
300 33 0.528419 0.621457 0.5
20 32 0.502622 0.643974 0.5
814 31 0.541178 0.655575 0.5
619 31 0.560802 0.628826 0.5
411 31 0.573112 0.660579 0.5
767 34 0.599825 0.639078 0.5
864 28 0.622203 0.614237 0.5
908 27 0.652007 0.619705 0.5
432 30 0.632705 0.644784 0.5
470 30 0.662767 0.659348 0.5
311 29 0.681468 0.633046 0.5
321 31 0.698142 0.659856 0.5
195 33 0.72811 0.642585 0.5
981 30 0.737469 0.607978 0.5
904 32 0.760861 0.637074 0.5
137 32 0.787091 0.616501 0.5
42 35 0.789153 0.65522 0.5
118 29 0.817325 0.631187 0.5
341 28 0.869256 0.612448 0.5
338 30 0.849197 0.638291 0.5
778 28 0.876347 0.655292 0.5
584 28 0.92485 0.606491 0.5
381 31 0.898636 0.626367 0.5
295 32 0.932563 0.637657 0.5
322 27 0.908723 0.658326 0.5
861 32 0.99805 0.663384 0.5
601 31 0.961589 0.622281 0.5
862 28 0.991679 0.632166 0.5
134 32 0.965616 0.655237 0.5
946 30 0.036127 0.703591 0.5
675 29 0.00685753 0.694231 0.5
684 28 0.0596406 0.683421 0.5
546 31 0.0927114 0.693659 0.5
231 31 0.0669608 0.714446 0.5
401 28 0.120518 0.708318 0.5
109 35 0.128374 0.673677 0.5
441 30 0.161083 0.667495 0.5
790 31 0.150853 0.698329 0.5
447 33 0.183384 0.691154 0.5
696 29 0.204915 0.714635 0.5
869 31 0.214266 0.68083 0.5
359 32 0.171765 0.724683 0.5
830 30 0.2454 0.673276 0.5
204 32 0.268462 0.695522 0.5
718 26 0.234673 0.70393 0.5
714 30 0.302592 0.686963 0.5
475 29 0.291394 0.717504 0.5
954 28 0.336177 0.676979 0.5
634 25 0.335105 0.708638 0.5
117 31 0.387159 0.715459 0.5
32 27 0.362162 0.693254 0.5
722 32 0.389305 0.674905 0.5
13 31 0.425664 0.677544 0.5
543 32 0.419248 0.709268 0.5
62 30 0.452698 0.695423 0.5
186 31 0.472802 0.721237 0.5
958 27 0.49151 0.696545 0.5
246 32 0.514902 0.674535 0.5
79 33 0.545192 0.689934 0.5
406 30 0.516754 0.713153 0.5
209 29 0.60418 0.671497 0.5
840 29 0.577935 0.69223 0.5
572 32 0.595769 0.72004 0.5
481 30 0.635013 0.676579 0.5
825 33 0.627409 0.707786 0.5
638 37 0.665851 0.696619 0.5
915 29 0.698863 0.691158 0.5
850 28 0.721487 0.713219 0.5
297 30 0.727329 0.676687 0.5
323 30 0.75908 0.669401 0.5
816 31 0.750221 0.700501 0.5
454 31 0.778419 0.721495 0.5
711 32 0.8191 0.671186 0.5
43 32 0.783812 0.689536 0.5
573 30 0.810208 0.706834 0.5
997 32 0.841097 0.700092 0.5
853 26 0.850217 0.670448 0.5
46 32 0.87696 0.689 0.5
163 28 0.900546 0.717697 0.5
654 28 0.909158 0.688895 0.5
392 30 0.938511 0.673591 0.5
318 32 0.943713 0.705085 0.5
514 28 0.988939 0.719448 0.5
276 32 0.973919 0.688842 0.5
489 27 0.0129629 0.745587 0.5
630 31 0.0421148 0.735144 0.5
643 29 0.0413728 0.767428 0.5
269 31 0.00696424 0.775843 0.5
237 32 0.105375 0.738546 0.5
757 34 0.0723781 0.748694 0.5
876 31 0.0989497 0.771946 0.5
398 33 0.140457 0.735077 0.5
477 31 0.130848 0.766517 0.5
777 29 0.162704 0.759513 0.5
913 30 0.195166 0.74941 0.5
344 27 0.228084 0.738205 0.5
970 27 0.22079 0.766846 0.5
205 29 0.259739 0.727222 0.5
151 33 0.252104 0.759557 0.5
86 30 0.317523 0.734105 0.5
116 27 0.284641 0.749405 0.5
989 32 0.310353 0.767709 0.5
48 28 0.358893 0.727465 0.5
284 32 0.343816 0.755418 0.5
909 29 0.376132 0.753455 0.5
152 32 0.412397 0.741263 0.5
388 29 0.442831 0.731873 0.5
352 29 0.403035 0.770936 0.5
883 33 0.439323 0.764054 0.5
286 31 0.470656 0.754613 0.5
226 31 0.500581 0.772513 0.5
371 30 0.500466 0.739638 0.5
758 27 0.535135 0.737913 0.5
45 30 0.532139 0.768798 0.5
386 33 0.562479 0.753346 0.5
370 33 0.560771 0.719766 0.5
479 26 0.594771 0.751595 0.5
526 30 0.618885 0.770831 0.5
820 30 0.654159 0.729343 0.5
604 27 0.623057 0.740014 0.5
773 26 0.647039 0.759115 0.5
437 31 0.691649 0.722194 0.5
800 27 0.677916 0.750151 0.5
978 27 0.715115 0.742467 0.5
520 31 0.738256 0.762651 0.5
932 29 0.746267 0.731092 0.5
522 33 0.769098 0.753448 0.5
108 32 0.803801 0.743403 0.5
463 29 0.827686 0.767535 0.5
119 30 0.867325 0.724404 0.5
635 27 0.835488 0.734346 0.5
683 32 0.85851 0.755437 0.5
599 32 0.929411 0.737788 0.5
64 31 0.892366 0.748721 0.5
612 29 0.950246 0.762241 0.5
678 30 0.918991 0.770032 0.5
695 27 0.960181 0.732779 0.5
605 28 0.983222 0.75484 0.5
98 32 0.0330243 0.798827 0.5
240 30 0.0225559 0.829025 0.5
889 29 0.060928 0.818063 0.5
149 29 0.0675618 0.783297 0.5
308 29 0.0914402 0.804124 0.5
539 31 0.114666 0.829642 0.5
146 28 0.151603 0.791063 0.5
969 30 0.122014 0.797174 0.5
435 28 0.145661 0.820514 0.5
726 30 0.186753 0.781979 0.5
827 35 0.178938 0.814404 0.5
724 34 0.21353 0.804793 0.5
460 32 0.278357 0.780254 0.5
19 30 0.244479 0.790925 0.5
160 30 0.238449 0.826136 0.5
82 32 0.268905 0.811665 0.5
10 30 0.302999 0.800925 0.5
15 32 0.32883 0.827498 0.5
74 32 0.334178 0.791673 0.5
399 32 0.368266 0.784407 0.5
639 27 0.358292 0.81431 0.5
576 31 0.396373 0.802356 0.5
717 30 0.432919 0.795093 0.5
640 33 0.42342 0.828246 0.5
602 28 0.467285 0.786252 0.5
417 28 0.457767 0.817388 0.5
99 28 0.488205 0.808514 0.5
863 29 0.550878 0.794264 0.5
667 29 0.520182 0.797914 0.5
735 29 0.54324 0.824158 0.5
222 31 0.511038 0.835031 0.5
547 32 0.582073 0.781324 0.5
69 32 0.608018 0.804674 0.5
198 32 0.575999 0.813408 0.5
979 32 0.643521 0.791165 0.5
755 28 0.635268 0.822221 0.5
189 23 0.665628 0.821526 0.5
993 30 0.705939 0.772853 0.5
3 32 0.674485 0.780564 0.5
337 30 0.701629 0.803887 0.5
335 32 0.764995 0.787464 0.5
327 31 0.732955 0.795625 0.5
49 29 0.758503 0.820745 0.5
50 31 0.795385 0.775269 0.5
184 29 0.791329 0.807027 0.5
354 32 0.822763 0.800101 0.5
782 29 0.812828 0.830648 0.5
878 31 0.883942 0.780064 0.5
373 32 0.844611 0.824661 0.5
123 25 0.855169 0.792161 0.5
142 31 0.876651 0.815163 0.5
319 30 0.908023 0.804494 0.5
955 29 0.932499 0.828133 0.5
93 35 0.941603 0.795532 0.5
200 32 0.973648 0.784521 0.5
88 35 0.997658 0.808126 0.5
474 29 0.963705 0.820483 0.5
236 35 0.017389 0.861779 0.5
510 32 0.0493391 0.8499 0.5
613 29 0.0430977 0.883468 0.5
839 29 0.0832281 0.844339 0.5
515 30 0.0729469 0.874245 0.5
223 26 0.107478 0.863897 0.5
224 30 0.137213 0.856662 0.5
747 28 0.161235 0.878578 0.5
801 29 0.166152 0.844742 0.5
194 31 0.128553 0.892166 0.5
468 29 0.202739 0.837329 0.5
351 31 0.191652 0.867035 0.5
342 34 0.228925 0.857522 0.5
617 32 0.263665 0.84742 0.5
554 30 0.255008 0.878568 0.5
320 32 0.296982 0.83414 0.5
439 29 0.292329 0.868811 0.5
552 30 0.322104 0.859018 0.5
739 35 0.355646 0.847316 0.5
127 27 0.346386 0.881822 0.5
419 32 0.379832 0.870606 0.5
53 32 0.38867 0.837983 0.5
220 30 0.411719 0.861945 0.5
449 29 0.437043 0.883835 0.5
235 32 0.447431 0.849379 0.5
627 31 0.479439 0.842263 0.5
670 32 0.470057 0.873683 0.5
507 30 0.501065 0.866447 0.5
391 28 0.532501 0.856763 0.5
941 30 0.525755 0.886542 0.5
59 28 0.596335 0.838547 0.5
291 29 0.555926 0.876366 0.5
535 28 0.567002 0.846498 0.5
390 31 0.588268 0.869213 0.5
304 29 0.655592 0.848837 0.5
268 36 0.624124 0.859122 0.5
877 30 0.648559 0.884388 0.5
562 33 0.719009 0.831341 0.5
292 30 0.686641 0.842641 0.5
139 30 0.681243 0.873703 0.5
153 33 0.712854 0.863866 0.5
482 30 0.74634 0.852356 0.5
669 34 0.772386 0.875773 0.5
30 31 0.780369 0.843489 0.5
185 33 0.804557 0.866017 0.5
302 29 0.836081 0.857421 0.5
697 33 0.869294 0.848138 0.5
221 27 0.860679 0.879466 0.5
496 30 0.900833 0.836582 0.5
759 33 0.894896 0.8687 0.5
285 30 0.925691 0.861342 0.5
254 31 0.989581 0.840954 0.5
880 34 0.952298 0.884579 0.5
810 31 0.956212 0.85141 0.5
56 29 0.985823 0.872277 0.5
689 30 0.0106846 0.895029 0.5
238 28 0.0377675 0.913513 0.5
931 30 0.00585636 0.926808 0.5
905 30 0.0622551 0.94109 0.5
161 29 0.0971358 0.894101 0.5
396 31 0.0685026 0.909195 0.5
873 31 0.0935089 0.931057 0.5
518 30 0.125661 0.924341 0.5
433 28 0.15581 0.911345 0.5
894 29 0.150513 0.943534 0.5
992 33 0.187276 0.901969 0.5
207 31 0.183335 0.934588 0.5
865 27 0.219423 0.919133 0.5
610 30 0.217052 0.888863 0.5
647 30 0.248631 0.909713 0.5
213 31 0.271561 0.931458 0.5
567 30 0.31518 0.890545 0.5
315 30 0.279607 0.900383 0.5
775 32 0.308281 0.924049 0.5
257 32 0.371314 0.902854 0.5
387 30 0.339168 0.914717 0.5
316 34 0.362485 0.939288 0.5
5 32 0.406848 0.894075 0.5
330 29 0.395275 0.924493 0.5
860 30 0.427546 0.918324 0.5
657 28 0.495246 0.898705 0.5
731 32 0.460317 0.906235 0.5
230 31 0.4519 0.938665 0.5
150 34 0.484232 0.929054 0.5
525 29 0.521498 0.919429 0.5
937 31 0.551322 0.909153 0.5
890 32 0.543984 0.941475 0.5
362 31 0.582525 0.900864 0.5
523 27 0.576755 0.936775 0.5
537 29 0.607096 0.926351 0.5
817 33 0.614352 0.89213 0.5
192 33 0.638226 0.916264 0.5
102 27 0.659053 0.943241 0.5
366 30 0.66941 0.90806 0.5
609 30 0.705579 0.899984 0.5
395 29 0.692207 0.932846 0.5
774 32 0.740023 0.884334 0.5
708 29 0.729681 0.920461 0.5
453 28 0.753022 0.942913 0.5
741 32 0.759616 0.910758 0.5
570 32 0.830674 0.889354 0.5
147 30 0.797048 0.900787 0.5
746 28 0.786539 0.932014 0.5
681 28 0.822589 0.920197 0.5
843 32 0.857523 0.915528 0.5
975 29 0.881785 0.938486 0.5
314 31 0.886429 0.900521 0.5
558 31 0.920122 0.892517 0.5
334 32 0.912233 0.927399 0.5
299 28 0.948833 0.916784 0.5
501 32 0.980328 0.905419 0.5
219 29 0.972028 0.936641 0.5
113 32 0.0303709 0.949559 0.5
922 33 0.0204955 0.981995 0.5
34 31 0.0522885 0.973813 0.5
164 32 0.0741953 0.997462 0.5
943 36 0.0850665 0.964552 0.5
262 31 0.109072 0.988034 0.5
248 28 0.116053 0.953673 0.5
38 30 0.139721 0.973506 0.5
642 31 0.172813 0.967253 0.5
828 30 0.210686 0.954198 0.5
538 32 0.199698 0.987583 0.5
261 33 0.241513 0.944849 0.5
710 33 0.234334 0.979172 0.5
61 31 0.264962 0.967639 0.5
131 29 0.331175 0.947358 0.5
459 33 0.294904 0.954847 0.5
339 33 0.291224 0.990159 0.5
462 30 0.322529 0.977453 0.5
907 29 0.353254 0.971474 0.5
743 31 0.37767 0.994809 0.5
659 32 0.384766 0.963087 0.5
984 31 0.416014 0.94883 0.5
884 33 0.409742 0.986196 0.5
623 33 0.439983 0.972096 0.5
536 29 0.467835 0.993247 0.5
148 32 0.473644 0.962602 0.5
650 30 0.499784 0.982623 0.5
831 30 0.510124 0.953062 0.5
494 27 0.537912 0.976626 0.5
256 32 0.558028 1.00064 0.5
78 26 0.597894 0.95842 0.5
798 32 0.56713 0.96718 0.5
982 31 0.591167 0.990945 0.5
444 32 0.62834 0.950467 0.5
598 32 0.622589 0.982173 0.5
355 31 0.654465 0.976836 0.5
159 32 0.68608 0.964125 0.5
214 32 0.682746 0.996105 0.5
509 29 0.712521 0.982741 0.5
583 28 0.770967 0.996119 0.5
253 30 0.723692 0.954238 0.5
340 27 0.751875 0.972647 0.5
836 30 0.782257 0.963769 0.5
415 28 0.811616 0.952156 0.5
858 31 0.805204 0.985559 0.5
945 32 0.843025 0.945348 0.5
527 30 0.836511 0.978999 0.5
55 29 0.868237 0.967596 0.5
183 29 0.936636 0.948342 0.5
588 29 0.894013 0.989919 0.5
842 29 0.904816 0.961326 0.5
919 28 0.932385 0.978944 0.5
436 31 0.995607 0.959114 0.5
622 30 0.986735 0.992174 0.5
780 30 0.963466 0.967034 0.5
