ITEM: TIMESTEP
1750000
ITEM: NUMBER OF ATOMS
1000
ITEM: BOX BOUNDS pp pp pp
-1.6508578000000000e+01 1.6508578000000000e+01
-1.6508578000000000e+01 1.6508578000000000e+01
-5.0000000000000000e-01 5.0000000000000000e-01
ITEM: ATOMS id type xs ys zs
397 31 0.0188752 0.0329545 0.5
502 28 0.0529409 0.0256067 0.5
622 30 0.0281731 0.00236535 0.5
89 30 0.0832863 0.0150405 0.5
33 30 0.110125 0.0378484 0.5
656 27 0.077948 0.0484838 0.5
164 32 0.11798 0.00700042 0.5
987 32 0.145028 0.0291153 0.5
998 31 0.166649 0.0547609 0.5
328 27 0.175702 0.0220179 0.5
172 26 0.20434 0.0124518 0.5
505 31 0.230179 0.0327007 0.5
461 31 0.197946 0.046012 0.5
565 29 0.263154 0.024275 0.5
721 29 0.289234 0.0489566 0.5
538 32 0.237901 0.000743415 0.5
466 35 0.255128 0.0569131 0.5
947 32 0.295073 0.0158973 0.5
279 31 0.319985 0.0438657 0.5
339 33 0.326797 0.00893109 0.5
490 31 0.351212 0.0305781 0.5
380 34 0.382735 0.0183421 0.5
255 30 0.378469 0.0534356 0.5
577 33 0.410494 0.0407009 0.5
743 31 0.417327 0.00799737 0.5
218 27 0.447263 0.0311203 0.5
884 33 0.4522 -0.000845018 0.5
852 32 0.471913 0.0530289 0.5
122 30 0.479448 0.0202353 0.5
536 29 0.510766 0.00944604 0.5
835 31 0.503998 0.0428628 0.5
921 33 0.535358 0.0300174 0.5
808 29 0.567372 0.0206927 0.5
409 30 0.563964 0.0523376 0.5
650 30 0.542906 -0.00156118 0.5
934 28 0.594939 0.0424487 0.5
256 32 0.599812 0.00970877 0.5
451 31 0.626162 0.0312551 0.5
982 31 0.633799 -0.000992482 0.5
824 31 0.659214 0.0224604 0.5
629 28 0.691176 0.0130497 0.5
752 29 0.683164 0.0442588 0.5
31 27 0.65249 0.0568798 0.5
445 32 0.714985 0.0340344 0.5
655 30 0.748254 0.023419 0.5
214 32 0.723348 0.00186593 0.5
704 32 0.742917 0.0556973 0.5
75 27 0.775081 0.0480891 0.5
173 30 0.780145 0.0131619 0.5
420 32 0.805776 0.0371158 0.5
583 28 0.812031 0.00583181 0.5
76 29 0.838277 0.0274741 0.5
924 28 0.867937 0.0170804 0.5
926 32 0.864612 0.0509957 0.5
719 27 0.906635 0.00615141 0.5
591 29 0.927879 0.0287822 0.5
243 31 0.895469 0.0362201 0.5
258 34 0.99426 0.0095839 0.5
52 33 0.960094 0.0212421 0.5
182 31 0.987705 0.041874 0.5
483 29 0.950778 0.0520415 0.5
895 30 0.0425724 0.056655 0.5
660 29 0.0108534 0.0655425 0.5
940 29 0.0339068 0.0889933 0.5
857 34 0.00239568 0.0981644 0.5
229 31 0.0633794 0.111735 0.5
332 29 0.0709152 0.0799197 0.5
378 31 0.101871 0.0708332 0.5
663 31 0.0947481 0.103324 0.5
846 32 0.133425 0.0611306 0.5
242 33 0.126328 0.0937493 0.5
920 30 0.159566 0.0880508 0.5
67 30 0.191168 0.0781766 0.5
197 30 0.222374 0.0680486 0.5
498 30 0.217143 0.102614 0.5
298 34 0.184904 0.111802 0.5
891 32 0.249483 0.0910902 0.5
516 34 0.282232 0.0804431 0.5
694 31 0.277323 0.114991 0.5
80 30 0.347888 0.0630408 0.5
215 29 0.314937 0.0761048 0.5
455 31 0.340408 0.0965653 0.5
37 30 0.308716 0.107603 0.5
819 30 0.372456 0.0868776 0.5
180 31 0.40369 0.0759744 0.5
811 29 0.397276 0.108053 0.5
168 33 0.436859 0.0621863 0.5
738 31 0.429017 0.0969681 0.5
374 32 0.463329 0.0853255 0.5
592 28 0.496343 0.0735943 0.5
71 32 0.522828 0.0940897 0.5
673 29 0.489803 0.105463 0.5
58 29 0.530349 0.0631342 0.5
473 31 0.55731 0.0841897 0.5
953 30 0.581549 0.107299 0.5
844 31 0.589449 0.0747348 0.5
682 33 0.620902 0.0647951 0.5
649 33 0.61408 0.0972965 0.5
467 31 0.647836 0.0892633 0.5
430 32 0.679114 0.0758439 0.5
788 32 0.673004 0.111645 0.5
178 27 0.704816 0.0983659 0.5
898 29 0.711908 0.0678767 0.5
107 30 0.736389 0.090968 0.5
930 29 0.759579 0.112409 0.5
301 33 0.767733 0.0800874 0.5
749 29 0.800213 0.0691127 0.5
305 30 0.793393 0.101258 0.5
250 30 0.83274 0.0584981 0.5
744 32 0.826604 0.0906085 0.5
715 27 0.857831 0.081207 0.5
485 32 0.852067 0.113551 0.5
986 30 0.882776 0.107384 0.5
484 32 0.918906 0.0607768 0.5
241 32 0.888338 0.0745398 0.5
158 32 0.913644 0.0968785 0.5
703 30 0.945104 0.0851785 0.5
990 34 0.97753 0.0748929 0.5
63 30 0.971977 0.109521 0.5
208 31 0.0298842 0.122449 0.5
569 31 0.0201619 0.154977 0.5
365 29 0.0525004 0.147224 0.5
379 29 0.0866997 0.135576 0.5
589 28 0.077487 0.166372 0.5
964 32 0.110096 0.159325 0.5
685 30 0.149875 0.118231 0.5
676 31 0.117787 0.126585 0.5
155 30 0.144289 0.150326 0.5
712 30 0.167953 0.174787 0.5
976 27 0.175551 0.143531 0.5
448 31 0.211259 0.133494 0.5
614 30 0.19914 0.164896 0.5
770 35 0.238462 0.15704 0.5
754 31 0.243786 0.123192 0.5
290 31 0.27059 0.147861 0.5
517 33 0.293226 0.172896 0.5
813 30 0.301318 0.139622 0.5
903 31 0.332739 0.130852 0.5
442 32 0.327085 0.162935 0.5
247 28 0.364289 0.117617 0.5
81 29 0.360159 0.148795 0.5
193 29 0.39004 0.138129 0.5
511 33 0.384651 0.170849 0.5
227 31 0.454439 0.117479 0.5
487 30 0.416785 0.160073 0.5
996 29 0.42391 0.128731 0.5
325 31 0.448809 0.148833 0.5
802 32 0.47521 0.171446 0.5
927 31 0.479293 0.137742 0.5
559 31 0.515687 0.125685 0.5
991 31 0.51021 0.160351 0.5
203 34 0.549435 0.117011 0.5
493 28 0.542656 0.148415 0.5
871 30 0.577307 0.138454 0.5
763 32 0.567783 0.170355 0.5
961 30 0.64084 0.1198 0.5
14 30 0.600359 0.162908 0.5
896 30 0.607973 0.130581 0.5
607 33 0.633771 0.152507 0.5
104 28 0.665659 0.143776 0.5
551 30 0.698624 0.132577 0.5
795 33 0.689879 0.166334 0.5
699 27 0.729297 0.121977 0.5
16 31 0.721328 0.156597 0.5
425 31 0.751488 0.144036 0.5
737 32 0.784203 0.135827 0.5
312 34 0.81799 0.123472 0.5
317 33 0.809068 0.159166 0.5
307 31 0.778095 0.172636 0.5
779 33 0.844597 0.146917 0.5
499 26 0.877149 0.138068 0.5
211 26 0.869769 0.170991 0.5
408 29 0.906337 0.130176 0.5
138 31 0.93172 0.152068 0.5
994 30 0.899102 0.161594 0.5
528 32 0.939424 0.118535 0.5
356 28 0.996317 0.131615 0.5
561 31 0.96611 0.141508 0.5
838 27 0.990539 0.164974 0.5
270 31 0.956926 0.173059 0.5
939 33 0.0448821 0.179269 0.5
933 30 0.0136896 0.188433 0.5
249 32 0.0367766 0.213259 0.5
382 33 0.00421148 0.221561 0.5
700 29 0.0684379 0.203224 0.5
170 32 0.0987584 0.190463 0.5
272 33 0.0952475 0.226821 0.5
350 25 0.123906 0.210104 0.5
766 30 0.134366 0.1825 0.5
143 30 0.154653 0.206279 0.5
662 31 0.178941 0.227554 0.5
97 27 0.190408 0.198413 0.5
513 29 0.223064 0.186984 0.5
18 35 0.240111 0.214006 0.5
216 35 0.260498 0.18274 0.5
245 27 0.292017 0.204547 0.5
488 29 0.273521 0.227963 0.5
367 29 0.321983 0.196132 0.5
564 29 0.346067 0.218883 0.5
706 31 0.353469 0.186634 0.5
385 31 0.309886 0.231047 0.5
389 34 0.378232 0.210348 0.5
169 27 0.406044 0.229654 0.5
280 34 0.409426 0.195418 0.5
847 33 0.441065 0.181969 0.5
809 29 0.436222 0.217472 0.5
239 32 0.46746 0.203655 0.5
274 29 0.502728 0.193753 0.5
414 32 0.493355 0.2256 0.5
464 30 0.528607 0.214715 0.5
181 31 0.535719 0.182177 0.5
372 29 0.559939 0.203998 0.5
957 33 0.585857 0.226173 0.5
845 29 0.593547 0.195804 0.5
900 28 0.624981 0.185275 0.5
769 30 0.618675 0.21836 0.5
492 34 0.658185 0.17717 0.5
174 31 0.650866 0.210361 0.5
944 30 0.684013 0.200122 0.5
457 33 0.675059 0.23348 0.5
413 29 0.746065 0.178681 0.5
568 31 0.708741 0.221923 0.5
799 29 0.715021 0.189209 0.5
358 29 0.740374 0.210895 0.5
57 31 0.773304 0.206705 0.5
103 31 0.803366 0.19427 0.5
761 30 0.800544 0.226006 0.5
677 34 0.837017 0.181401 0.5
603 30 0.831934 0.213577 0.5
100 32 0.863034 0.203266 0.5
530 30 0.889877 0.227477 0.5
644 30 0.893924 0.193255 0.5
653 28 0.925735 0.182643 0.5
768 31 0.919698 0.215173 0.5
68 31 0.982579 0.194858 0.5
938 27 0.949438 0.203295 0.5
574 27 0.972045 0.224435 0.5
115 27 0.0277914 0.245698 0.5
661 30 0.0410562 0.274522 0.5
106 26 0.00897489 0.268528 0.5
733 33 0.0635976 0.243013 0.5
849 32 0.0985205 0.259899 0.5
310 32 0.0728458 0.283877 0.5
705 30 0.126705 0.240612 0.5
648 28 0.129757 0.271942 0.5
936 28 0.156817 0.251233 0.5
210 29 0.163999 0.281944 0.5
252 32 0.213053 0.235859 0.5
199 33 0.188799 0.260552 0.5
787 29 0.222285 0.268647 0.5
24 30 0.194605 0.291944 0.5
66 31 0.248542 0.248139 0.5
596 29 0.279644 0.259055 0.5
130 30 0.252529 0.279843 0.5
124 29 0.285988 0.290364 0.5
54 30 0.311833 0.265456 0.5
403 28 0.338554 0.249803 0.5
597 28 0.343654 0.27982 0.5
469 33 0.371464 0.247009 0.5
966 28 0.402518 0.264785 0.5
171 32 0.374656 0.286347 0.5
608 30 0.462028 0.23798 0.5
132 31 0.431585 0.249019 0.5
995 28 0.458361 0.269651 0.5
28 29 0.429113 0.279934 0.5
856 29 0.489068 0.258206 0.5
671 28 0.520081 0.24648 0.5
621 29 0.511837 0.280787 0.5
273 29 0.482477 0.290148 0.5
73 31 0.552384 0.236481 0.5
753 31 0.542669 0.269212 0.5
440 34 0.576493 0.26025 0.5
646 29 0.608429 0.250187 0.5
402 33 0.639778 0.243386 0.5
114 28 0.636099 0.274473 0.5
728 32 0.60245 0.283325 0.5
914 28 0.666414 0.264558 0.5
497 31 0.68972 0.285073 0.5
834 31 0.704678 0.25542 0.5
950 31 0.733485 0.243912 0.5
91 28 0.733253 0.276977 0.5
582 30 0.767166 0.241511 0.5
225 32 0.767536 0.280173 0.5
121 31 0.795074 0.260458 0.5
217 31 0.858043 0.235794 0.5
508 29 0.826375 0.244499 0.5
94 28 0.825396 0.276547 0.5
580 29 0.855888 0.282402 0.5
742 31 0.879695 0.259117 0.5
912 34 0.913539 0.263183 0.5
393 34 0.891559 0.291149 0.5
571 36 0.944765 0.24353 0.5
855 31 0.981285 0.254818 0.5
329 32 0.951894 0.276793 0.5
529 30 0.984012 0.288495 0.5
377 29 0.0158357 0.299732 0.5
353 30 0.0243303 0.3308 0.5
803 31 0.048782 0.308978 0.5
776 31 0.0559947 0.341003 0.5
2 30 0.106608 0.293816 0.5
886 29 0.0820401 0.315562 0.5
762 31 0.112328 0.3264 0.5
345 31 0.0874837 0.348886 0.5
346 30 0.138088 0.302147 0.5
729 27 0.168889 0.31382 0.5
545 34 0.146305 0.337255 0.5
202 34 0.204059 0.325568 0.5
120 30 0.229279 0.303049 0.5
618 33 0.178462 0.347988 0.5
429 29 0.236419 0.334523 0.5
140 30 0.261172 0.310788 0.5
881 29 0.268701 0.344823 0.5
736 28 0.294039 0.323926 0.5
815 30 0.317687 0.300515 0.5
260 30 0.325115 0.333758 0.5
837 31 0.349893 0.312069 0.5
967 28 0.358433 0.344197 0.5
902 30 0.382023 0.3229 0.5
823 30 0.404858 0.299756 0.5
756 30 0.41778 0.331365 0.5
427 31 0.446454 0.30704 0.5
376 34 0.448373 0.341808 0.5
96 30 0.476858 0.32207 0.5
664 31 0.510441 0.321755 0.5
651 28 0.478797 0.352271 0.5
701 33 0.53771 0.303327 0.5
90 34 0.572635 0.299485 0.5
841 31 0.540069 0.337904 0.5
296 30 0.572317 0.341108 0.5
232 29 0.597582 0.322858 0.5
434 28 0.624991 0.306205 0.5
888 29 0.625669 0.337537 0.5
263 30 0.659083 0.297284 0.5
645 31 0.687945 0.317261 0.5
452 32 0.65937 0.338582 0.5
424 27 0.716019 0.301798 0.5
368 31 0.721263 0.332903 0.5
112 28 0.746423 0.306823 0.5
251 31 0.754081 0.341284 0.5
666 31 0.798877 0.293169 0.5
988 26 0.775763 0.315557 0.5
637 29 0.80659 0.32836 0.5
72 28 0.786059 0.351336 0.5
887 31 0.831355 0.30784 0.5
265 35 0.86745 0.315711 0.5
963 29 0.842998 0.338429 0.5
44 32 0.874886 0.349321 0.5
797 31 0.899812 0.32491 0.5
832 35 0.925384 0.298445 0.5
521 31 0.932769 0.333379 0.5
611 33 0.989549 0.321215 0.5
456 31 0.957868 0.311082 0.5
615 29 0.963605 0.345801 0.5
418 32 0.0299353 0.363526 0.5
923 32 0.0348223 0.396956 0.5
6 24 0.00562672 0.384532 0.5
606 32 -0.00357832 0.354615 0.5
27 32 0.0626063 0.374658 0.5
177 28 0.094771 0.381981 0.5
544 29 0.0686835 0.407749 0.5
244 30 0.119172 0.357522 0.5
283 33 0.126009 0.391014 0.5
557 33 0.153865 0.372442 0.5
259 26 0.165034 0.402755 0.5
652 35 0.211985 0.358963 0.5
751 28 0.187333 0.380601 0.5
407 29 0.219356 0.392604 0.5
369 32 0.244745 0.367116 0.5
84 29 0.276812 0.380033 0.5
326 36 0.251057 0.401438 0.5
720 30 0.299421 0.354947 0.5
672 31 0.31005 0.387585 0.5
293 33 0.333457 0.365489 0.5
196 31 0.342462 0.399467 0.5
794 31 0.394388 0.354398 0.5
897 31 0.36528 0.375165 0.5
935 28 0.398186 0.386403 0.5
631 30 0.375854 0.40908 0.5
87 30 0.425186 0.365827 0.5
668 27 0.455479 0.374024 0.5
167 29 0.433194 0.397324 0.5
885 28 0.463356 0.406068 0.5
144 32 0.513488 0.357661 0.5
400 32 0.488796 0.382348 0.5
707 37 0.521842 0.391751 0.5
357 33 0.552976 0.368948 0.5
581 27 0.581831 0.382116 0.5
458 33 0.556834 0.40338 0.5
77 26 0.602935 0.359509 0.5
491 30 0.615953 0.38923 0.5
949 32 0.639155 0.366617 0.5
201 32 0.591874 0.412894 0.5
278 32 0.69345 0.352386 0.5
4 31 0.647743 0.398858 0.5
348 29 0.671703 0.376468 0.5
500 35 0.704135 0.386994 0.5
587 33 0.729934 0.365562 0.5
593 28 0.736655 0.398221 0.5
309 32 0.762781 0.373964 0.5
206 31 0.76931 0.409101 0.5
874 33 0.795138 0.385129 0.5
384 35 0.818942 0.360094 0.5
21 31 0.827893 0.394233 0.5
674 29 0.85126 0.371885 0.5
360 25 0.859674 0.406825 0.5
745 32 0.908443 0.357431 0.5
980 29 0.883879 0.382041 0.5
12 32 0.917795 0.390461 0.5
806 29 0.941947 0.368757 0.5
859 34 0.949403 0.401622 0.5
363 28 0.972866 0.377012 0.5
901 33 0.981991 0.410471 0.5
85 27 0.0127412 0.420785 0.5
375 30 0.0452482 0.430081 0.5
438 29 0.0221951 0.453732 0.5
973 27 0.0530068 0.462917 0.5
141 31 0.100236 0.416705 0.5
288 33 0.0766166 0.440869 0.5
698 27 0.11075 0.451321 0.5
548 33 0.136375 0.423832 0.5
233 29 0.170137 0.435285 0.5
962 37 0.144364 0.458435 0.5
542 31 0.193707 0.41293 0.5
781 30 0.201623 0.44614 0.5
686 30 0.227498 0.425348 0.5
336 33 0.236339 0.456759 0.5
512 31 0.177388 0.469214 0.5
851 31 0.284934 0.410911 0.5
405 30 0.261316 0.434734 0.5
917 34 0.269056 0.468631 0.5
8 28 0.294109 0.446021 0.5
586 35 0.317971 0.421515 0.5
687 31 0.32506 0.455046 0.5
234 32 0.352229 0.43262 0.5
541 31 0.35801 0.464209 0.5
882 33 0.383977 0.441181 0.5
532 30 0.408061 0.417989 0.5
331 29 0.415593 0.452981 0.5
785 32 0.439337 0.430258 0.5
786 34 0.450559 0.46313 0.5
563 33 0.47289 0.437502 0.5
333 30 0.49689 0.414692 0.5
162 31 0.507114 0.449979 0.5
36 33 0.530408 0.425679 0.5
228 29 0.539399 0.458955 0.5
734 31 0.562261 0.436852 0.5
658 33 0.597268 0.444633 0.5
977 33 0.624921 0.422789 0.5
692 29 0.631911 0.45556 0.5
626 32 0.679492 0.410559 0.5
893 30 0.656441 0.4323 0.5
549 30 0.688374 0.442803 0.5
504 34 0.6625 0.4649 0.5
125 30 0.713535 0.421567 0.5
866 30 0.743013 0.430799 0.5
870 30 0.719167 0.453047 0.5
727 33 0.753835 0.462983 0.5
404 31 0.779096 0.442457 0.5
531 29 0.80268 0.417661 0.5
431 31 0.811165 0.451502 0.5
892 27 0.837858 0.426898 0.5
426 27 0.866686 0.438255 0.5
821 29 0.842751 0.459065 0.5
952 32 0.874012 0.467769 0.5
416 32 0.890678 0.413114 0.5
443 29 0.898794 0.445601 0.5
166 30 0.922582 0.423819 0.5
540 32 0.932632 0.45648 0.5
879 32 0.99055 0.44248 0.5
156 28 0.958434 0.433958 0.5
566 31 0.96431 0.466146 0.5
519 28 0.0300804 0.485514 0.5
533 32 0.0384267 0.518791 0.5
39 29 0.00737037 0.508849 0.5
343 32 -0.0028693 0.476098 0.5
553 31 0.0862156 0.47339 0.5
983 31 0.0626719 0.494972 0.5
723 30 0.0947455 0.504736 0.5
911 30 0.119938 0.483863 0.5
191 33 0.128465 0.516566 0.5
713 33 0.153564 0.49199 0.5
716 30 0.161124 0.523888 0.5
791 29 0.186102 0.501071 0.5
428 29 0.209992 0.477745 0.5
555 30 0.218684 0.512715 0.5
792 31 0.2432 0.490881 0.5
179 31 0.275436 0.500906 0.5
764 33 0.250544 0.523721 0.5
750 31 0.300023 0.478988 0.5
22 32 0.334445 0.487735 0.5
985 28 0.308816 0.511027 0.5
111 30 0.340873 0.520307 0.5
616 30 0.391328 0.474341 0.5
929 32 0.365621 0.497853 0.5
534 32 0.399442 0.506461 0.5
848 30 0.423053 0.48502 0.5
783 29 0.458642 0.497239 0.5
51 31 0.431672 0.516416 0.5
965 30 0.484077 0.475326 0.5
620 29 0.49255 0.506637 0.5
690 29 0.515477 0.482888 0.5
709 30 0.523413 0.516218 0.5
665 35 0.571998 0.46927 0.5
875 32 0.547095 0.492629 0.5
476 27 0.577691 0.502235 0.5
740 32 0.554334 0.525935 0.5
133 31 0.606107 0.477068 0.5
421 32 0.637576 0.48754 0.5
175 36 0.612609 0.511254 0.5
394 30 0.646534 0.521446 0.5
306 29 0.670785 0.498394 0.5
730 31 0.695072 0.475878 0.5
23 29 0.70276 0.506625 0.5
899 27 0.727445 0.484003 0.5
1000 33 0.735129 0.516379 0.5
157 31 0.786218 0.474399 0.5
17 29 0.760099 0.494228 0.5
101 29 0.795096 0.505811 0.5
176 31 0.818326 0.483748 0.5
478 30 0.826601 0.51599 0.5
383 32 0.85124 0.491651 0.5
70 29 0.857921 0.523198 0.5
277 29 0.882244 0.500373 0.5
165 27 0.906445 0.474674 0.5
679 35 0.91587 0.510566 0.5
829 28 0.941243 0.48957 0.5
968 33 0.949125 0.522138 0.5
47 31 0.973712 0.497863 0.5
633 30 0.012759 0.540771 0.5
41 31 0.045511 0.553341 0.5
784 29 0.0218322 0.575868 0.5
579 29 0.0528142 0.585974 0.5
471 28 0.0704941 0.52693 0.5
480 29 0.0763097 0.559692 0.5
313 32 0.101656 0.538379 0.5
188 31 0.112801 0.570619 0.5
575 31 0.136626 0.548768 0.5
807 27 0.168502 0.555099 0.5
918 34 0.147987 0.581231 0.5
600 33 0.19283 0.533198 0.5
959 29 0.226283 0.544846 0.5
503 33 0.201092 0.566611 0.5
793 30 0.232584 0.576786 0.5
971 26 0.256587 0.554728 0.5
812 29 0.283612 0.535052 0.5
628 31 0.290067 0.566945 0.5
872 34 0.316462 0.544841 0.5
60 29 0.326018 0.579386 0.5
26 34 0.350799 0.5561 0.5
7 32 0.374901 0.531805 0.5
154 30 0.382854 0.563252 0.5
550 28 0.408055 0.538829 0.5
826 30 0.357471 0.589312 0.5
556 30 0.466489 0.52862 0.5
594 32 0.413949 0.57106 0.5
693 30 0.440546 0.549673 0.5
702 29 0.448767 0.581407 0.5
636 27 0.471667 0.561118 0.5
105 31 0.498377 0.53862 0.5
361 31 0.506075 0.570592 0.5
412 30 0.530467 0.548516 0.5
92 29 0.537824 0.581306 0.5
423 32 0.56273 0.557316 0.5
126 31 0.586405 0.533073 0.5
303 30 0.596422 0.56869 0.5
446 30 0.622625 0.542856 0.5
11 33 0.629801 0.576195 0.5
65 31 0.680602 0.529927 0.5
349 35 0.656965 0.553709 0.5
771 28 0.688287 0.566153 0.5
595 32 0.663251 0.587656 0.5
688 29 0.710735 0.5436 0.5
324 34 0.743638 0.550512 0.5
691 34 0.718826 0.57732 0.5
347 36 0.751973 0.586404 0.5
83 31 0.768689 0.526459 0.5
9 29 0.775048 0.560789 0.5
590 28 0.802122 0.538997 0.5
267 29 0.806416 0.569415 0.5
136 33 0.833601 0.550386 0.5
110 30 0.867142 0.556292 0.5
289 27 0.844242 0.58197 0.5
999 33 0.891002 0.532534 0.5
264 31 0.898391 0.566779 0.5
364 31 0.923097 0.543305 0.5
282 29 0.931327 0.576559 0.5
822 32 0.980851 0.531864 0.5
632 30 0.990767 0.566621 0.5
867 33 0.95591 0.554987 0.5
585 31 0.0298292 0.607894 0.5
862 28 0.034707 0.641103 0.5
601 31 0.000729685 0.630192 0.5
135 30 -0.00211972 0.598993 0.5
294 30 0.0599132 0.619849 0.5
960 34 0.0866758 0.591839 0.5
187 32 0.0932466 0.625248 0.5
725 34 0.121465 0.604606 0.5
916 28 0.124565 0.636753 0.5
212 28 0.154722 0.613454 0.5
951 30 0.179425 0.591551 0.5
190 34 0.186807 0.624831 0.5
422 30 0.210868 0.601112 0.5
641 30 0.217155 0.636862 0.5
748 32 0.264749 0.588146 0.5
472 29 0.243843 0.616156 0.5
450 28 0.27423 0.625323 0.5
680 30 0.247901 0.648055 0.5
524 32 0.297208 0.599608 0.5
925 27 0.307656 0.633768 0.5
972 30 0.331471 0.612288 0.5
833 31 0.33805 0.647908 0.5
410 34 0.389377 0.596659 0.5
129 33 0.362414 0.621904 0.5
948 33 0.394601 0.630736 0.5
29 30 0.423184 0.604711 0.5
928 31 0.455587 0.616695 0.5
287 33 0.427786 0.640283 0.5
506 33 0.479926 0.592922 0.5
486 33 0.512284 0.601967 0.5
956 32 0.487549 0.628277 0.5
25 31 0.519746 0.637059 0.5
765 28 0.571284 0.591562 0.5
266 32 0.545289 0.61438 0.5
300 33 0.579083 0.624675 0.5
20 32 0.553447 0.647646 0.5
40 34 0.604544 0.601172 0.5
560 30 0.637715 0.610622 0.5
619 31 0.612189 0.634413 0.5
767 34 0.64445 0.643146 0.5
864 28 0.671524 0.621371 0.5
128 31 0.695203 0.600103 0.5
908 27 0.703105 0.631361 0.5
281 28 0.727252 0.61003 0.5
805 29 0.75697 0.620144 0.5
311 29 0.732489 0.641206 0.5
760 29 0.784051 0.59515 0.5
981 30 0.791721 0.626815 0.5
772 31 0.819172 0.600649 0.5
578 30 0.874257 0.589813 0.5
137 32 0.824696 0.633861 0.5
910 30 0.851555 0.614027 0.5
118 29 0.855628 0.646057 0.5
35 33 0.883501 0.624366 0.5
974 29 0.905553 0.600715 0.5
341 28 0.915758 0.635603 0.5
625 31 0.937 0.611297 0.5
906 34 0.96331 0.589363 0.5
584 28 0.969334 0.622844 0.5
381 31 0.945973 0.646122 0.5
861 32 0.0428635 0.671469 0.5
276 32 0.0195726 0.695594 0.5
134 32 0.00964927 0.662012 0.5
818 28 0.0680437 0.649702 0.5
271 30 0.0741707 0.682639 0.5
495 31 0.0991586 0.658608 0.5
684 28 0.107229 0.690377 0.5
95 31 0.158554 0.645351 0.5
868 34 0.133286 0.669166 0.5
109 35 0.166125 0.680287 0.5
546 31 0.137547 0.702175 0.5
854 29 0.18962 0.65774 0.5
789 29 0.22376 0.669983 0.5
441 30 0.197891 0.688744 0.5
447 33 0.229597 0.701843 0.5
145 28 0.252997 0.679693 0.5
1 29 0.278848 0.656862 0.5
830 30 0.285874 0.688462 0.5
465 29 0.309829 0.664484 0.5
204 32 0.348091 0.680901 0.5
205 29 0.318872 0.695808 0.5
942 28 0.37052 0.655693 0.5
624 28 0.380435 0.688154 0.5
804 30 0.403553 0.663713 0.5
634 25 0.412163 0.696464 0.5
275 31 0.459941 0.648972 0.5
722 32 0.435353 0.67496 0.5
32 27 0.444671 0.706028 0.5
13 31 0.470316 0.679357 0.5
796 29 0.496641 0.659197 0.5
62 30 0.504766 0.691237 0.5
732 30 0.528016 0.66817 0.5
246 32 0.562053 0.679706 0.5
814 31 0.587839 0.658303 0.5
79 33 0.597265 0.691424 0.5
411 31 0.62115 0.667164 0.5
840 29 0.628806 0.700551 0.5
432 30 0.678069 0.652006 0.5
209 29 0.654055 0.676126 0.5
481 30 0.684507 0.689281 0.5
470 30 0.707991 0.66652 0.5
321 31 0.741593 0.674633 0.5
638 37 0.717561 0.699991 0.5
915 29 0.75062 0.708222 0.5
195 33 0.763932 0.650365 0.5
297 30 0.773658 0.683799 0.5
904 32 0.798312 0.658637 0.5
323 30 0.805086 0.691772 0.5
42 35 0.830543 0.668232 0.5
711 32 0.864822 0.677662 0.5
43 32 0.838374 0.701798 0.5
338 30 0.890076 0.658066 0.5
119 30 0.898968 0.690444 0.5
853 26 0.922311 0.666913 0.5
46 32 0.93048 0.700646 0.5
295 32 0.976594 0.654715 0.5
778 28 0.954635 0.67978 0.5
392 30 0.987249 0.687377 0.5
675 29 0.0512233 0.705438 0.5
514 28 0.0253203 0.730241 0.5
605 28 0.0314142 0.76092 0.5
695 27 -0.00298078 0.754045 0.5
489 27 0.0555716 0.73893 0.5
946 30 0.0807268 0.715181 0.5
231 31 0.112811 0.723161 0.5
630 31 0.0868001 0.746858 0.5
757 34 0.119352 0.756271 0.5
401 28 0.147037 0.734266 0.5
790 31 0.172357 0.714032 0.5
398 33 0.177856 0.745794 0.5
359 32 0.205017 0.724559 0.5
777 29 0.213357 0.756614 0.5
869 31 0.261685 0.71162 0.5
696 29 0.238226 0.733399 0.5
718 26 0.267844 0.74252 0.5
151 33 0.296398 0.720814 0.5
970 27 0.297478 0.75217 0.5
475 29 0.331973 0.726317 0.5
116 27 0.327132 0.757608 0.5
714 30 0.359788 0.71194 0.5
86 30 0.36006 0.746897 0.5
954 28 0.389983 0.717254 0.5
48 28 0.396651 0.748176 0.5
117 31 0.420412 0.726352 0.5
152 32 0.453512 0.736375 0.5
909 29 0.427715 0.75653 0.5
543 32 0.477641 0.711846 0.5
186 31 0.513093 0.721522 0.5
388 29 0.487286 0.742309 0.5
45 30 0.521337 0.754771 0.5
958 27 0.536608 0.700223 0.5
371 30 0.544274 0.731189 0.5
406 30 0.567833 0.710389 0.5
758 27 0.571921 0.744261 0.5
370 33 0.598587 0.724791 0.5
572 32 0.633688 0.734482 0.5
526 30 0.605337 0.756917 0.5
69 32 0.640635 0.767249 0.5
825 33 0.659033 0.71063 0.5
604 27 0.666531 0.747972 0.5
820 30 0.69284 0.725133 0.5
800 27 0.702348 0.754612 0.5
437 31 0.726208 0.732762 0.5
850 28 0.759755 0.740067 0.5
978 27 0.736129 0.763994 0.5
816 31 0.781857 0.715988 0.5
454 31 0.814613 0.724422 0.5
932 29 0.790339 0.745882 0.5
522 33 0.821419 0.758063 0.5
997 32 0.874135 0.711198 0.5
573 30 0.846388 0.734123 0.5
108 32 0.857547 0.765777 0.5
635 27 0.87993 0.743389 0.5
163 28 0.905371 0.72237 0.5
683 32 0.908906 0.75503 0.5
654 28 0.934493 0.733238 0.5
322 27 0.961861 0.711158 0.5
318 32 0.993547 0.720884 0.5
599 32 0.964949 0.74316 0.5
64 31 0.942072 0.766131 0.5
200 32 0.0393044 0.795554 0.5
474 29 0.0138645 0.819711 0.5
612 29 0.00491862 0.783987 0.5
269 31 0.0613307 0.770894 0.5
643 29 0.0961087 0.781508 0.5
98 32 0.0714012 0.80459 0.5
149 29 0.103054 0.811945 0.5
237 32 0.151438 0.766151 0.5
876 31 0.12757 0.789623 0.5
969 30 0.159368 0.800483 0.5
477 31 0.187383 0.777333 0.5
726 30 0.218731 0.78853 0.5
146 28 0.190538 0.807807 0.5
913 30 0.243044 0.768207 0.5
344 27 0.273686 0.77253 0.5
724 34 0.250235 0.802605 0.5
19 30 0.28361 0.802225 0.5
460 32 0.31139 0.785561 0.5
10 30 0.337215 0.817511 0.5
989 32 0.344953 0.783972 0.5
284 32 0.377756 0.775838 0.5
399 32 0.404144 0.796782 0.5
74 32 0.3699 0.807653 0.5
352 29 0.435128 0.786599 0.5
717 30 0.460899 0.805461 0.5
883 33 0.462895 0.771869 0.5
576 31 0.429735 0.817791 0.5
286 31 0.495999 0.775302 0.5
602 28 0.492888 0.806413 0.5
226 31 0.522825 0.793393 0.5
386 33 0.549126 0.771841 0.5
863 29 0.584949 0.806826 0.5
667 29 0.551565 0.809893 0.5
479 26 0.580184 0.776605 0.5
547 32 0.614028 0.789551 0.5
189 23 0.63343 0.812516 0.5
755 28 0.657841 0.795156 0.5
773 26 0.680651 0.775948 0.5
979 32 0.686827 0.809031 0.5
3 32 0.710856 0.784397 0.5
520 31 0.744101 0.794282 0.5
337 30 0.719001 0.815554 0.5
335 32 0.767452 0.771298 0.5
327 31 0.775351 0.803569 0.5
184 29 0.798647 0.781426 0.5
49 29 0.806642 0.81301 0.5
50 31 0.83149 0.790139 0.5
354 32 0.862311 0.803837 0.5
373 32 0.835066 0.825196 0.5
463 29 0.886425 0.781095 0.5
878 31 0.917121 0.789085 0.5
142 31 0.893661 0.813814 0.5
496 30 0.927579 0.822383 0.5
319 30 0.949852 0.7981 0.5
678 30 0.972478 0.776639 0.5
93 35 0.981445 0.808881 0.5
88 35 0.0467858 0.830556 0.5
254 31 0.0211313 0.85218 0.5
56 29 0.0330426 0.882928 0.5
236 35 0.0609575 0.86435 0.5
240 30 0.0809242 0.835379 0.5
889 29 0.0943553 0.862686 0.5
308 29 0.134226 0.820697 0.5
839 29 0.126151 0.853594 0.5
539 31 0.156967 0.846884 0.5
223 26 0.14855 0.877896 0.5
827 35 0.22023 0.823988 0.5
224 30 0.181632 0.868788 0.5
435 28 0.188017 0.837973 0.5
801 29 0.212066 0.85832 0.5
468 29 0.243216 0.848075 0.5
160 30 0.272347 0.833662 0.5
342 34 0.269258 0.867782 0.5
351 31 0.237769 0.879041 0.5
82 32 0.304781 0.827222 0.5
617 32 0.303057 0.862178 0.5
320 32 0.333253 0.851244 0.5
639 27 0.398767 0.830131 0.5
552 30 0.358299 0.875434 0.5
15 32 0.364871 0.840598 0.5
739 35 0.389822 0.863201 0.5
53 32 0.423706 0.850165 0.5
640 33 0.456671 0.840425 0.5
220 30 0.448565 0.875123 0.5
99 28 0.519444 0.823904 0.5
235 32 0.480927 0.866523 0.5
417 28 0.488691 0.835759 0.5
627 31 0.512586 0.855857 0.5
222 31 0.544334 0.846868 0.5
735 29 0.576945 0.837911 0.5
391 28 0.569814 0.870235 0.5
507 30 0.537709 0.878689 0.5
198 32 0.608148 0.827063 0.5
535 28 0.602827 0.858802 0.5
59 28 0.631526 0.849799 0.5
390 31 0.625929 0.882098 0.5
304 29 0.659231 0.829471 0.5
292 30 0.690928 0.855361 0.5
268 36 0.659022 0.868268 0.5
993 30 0.722732 0.847362 0.5
562 33 0.750715 0.82906 0.5
153 33 0.753506 0.86513 0.5
139 30 0.715521 0.878432 0.5
482 30 0.782827 0.834584 0.5
782 29 0.812352 0.848632 0.5
30 31 0.787665 0.866782 0.5
669 34 0.81919 0.884648 0.5
570 32 0.843802 0.856905 0.5
185 33 0.868644 0.836075 0.5
302 29 0.880765 0.867136 0.5
123 25 0.902379 0.844363 0.5
697 33 0.932387 0.855096 0.5
759 33 0.940683 0.887391 0.5
880 34 0.997258 0.878466 0.5
955 29 0.957293 0.833785 0.5
810 31 0.989319 0.842562 0.5
285 30 0.966006 0.865527 0.5
501 32 0.0173665 0.912218 0.5
613 29 0.0529407 0.907793 0.5
689 30 0.0419631 0.937572 0.5
510 32 0.0831403 0.893072 0.5
396 31 0.108605 0.918422 0.5
238 28 0.0777879 0.927642 0.5
515 30 0.117233 0.885303 0.5
161 29 0.14017 0.908152 0.5
518 30 0.165149 0.932362 0.5
194 31 0.170794 0.898572 0.5
747 28 0.205919 0.889272 0.5
992 33 0.231883 0.914353 0.5
433 28 0.197166 0.922907 0.5
610 30 0.262687 0.901838 0.5
647 30 0.286391 0.92666 0.5
865 27 0.255986 0.935422 0.5
439 29 0.32667 0.884977 0.5
554 30 0.295128 0.895175 0.5
315 30 0.320707 0.917822 0.5
775 32 0.345953 0.942591 0.5
567 30 0.353235 0.907698 0.5
127 27 0.384206 0.896167 0.5
387 30 0.378254 0.928994 0.5
419 32 0.41606 0.885357 0.5
257 32 0.410256 0.91793 0.5
5 32 0.443807 0.909535 0.5
860 30 0.465956 0.932637 0.5
449 29 0.474462 0.898475 0.5
731 32 0.498187 0.92169 0.5
670 32 0.506077 0.888496 0.5
657 28 0.529769 0.91151 0.5
941 30 0.562768 0.900191 0.5
525 29 0.556166 0.932143 0.5
937 31 0.588242 0.922821 0.5
291 29 0.593445 0.890529 0.5
362 31 0.621574 0.913909 0.5
537 29 0.647688 0.937678 0.5
817 33 0.653493 0.902531 0.5
877 30 0.685178 0.892177 0.5
192 33 0.679335 0.925065 0.5
366 30 0.710361 0.910775 0.5
609 30 0.742236 0.899422 0.5
395 29 0.73709 0.933364 0.5
708 29 0.769147 0.929595 0.5
774 32 0.774109 0.897389 0.5
741 32 0.801737 0.915526 0.5
147 30 0.833963 0.913512 0.5
843 32 0.854772 0.888414 0.5
681 28 0.860203 0.933664 0.5
221 27 0.909644 0.878942 0.5
314 31 0.88257 0.912308 0.5
558 31 0.915565 0.91102 0.5
334 32 0.948038 0.926926 0.5
299 28 0.969729 0.899179 0.5
219 29 0.986293 0.926683 0.5
931 30 0.0108169 0.945002 0.5
436 31 0.0337864 0.969089 0.5
922 33 0.058618 0.993901 0.5
113 32 0.068698 0.95796 0.5
34 31 0.0911705 0.983064 0.5
905 30 0.100681 0.948961 0.5
262 31 0.150349 0.996194 0.5
873 31 0.132428 0.940421 0.5
943 36 0.125149 0.972557 0.5
248 28 0.160213 0.96412 0.5
38 30 0.182691 0.98874 0.5
642 31 0.213866 0.977799 0.5
894 29 0.191156 0.95436 0.5
207 31 0.221326 0.944667 0.5
710 33 0.271291 0.991711 0.5
828 30 0.245311 0.967022 0.5
261 33 0.277904 0.959461 0.5
61 31 0.302794 0.982797 0.5
213 31 0.309269 0.949368 0.5
459 33 0.334294 0.973932 0.5
462 30 0.360908 0.994268 0.5
907 29 0.394044 0.983294 0.5
131 29 0.369602 0.963003 0.5
316 34 0.402541 0.951604 0.5
330 29 0.434522 0.942601 0.5
659 32 0.427163 0.975928 0.5
984 31 0.459566 0.965404 0.5
623 33 0.483851 0.987718 0.5
230 31 0.490274 0.953813 0.5
148 32 0.516787 0.977069 0.5
150 34 0.523632 0.943846 0.5
494 27 0.575632 0.98817 0.5
831 30 0.549028 0.967677 0.5
890 32 0.580089 0.955854 0.5
523 27 0.61755 0.945775 0.5
798 32 0.60799 0.977371 0.5
78 26 0.641595 0.969452 0.5
598 32 0.665469 0.990511 0.5
444 32 0.673013 0.958471 0.5
355 31 0.698116 0.979927 0.5
102 27 0.705096 0.944488 0.5
509 29 0.755061 0.991857 0.5
159 32 0.729312 0.966964 0.5
253 30 0.761453 0.960696 0.5
340 27 0.787639 0.983079 0.5
453 28 0.792849 0.950648 0.5
836 30 0.818986 0.975632 0.5
746 28 0.828515 0.94506 0.5
858 31 0.844506 0.99621 0.5
415 28 0.854276 0.964666 0.5
527 30 0.879572 0.987716 0.5
975 29 0.91907 0.943461 0.5
945 32 0.886514 0.952688 0.5
588 29 0.937426 0.996551 0.5
55 29 0.910589 0.974177 0.5
780 30 0.998624 0.974402 0.5
842 29 0.941879 0.967012 0.5
919 28 0.968488 0.986896 0.5
183 29 0.971788 0.954815 0.5
