ITEM: TIMESTEP
1500000
ITEM: NUMBER OF ATOMS
1000
ITEM: BOX BOUNDS pp pp pp
-1.5211456999999999e+01 1.5211456999999999e+01
-1.5211456999999999e+01 1.5211456999999999e+01
-5.0000000000000000e-01 5.0000000000000000e-01
ITEM: ATOMS id type xs ys zs
229 32 0.0571531 0.0305278 0.5
382 37 0.0474945 0.0682002 0.5
895 29 0.0244323 0.0359217 0.5
317 36 0.00922704 0.0651605 0.5
558 31 0.00378655 0.00732118 0.5
202 38 0.0855438 0.0643623 0.5
272 36 0.0913656 0.0300852 0.5
737 34 0.121258 0.0518614 0.5
75 22 0.123165 0.0228035 0.5
615 28 0.157909 0.0529719 0.5
115 23 0.154425 0.0220298 0.5
938 23 0.187389 0.0208871 0.5
923 33 0.192159 0.052055 0.5
920 29 0.218383 0.02239 0.5
27 33 0.208165 0.081026 0.5
806 27 0.174147 0.0780661 0.5
589 24 0.224015 0.0559021 0.5
350 17 0.245791 0.0209748 0.5
33 30 0.254247 0.0463258 0.5
648 25 0.272823 0.0218441 0.5
886 28 0.289888 0.0452215 0.5
448 32 0.275094 0.0736325 0.5
155 30 0.242513 0.078103 0.5
215 28 0.302089 0.0146856 0.5
851 31 0.312864 0.0696206 0.5
976 23 0.320735 0.0383067 0.5
662 32 0.342348 0.0574538 0.5
124 28 0.360236 0.0319662 0.5
298 37 0.334746 0.00997738 0.5
894 27 0.369369 0.00317361 0.5
513 27 0.37437 0.0609265 0.5
673 27 0.390428 0.032969 0.5
170 33 0.408864 0.0601478 0.5
487 30 0.425038 0.0269047 0.5
66 31 0.442461 0.0545849 0.5
461 32 0.456603 0.0238393 0.5
694 31 0.475854 0.048023 0.5
473 31 0.492845 0.0204699 0.5
743 32 0.511604 0.0482136 0.5
14 29 0.526046 0.0153201 0.5
330 28 0.527524 0.0762695 0.5
71 34 0.494956 0.0786142 0.5
706 32 0.543756 0.0411447 0.5
763 34 0.579116 0.0387599 0.5
957 35 0.599641 0.069697 0.5
280 37 0.563157 0.07123 0.5
927 32 0.556946 0.0113009 0.5
167 27 0.613055 0.0387622 0.5
961 30 0.632851 0.0661114 0.5
414 34 0.646392 0.0366462 0.5
493 25 0.666635 0.0635034 0.5
464 30 0.67872 0.0335709 0.5
536 28 0.70096 0.0574863 0.5
898 28 0.711519 0.0270352 0.5
629 26 0.729495 0.0533007 0.5
31 24 0.741276 0.0234376 0.5
492 39 0.753619 0.0778563 0.5
582 29 0.716705 0.0846587 0.5
715 23 0.759769 0.0460945 0.5
912 38 0.793668 0.0467522 0.5
452 33 0.827087 0.039848 0.5
57 32 0.819032 0.0722601 0.5
795 35 0.776738 0.0171788 0.5
178 24 0.80943 0.0122504 0.5
655 29 0.84895 0.0636569 0.5
208 32 0.862107 0.0352155 0.5
211 19 0.876331 0.0651996 0.5
214 34 0.893872 0.0417979 0.5
301 36 0.905421 0.0781483 0.5
798 34 0.882065 0.00800194 0.5
305 30 0.840695 0.00972138 0.5
408 28 0.916912 0.0197222 0.5
742 31 0.990522 0.0356358 0.5
583 25 0.923858 0.0502561 0.5
919 24 0.945412 0.00891256 0.5
744 33 0.956738 0.0390013 0.5
360 18 0.97322 0.00980725 0.5
676 31 0.978086 0.0694576 0.5
569 33 0.945598 0.0719609 0.5
859 39 0.0340129 0.101458 0.5
994 28 0.0578453 0.125991 0.5
356 25 0.0211181 0.130599 0.5
749 28 0.000358646 0.0980272 0.5
901 36 0.0431071 0.155963 0.5
241 33 0.0698722 0.0963063 0.5
653 25 0.107895 0.08902 0.5
855 31 0.143927 0.0811087 0.5
561 32 0.0803889 0.152891 0.5
393 38 0.0923277 0.121649 0.5
733 37 0.12699 0.114448 0.5
97 24 0.112196 0.149498 0.5
700 26 0.142091 0.145165 0.5
797 31 0.160112 0.110254 0.5
132 31 0.175918 0.139034 0.5
80 29 0.192788 0.109285 0.5
210 28 0.208444 0.136953 0.5
705 29 0.226689 0.107959 0.5
736 26 0.246042 0.13299 0.5
933 29 0.2614 0.105274 0.5
130 28 0.280852 0.130433 0.5
776 31 0.293529 0.101568 0.5
244 29 0.299399 0.157785 0.5
260 28 0.312553 0.128361 0.5
936 25 0.326733 0.0975509 0.5
809 27 0.358926 0.0938427 0.5
87 28 0.344426 0.122138 0.5
120 30 0.368813 0.15019 0.5
770 40 0.334211 0.155749 0.5
273 28 0.391292 0.0880981 0.5
819 30 0.426669 0.0851818 0.5
227 32 0.378503 0.118172 0.5
429 27 0.400012 0.145385 0.5
538 33 0.412952 0.11483 0.5
245 22 0.43148 0.140438 0.5
488 26 0.445339 0.110735 0.5
511 37 0.460457 0.0852092 0.5
996 26 0.464511 0.135549 0.5
823 28 0.481287 0.112419 0.5
216 41 0.498264 0.143486 0.5
181 32 0.515466 0.108551 0.5
203 39 0.537277 0.138219 0.5
517 36 0.550554 0.106416 0.5
409 30 0.585793 0.100975 0.5
953 29 0.573785 0.132615 0.5
114 26 0.609992 0.13145 0.5
239 35 0.594084 0.159586 0.5
104 26 0.653885 0.0965599 0.5
440 38 0.620185 0.0985703 0.5
646 28 0.642792 0.123768 0.5
403 26 0.674133 0.117902 0.5
944 29 0.663639 0.149825 0.5
834 31 0.631759 0.15606 0.5
430 33 0.683895 0.0893592 0.5
457 37 0.697186 0.143728 0.5
900 25 0.705264 0.113541 0.5
761 29 0.729953 0.147233 0.5
90 39 0.738561 0.114366 0.5
699 24 0.762291 0.140948 0.5
982 32 0.78748 0.0827996 0.5
358 28 0.771229 0.110523 0.5
788 33 0.795602 0.132579 0.5
413 26 0.811219 0.103518 0.5
103 32 0.829668 0.129623 0.5
312 38 0.843797 0.0970391 0.5
568 31 0.865723 0.12512 0.5
963 27 0.876422 0.0967876 0.5
485 34 0.901926 0.116244 0.5
745 34 0.891741 0.151377 0.5
138 31 0.990263 0.129797 0.5
799 28 0.9228 0.144715 0.5
677 38 0.935405 0.10572 0.5
310 33 0.953773 0.134487 0.5
425 32 0.967519 0.100851 0.5
270 31 0.00387914 0.164817 0.5
829 25 0.0683674 0.184204 0.5
100 33 0.053805 0.21251 0.5
521 32 0.0338118 0.188614 0.5
6 16 0.0239805 0.218325 0.5
661 30 0.0873318 0.21002 0.5
353 29 0.0980073 0.178179 0.5
530 29 0.131208 0.174673 0.5
346 29 0.118909 0.204277 0.5
283 36 0.13748 0.233294 0.5
365 27 0.105837 0.236244 0.5
964 33 0.154359 0.201945 0.5
813 30 0.163409 0.16947 0.5
712 29 0.194638 0.166911 0.5
751 25 0.186887 0.198723 0.5
377 27 0.206134 0.228011 0.5
264 31 0.173744 0.228438 0.5
618 35 0.217235 0.196112 0.5
326 42 0.23048 0.163373 0.5
171 33 0.267343 0.158739 0.5
614 29 0.237798 0.220646 0.5
967 25 0.249786 0.192859 0.5
762 32 0.272079 0.219643 0.5
162 32 0.285015 0.190188 0.5
542 32 0.305498 0.218642 0.5
939 37 0.321309 0.187204 0.5
856 28 0.339313 0.216478 0.5
756 28 0.3562 0.182998 0.5
28 27 0.374377 0.210152 0.5
199 36 0.389223 0.176052 0.5
252 35 0.410236 0.204201 0.5
847 37 0.426418 0.171367 0.5
555 30 0.448514 0.20106 0.5
290 31 0.429017 0.229536 0.5
18 41 0.462246 0.169 0.5
405 29 0.461882 0.231187 0.5
96 30 0.482803 0.20653 0.5
608 29 0.495516 0.17803 0.5
385 32 0.516944 0.206226 0.5
785 33 0.498707 0.236522 0.5
168 36 0.528921 0.173878 0.5
389 38 0.532437 0.24021 0.5
169 22 0.56288 0.165523 0.5
690 27 0.548097 0.200973 0.5
442 35 0.581038 0.191876 0.5
802 35 0.567893 0.22688 0.5
325 32 0.601602 0.217705 0.5
621 28 0.617694 0.185811 0.5
841 31 0.635135 0.212375 0.5
274 28 0.64843 0.184155 0.5
434 25 0.66694 0.208661 0.5
400 34 0.680765 0.176397 0.5
112 25 0.697532 0.203367 0.5
671 26 0.713508 0.175198 0.5
174 31 0.747803 0.17378 0.5
424 23 0.730258 0.199399 0.5
950 32 0.71842 0.227184 0.5
914 26 0.684663 0.232712 0.5
4 32 0.752723 0.22048 0.5
845 27 0.780923 0.164008 0.5
666 32 0.815341 0.159651 0.5
73 31 0.769928 0.193854 0.5
508 28 0.789095 0.218109 0.5
637 28 0.804303 0.189348 0.5
566 31 0.82619 0.214017 0.5
838 23 0.845146 0.189517 0.5
265 41 0.850852 0.156838 0.5
278 33 0.865878 0.215984 0.5
779 37 0.878983 0.183551 0.5
307 32 0.900691 0.21082 0.5
416 34 0.91428 0.176878 0.5
363 26 0.974015 0.158194 0.5
332 27 0.94428 0.166445 0.5
443 28 1.00262 0.195566 0.5
529 28 0.933206 0.204279 0.5
571 42 0.966312 0.193702 0.5
603 29 0.983711 0.224237 0.5
329 34 0.952767 0.231745 0.5
165 23 0.00823846 0.238486 0.5
540 34 0.0403983 0.243837 0.5
375 30 0.0616863 0.271485 0.5
980 28 0.0307834 0.274578 0.5
557 37 0.00603582 0.302415 0.5
519 24 0.00444471 0.26728 0.5
44 33 0.0412749 0.303957 0.5
803 31 0.0738116 0.241762 0.5
606 34 0.0749328 0.301145 0.5
141 32 0.0939593 0.268539 0.5
381 32 0.108575 0.299213 0.5
12 34 0.125362 0.268474 0.5
177 25 0.142339 0.294517 0.5
313 33 0.1588 0.259083 0.5
345 32 0.176254 0.288299 0.5
418 34 0.193921 0.258645 0.5
574 23 0.210637 0.283933 0.5
2 29 0.197223 0.313269 0.5
686 30 0.227606 0.25164 0.5
233 27 0.245211 0.282131 0.5
24 30 0.260605 0.253089 0.5
428 28 0.292071 0.249187 0.5
672 31 0.277953 0.278273 0.5
84 27 0.267687 0.306274 0.5
611 36 0.230361 0.310823 0.5
787 27 0.360674 0.238104 0.5
369 34 0.299155 0.301554 0.5
196 31 0.32455 0.24375 0.5
259 21 0.313884 0.27281 0.5
723 29 0.331355 0.297363 0.5
720 28 0.345897 0.268845 0.5
837 33 0.36262 0.296254 0.5
882 35 0.379657 0.264505 0.5
848 29 0.395802 0.233254 0.5
564 27 0.40114 0.290499 0.5
54 29 0.415943 0.262547 0.5
597 25 0.435306 0.29111 0.5
966 25 0.445903 0.259898 0.5
728 33 0.468122 0.288786 0.5
232 28 0.476644 0.259541 0.5
376 39 0.505303 0.276661 0.5
885 25 0.524948 0.30841 0.5
995 25 0.494251 0.308214 0.5
935 26 0.540233 0.281156 0.5
651 25 0.560302 0.258333 0.5
228 27 0.55737 0.303587 0.5
991 32 0.591514 0.251413 0.5
263 29 0.576651 0.281453 0.5
888 28 0.592485 0.306491 0.5
72 26 0.609857 0.277813 0.5
144 33 0.622367 0.242718 0.5
372 27 0.654348 0.240017 0.5
664 31 0.640907 0.26939 0.5
734 32 0.673526 0.264299 0.5
707 44 0.662223 0.301264 0.5
645 33 0.625949 0.304793 0.5
674 28 0.698285 0.292035 0.5
607 37 0.708089 0.26099 0.5
977 35 0.731796 0.287489 0.5
368 33 0.743241 0.252969 0.5
21 31 0.763704 0.279961 0.5
497 32 0.776924 0.246459 0.5
121 32 0.795915 0.275523 0.5
658 35 0.810774 0.243548 0.5
383 35 0.835479 0.279846 0.5
593 25 0.813316 0.302942 0.5
225 34 0.884819 0.242496 0.5
874 37 0.919932 0.241231 0.5
402 37 0.846353 0.24488 0.5
217 32 0.867485 0.274452 0.5
91 25 0.901603 0.267797 0.5
887 32 0.893001 0.297478 0.5
94 25 0.923002 0.288337 0.5
491 30 0.942852 0.265686 0.5
892 23 0.977997 0.288445 0.5
879 33 0.975903 0.258772 0.5
176 32 0.95026 0.301988 0.5
438 27 0.0601347 0.329749 0.5
633 30 0.0356432 0.372791 0.5
41 31 0.0301953 0.338393 0.5
578 29 0.00499844 0.361811 0.5
426 23 0.00197103 0.333694 0.5
807 23 0.0657264 0.35855 0.5
652 40 0.0928966 0.335198 0.5
533 35 0.0944261 0.373754 0.5
191 36 0.127905 0.327362 0.5
575 32 0.124056 0.359671 0.5
544 28 0.162019 0.317753 0.5
288 35 0.154921 0.351134 0.5
698 22 0.184426 0.339657 0.5
271 30 0.192033 0.368286 0.5
929 33 0.161365 0.384553 0.5
849 35 0.217118 0.345594 0.5
862 25 0.219413 0.385841 0.5
973 22 0.240793 0.367643 0.5
188 31 0.250069 0.338271 0.5
545 38 0.272132 0.367818 0.5
548 36 0.283095 0.334984 0.5
897 31 0.308602 0.358489 0.5
407 26 0.31856 0.327639 0.5
881 27 0.350654 0.326983 0.5
983 32 0.343525 0.357223 0.5
781 29 0.365068 0.385135 0.5
750 32 0.376466 0.35717 0.5
586 41 0.327457 0.388717 0.5
8 26 0.452078 0.31426 0.5
917 38 0.384268 0.321771 0.5
427 31 0.417751 0.316838 0.5
534 33 0.409693 0.351876 0.5
812 27 0.433686 0.375127 0.5
293 35 0.443831 0.345084 0.5
783 26 0.398909 0.380278 0.5
140 30 0.465708 0.370632 0.5
201 33 0.475004 0.336256 0.5
458 36 0.498558 0.366946 0.5
965 30 0.508958 0.335237 0.5
815 30 0.532903 0.362599 0.5
303 29 0.542396 0.331814 0.5
77 21 0.561701 0.359573 0.5
331 27 0.573793 0.33469 0.5
20 34 0.590307 0.369707 0.5
556 29 0.557824 0.388195 0.5
814 31 0.60649 0.335898 0.5
105 31 0.623168 0.365355 0.5
384 41 0.647129 0.338786 0.5
692 28 0.651433 0.378827 0.5
251 32 0.679824 0.361747 0.5
875 34 0.684365 0.327656 0.5
949 34 0.717025 0.317113 0.5
581 24 0.752496 0.311409 0.5
333 30 0.709676 0.34949 0.5
988 20 0.737316 0.337481 0.5
348 27 0.740666 0.364226 0.5
587 35 0.710719 0.381193 0.5
476 22 0.781273 0.30679 0.5
619 32 0.766779 0.340658 0.5
665 40 0.774401 0.377419 0.5
531 27 0.799061 0.328512 0.5
157 32 0.803882 0.358792 0.5
832 40 0.832362 0.335583 0.5
688 27 0.831863 0.370849 0.5
500 40 0.859872 0.310479 0.5
431 31 0.862277 0.35259 0.5
952 33 0.88831 0.331791 0.5
277 27 0.890374 0.366899 0.5
421 34 0.860822 0.387179 0.5
805 28 0.91921 0.318452 0.5
17 27 0.976083 0.319898 0.5
364 32 0.916831 0.350302 0.5
471 25 0.916918 0.385511 0.5
156 25 0.94563 0.33529 0.5
39 27 0.949053 0.365089 0.5
101 27 0.975407 0.350481 0.5
821 26 0.979653 0.38042 0.5
632 30 0.0642294 0.387681 0.5
784 28 0.0114403 0.395276 0.5
590 25 0.041145 0.442564 0.5
585 32 0.0394493 0.410276 0.5
818 26 0.0137298 0.42801 0.5
625 32 0.0143249 0.46093 0.5
999 36 0.0698974 0.422024 0.5
869 32 0.128837 0.392856 0.5
553 32 0.071408 0.456916 0.5
601 31 0.100576 0.406404 0.5
911 29 0.100157 0.440743 0.5
729 24 0.125463 0.421754 0.5
35 37 0.137434 0.453955 0.5
822 34 0.159859 0.420357 0.5
85 23 0.170833 0.452316 0.5
716 30 0.191916 0.400027 0.5
748 35 0.194752 0.433277 0.5
971 21 0.224364 0.446708 0.5
480 26 0.224017 0.416571 0.5
628 31 0.252414 0.398714 0.5
503 37 0.25301 0.433892 0.5
713 36 0.287574 0.399571 0.5
579 28 0.287617 0.432662 0.5
512 31 0.275887 0.460912 0.5
791 27 0.245335 0.466551 0.5
234 34 0.317762 0.424183 0.5
959 27 0.344737 0.45141 0.5
447 36 0.351851 0.416024 0.5
22 34 0.310479 0.457123 0.5
687 33 0.376177 0.440665 0.5
631 30 0.3874 0.411009 0.5
786 37 0.408884 0.435549 0.5
792 31 0.420952 0.402908 0.5
357 36 0.442721 0.430764 0.5
275 32 0.433775 0.464707 0.5
154 28 0.456066 0.400254 0.5
532 28 0.521701 0.393316 0.5
709 30 0.477906 0.431093 0.5
616 30 0.486353 0.399164 0.5
902 30 0.511559 0.42313 0.5
300 36 0.498463 0.455675 0.5
636 23 0.466584 0.464775 0.5
92 28 0.532109 0.451382 0.5
541 33 0.543262 0.42053 0.5
65 31 0.569485 0.439743 0.5
794 31 0.583683 0.406621 0.5
504 38 0.609863 0.433913 0.5
928 33 0.616216 0.399864 0.5
36 36 0.679929 0.39796 0.5
595 35 0.645786 0.412078 0.5
479 21 0.645277 0.441368 0.5
730 31 0.672517 0.431633 0.5
128 31 0.663566 0.463392 0.5
893 30 0.695677 0.457034 0.5
175 42 0.710015 0.420095 0.5
958 23 0.727357 0.450523 0.5
626 35 0.744402 0.397532 0.5
740 34 0.751789 0.430494 0.5
478 29 0.805168 0.393804 0.5
296 30 0.778754 0.411428 0.5
125 30 0.77811 0.446317 0.5
910 30 0.805288 0.428916 0.5
133 32 0.811617 0.460746 0.5
206 32 0.833721 0.407118 0.5
866 29 0.83746 0.440831 0.5
47 31 0.865478 0.423585 0.5
309 33 0.890256 0.400672 0.5
9 28 0.894029 0.435361 0.5
83 31 0.867977 0.456076 0.5
166 30 0.918531 0.417989 0.5
70 28 0.926414 0.447375 0.5
679 42 0.946675 0.398355 0.5
267 27 0.954814 0.429905 0.5
136 37 0.983004 0.446247 0.5
343 33 0.984132 0.411774 0.5
974 26 0.0462159 0.477486 0.5
968 37 0.0501865 0.513715 0.5
46 33 0.019742 0.496163 0.5
289 23 0.0217839 0.528112 0.5
341 26 0.108451 0.47058 0.5
772 32 0.0756768 0.49005 0.5
778 25 0.0834353 0.526592 0.5
187 33 0.107446 0.501988 0.5
853 20 0.134886 0.51627 0.5
119 29 0.137781 0.486843 0.5
336 35 0.199267 0.466749 0.5
135 29 0.170726 0.482051 0.5
696 27 0.162222 0.511393 0.5
212 25 0.190746 0.506253 0.5
946 30 0.215319 0.531963 0.5
962 45 0.224621 0.494981 0.5
906 38 0.182771 0.540486 0.5
868 37 0.250394 0.522562 0.5
294 30 0.262398 0.491359 0.5
793 29 0.283122 0.516165 0.5
854 28 0.293999 0.486761 0.5
26 39 0.316935 0.511609 0.5
925 23 0.332879 0.477766 0.5
179 31 0.367294 0.472691 0.5
600 35 0.353295 0.504397 0.5
641 29 0.341544 0.536593 0.5
764 36 0.375534 0.529429 0.5
51 31 0.39956 0.469271 0.5
116 23 0.389061 0.500144 0.5
361 33 0.409418 0.529447 0.5
563 35 0.418974 0.496593 0.5
524 33 0.440942 0.521697 0.5
693 29 0.453806 0.492654 0.5
29 29 0.474903 0.518757 0.5
620 28 0.486197 0.488219 0.5
475 26 0.520094 0.481856 0.5
550 25 0.508715 0.51033 0.5
826 30 0.496092 0.544969 0.5
7 34 0.529437 0.537558 0.5
594 33 0.594085 0.465831 0.5
129 36 0.557188 0.470689 0.5
948 36 0.541803 0.505206 0.5
543 33 0.576774 0.498873 0.5
942 26 0.561814 0.531909 0.5
412 29 0.592644 0.530503 0.5
446 28 0.630935 0.465837 0.5
349 40 0.610813 0.49583 0.5
506 36 0.625227 0.528334 0.5
767 39 0.648777 0.497526 0.5
732 28 0.663033 0.527857 0.5
549 30 0.752555 0.466083 0.5
324 38 0.685903 0.495808 0.5
816 32 0.694658 0.531621 0.5
771 26 0.720321 0.479951 0.5
840 26 0.715964 0.508739 0.5
108 33 0.748221 0.500967 0.5
432 29 0.733559 0.533804 0.5
126 32 0.766753 0.528877 0.5
42 40 0.781871 0.483668 0.5
864 25 0.794256 0.515247 0.5
297 30 0.818532 0.493955 0.5
1000 35 0.821034 0.528507 0.5
118 26 0.842463 0.473042 0.5
282 28 0.903524 0.465746 0.5
711 34 0.847996 0.509733 0.5
727 35 0.872964 0.490653 0.5
850 24 0.875857 0.527583 0.5
311 28 0.900164 0.511021 0.5
137 33 0.954405 0.466678 0.5
64 31 0.991153 0.51679 0.5
318 35 0.925692 0.490154 0.5
573 30 0.932615 0.524693 0.5
599 33 0.96074 0.504252 0.5
904 34 0.986808 0.483203 0.5
997 34 0.961975 0.537579 0.5
435 24 0.0513976 0.545176 0.5
269 32 0.0578831 0.58173 0.5
880 39 0.0265502 0.600969 0.5
110 30 0.0269855 0.563857 0.5
960 39 0.06209 0.620161 0.5
725 38 0.113349 0.53702 0.5
916 26 0.148917 0.544883 0.5
861 35 0.0814465 0.558235 0.5
867 36 0.0918142 0.595017 0.5
514 26 0.119361 0.608174 0.5
109 41 0.121777 0.573729 0.5
777 27 0.1491 0.601591 0.5
643 28 0.162953 0.569341 0.5
865 22 0.176433 0.595067 0.5
724 39 0.203448 0.570342 0.5
93 41 0.209127 0.60928 0.5
450 24 0.231751 0.585241 0.5
790 32 0.236874 0.556461 0.5
359 33 0.276702 0.546956 0.5
186 31 0.263032 0.579537 0.5
624 24 0.284995 0.602904 0.5
515 29 0.248685 0.6087 0.5
830 29 0.297964 0.573296 0.5
465 27 0.307551 0.545255 0.5
495 33 0.319744 0.597175 0.5
422 30 0.33275 0.567613 0.5
951 30 0.352734 0.591666 0.5
111 29 0.363786 0.563712 0.5
668 23 0.385125 0.59068 0.5
714 29 0.394181 0.560914 0.5
60 27 0.413952 0.585679 0.5
680 29 0.427246 0.558225 0.5
872 38 0.439832 0.610381 0.5
726 29 0.403895 0.615836 0.5
913 29 0.451205 0.578204 0.5
410 39 0.460993 0.549267 0.5
972 29 0.473036 0.606954 0.5
441 30 0.484813 0.575599 0.5
909 28 0.505926 0.602596 0.5
640 36 0.519198 0.572037 0.5
954 24 0.535953 0.599087 0.5
702 28 0.549987 0.561801 0.5
19 28 0.565527 0.590997 0.5
796 27 0.57957 0.560817 0.5
286 31 0.596661 0.587375 0.5
634 19 0.583015 0.615945 0.5
117 31 0.613043 0.55723 0.5
883 35 0.61198 0.616473 0.5
423 34 0.629023 0.585536 0.5
956 33 0.647714 0.555596 0.5
281 26 0.661425 0.585624 0.5
371 29 0.680835 0.560248 0.5
306 27 0.678524 0.613742 0.5
45 28 0.64868 0.613155 0.5
765 24 0.694555 0.587415 0.5
79 37 0.714146 0.563086 0.5
394 30 0.729466 0.595783 0.5
347 43 0.755356 0.56494 0.5
758 23 0.705731 0.614321 0.5
406 30 0.79241 0.549829 0.5
604 23 0.760554 0.599998 0.5
870 30 0.78742 0.582896 0.5
411 31 0.818328 0.598386 0.5
404 31 0.819893 0.565053 0.5
337 29 0.79035 0.614103 0.5
23 28 0.903301 0.541583 0.5
810 31 0.849205 0.546062 0.5
454 32 0.85032 0.579491 0.5
195 36 0.847831 0.616436 0.5
184 27 0.876661 0.56181 0.5
899 23 0.880639 0.596995 0.5
323 30 0.905322 0.578238 0.5
496 30 0.910198 0.611712 0.5
683 34 0.993676 0.549773 0.5
392 30 0.996445 0.582241 0.5
522 35 0.932207 0.558677 0.5
654 25 0.938154 0.590761 0.5
981 30 0.964803 0.574491 0.5
584 26 0.964938 0.605294 0.5
142 31 -0.00535675 0.615387 0.5
295 33 0.058698 0.683089 0.5
612 27 0.0561305 0.651172 0.5
474 28 0.0232345 0.633808 0.5
878 32 0.0299354 0.667956 0.5
319 29 -0.00162519 0.652813 0.5
774 33 0.00155829 0.689317 0.5
489 22 0.0824128 0.662524 0.5
546 32 0.0900174 0.691053 0.5
43 35 0.0979073 0.633253 0.5
918 39 0.138948 0.635482 0.5
231 32 0.11277 0.665929 0.5
675 27 0.143895 0.67105 0.5
539 31 0.122961 0.695852 0.5
285 30 0.173393 0.624291 0.5
146 25 0.169907 0.655776 0.5
237 34 0.190848 0.682289 0.5
477 31 0.198972 0.646626 0.5
801 26 0.220267 0.670837 0.5
190 39 0.237978 0.642875 0.5
401 25 0.264924 0.661935 0.5
160 29 0.271948 0.630381 0.5
352 27 0.2938 0.659467 0.5
207 31 0.281962 0.688842 0.5
351 31 0.248918 0.689731 0.5
833 32 0.371369 0.620147 0.5
95 32 0.305609 0.627691 0.5
789 28 0.34062 0.62433 0.5
344 22 0.314161 0.68395 0.5
947 33 0.32568 0.654191 0.5
684 25 0.349998 0.683377 0.5
240 29 0.357368 0.652729 0.5
127 24 0.380471 0.678804 0.5
399 34 0.391516 0.649022 0.5
145 25 0.417378 0.674419 0.5
74 35 0.424709 0.643165 0.5
460 34 0.447203 0.669939 0.5
204 34 0.438801 0.701914 0.5
205 28 0.461045 0.6388 0.5
449 26 0.524896 0.628763 0.5
235 35 0.48312 0.665064 0.5
151 37 0.493248 0.631726 0.5
1 26 0.471178 0.696123 0.5
472 27 0.505747 0.690328 0.5
627 33 0.518663 0.659928 0.5
903 31 0.536437 0.688703 0.5
576 33 0.557418 0.625089 0.5
985 25 0.550153 0.659851 0.5
287 35 0.57336 0.685815 0.5
40 38 0.585485 0.648802 0.5
62 28 0.609903 0.677194 0.5
13 31 0.623152 0.647509 0.5
739 42 0.644979 0.677108 0.5
266 35 0.661219 0.644231 0.5
388 26 0.680554 0.672174 0.5
470 30 0.693302 0.644092 0.5
226 31 0.712707 0.670531 0.5
362 32 0.725864 0.636996 0.5
11 37 0.751993 0.665319 0.5
370 36 0.734616 0.695799 0.5
602 26 0.817771 0.629131 0.5
486 37 0.758018 0.629267 0.5
572 33 0.786583 0.649473 0.5
800 24 0.816606 0.656645 0.5
292 28 0.828788 0.682412 0.5
25 33 0.79707 0.681557 0.5
691 38 0.880937 0.63052 0.5
820 29 0.845107 0.650129 0.5
49 28 0.859375 0.679214 0.5
354 34 0.891271 0.668836 0.5
678 30 0.915845 0.644582 0.5
50 32 0.939725 0.621346 0.5
123 19 0.922979 0.673151 0.5
163 26 0.944593 0.657066 0.5
338 29 0.9678 0.636109 0.5
759 35 0.974011 0.671607 0.5
221 23 0.945665 0.691148 0.5
88 40 0.033167 0.707264 0.5
248 26 0.0666637 0.715239 0.5
605 25 0.0461252 0.737262 0.5
975 27 0.015815 0.745105 0.5
149 28 0.0516258 0.766143 0.5
322 23 0.0242277 0.774452 0.5
760 26 0.00301752 0.718824 0.5
876 31 0.0748416 0.746476 0.5
436 31 0.0995544 0.723055 0.5
134 34 0.106381 0.759227 0.5
236 40 0.13329 0.729745 0.5
98 35 0.139517 0.76443 0.5
697 36 0.160812 0.700669 0.5
970 23 0.217366 0.700309 0.5
647 30 0.166553 0.738637 0.5
518 30 0.190666 0.716581 0.5
308 26 0.192997 0.750779 0.5
718 21 0.215853 0.729436 0.5
931 30 0.171646 0.773073 0.5
747 24 0.2205 0.757414 0.5
223 20 0.240084 0.719633 0.5
459 35 0.251662 0.748413 0.5
433 25 0.268051 0.717638 0.5
10 29 0.285853 0.744153 0.5
552 30 0.299382 0.714109 0.5
342 38 0.321257 0.742966 0.5
907 27 0.332277 0.707893 0.5
48 26 0.364787 0.711366 0.5
462 29 0.3549 0.741083 0.5
439 28 0.339473 0.771614 0.5
721 27 0.37148 0.769482 0.5
468 27 0.307527 0.773677 0.5
827 40 0.388751 0.739536 0.5
398 37 0.401118 0.702234 0.5
610 30 0.423371 0.73164 0.5
53 35 0.443346 0.760599 0.5
37 29 0.409408 0.766654 0.5
731 34 0.460315 0.728597 0.5
220 30 0.477153 0.755944 0.5
339 35 0.495397 0.721267 0.5
863 27 0.516571 0.747835 0.5
639 22 0.527105 0.718441 0.5
99 25 0.54714 0.744387 0.5
667 27 0.558029 0.715942 0.5
717 30 0.578801 0.740333 0.5
32 22 0.592035 0.71326 0.5
554 29 0.570008 0.772783 0.5
722 33 0.603412 0.770221 0.5
152 34 0.612331 0.737917 0.5
82 33 0.623295 0.706658 0.5
417 26 0.66821 0.701524 0.5
284 35 0.650436 0.729731 0.5
937 32 0.672824 0.761564 0.5
804 29 0.683449 0.731095 0.5
526 30 0.635835 0.765389 0.5
547 33 0.699249 0.701725 0.5
78 21 0.705634 0.756214 0.5
246 33 0.718788 0.728889 0.5
230 31 0.739107 0.756304 0.5
321 31 0.751997 0.72505 0.5
915 27 0.767691 0.695033 0.5
3 33 0.771317 0.752105 0.5
560 29 0.78611 0.719836 0.5
932 27 0.801879 0.748802 0.5
782 28 0.816101 0.713842 0.5
185 36 0.832994 0.743784 0.5
268 43 0.884204 0.705831 0.5
335 33 0.847962 0.712089 0.5
30 32 0.868864 0.739428 0.5
159 34 0.906444 0.736083 0.5
562 36 0.893242 0.7673 0.5
327 31 0.920193 0.704309 0.5
908 22 0.972964 0.704865 0.5
56 27 0.927584 0.778207 0.5
147 30 0.993086 0.772241 0.5
570 34 0.938063 0.749745 0.5
635 23 0.949947 0.721546 0.5
669 39 0.976145 0.741781 0.5
334 33 0.96056 0.775758 0.5
299 25 0.0637075 0.829392 0.5
254 33 0.0468705 0.799519 0.5
858 33 0.0315994 0.828722 0.5
843 34 0.0122597 0.801613 0.5
757 38 0.0799914 0.785782 0.5
922 36 0.0951176 0.822 0.5
501 34 0.116003 0.792856 0.5
663 33 0.131225 0.822548 0.5
613 28 0.115742 0.851675 0.5
656 22 0.147814 0.850369 0.5
161 27 0.14821 0.796808 0.5
502 26 0.164981 0.826912 0.5
367 28 0.181261 0.803318 0.5
630 32 0.204915 0.783517 0.5
695 22 0.193666 0.829219 0.5
839 28 0.221695 0.814524 0.5
328 23 0.2133 0.847077 0.5
261 37 0.275275 0.778051 0.5
992 36 0.244986 0.842236 0.5
200 34 0.238672 0.784559 0.5
510 35 0.260413 0.810399 0.5
131 28 0.276178 0.840362 0.5
642 31 0.292242 0.809966 0.5
193 28 0.30885 0.83607 0.5
213 32 0.32367 0.800954 0.5
989 34 0.344346 0.83107 0.5
617 33 0.360903 0.801487 0.5
257 33 0.384782 0.827347 0.5
419 33 0.394367 0.795864 0.5
180 33 0.419254 0.81961 0.5
315 28 0.431791 0.790564 0.5
387 29 0.450792 0.816245 0.5
374 34 0.437913 0.847834 0.5
565 27 0.403812 0.852776 0.5
15 33 0.53611 0.776242 0.5
567 29 0.465975 0.787774 0.5
984 32 0.469347 0.840162 0.5
811 27 0.486711 0.813272 0.5
316 37 0.50027 0.780123 0.5
738 32 0.506502 0.837308 0.5
189 14 0.527768 0.80526 0.5
198 35 0.542072 0.832915 0.5
304 28 0.556413 0.801833 0.5
5 33 0.575432 0.82893 0.5
523 22 0.586446 0.798157 0.5
222 33 0.609313 0.822355 0.5
507 29 0.625475 0.794995 0.5
682 35 0.644146 0.82419 0.5
386 36 0.661116 0.793694 0.5
808 27 0.677525 0.82357 0.5
825 36 0.69458 0.786964 0.5
773 21 0.691955 0.849525 0.5
494 23 0.708544 0.814766 0.5
69 35 0.727347 0.788677 0.5
366 29 0.744116 0.815975 0.5
890 33 0.722072 0.841769 0.5
978 23 0.758206 0.784905 0.5
209 26 0.761396 0.841425 0.5
755 25 0.816978 0.777245 0.5
302 26 0.773116 0.808816 0.5
735 28 0.787943 0.778433 0.5
453 26 0.802565 0.80717 0.5
817 35 0.823638 0.832821 0.5
437 32 0.791658 0.840555 0.5
741 33 0.834687 0.801758 0.5
481 30 0.852631 0.773444 0.5
638 46 0.875843 0.802696 0.5
598 34 0.894072 0.836211 0.5
373 35 0.857892 0.837995 0.5
527 28 0.913942 0.805952 0.5
463 27 0.998381 0.829521 0.5
484 34 0.931193 0.833973 0.5
340 23 0.94502 0.804641 0.5
836 29 0.964329 0.832095 0.5
842 28 0.978043 0.804101 0.5
183 28 0.049873 0.858339 0.5
945 34 0.0170248 0.859267 0.5
76 26 0.034374 0.884634 0.5
258 38 0.0474826 0.916842 0.5
153 37 -0.000221643 0.892143 0.5
719 24 0.0146841 0.921701 0.5
689 30 0.0677921 0.88489 0.5
276 34 0.0821759 0.856512 0.5
969 29 0.0809315 0.913397 0.5
746 25 0.0986729 0.88256 0.5
857 39 0.115288 0.909854 0.5
219 28 0.132329 0.878372 0.5
780 29 0.150085 0.910289 0.5
889 28 0.177899 0.854943 0.5
89 30 0.163537 0.880361 0.5
710 36 0.186393 0.906724 0.5
38 29 0.199137 0.876047 0.5
828 29 0.218636 0.904489 0.5
34 31 0.230199 0.872695 0.5
224 30 0.250977 0.903971 0.5
262 32 0.262554 0.872118 0.5
873 32 0.298413 0.867912 0.5
238 25 0.28362 0.894241 0.5
113 35 0.300478 0.92081 0.5
466 42 0.366721 0.859871 0.5
172 21 0.319054 0.893497 0.5
320 33 0.332777 0.864244 0.5
498 29 0.354719 0.89134 0.5
891 33 0.335793 0.919147 0.5
194 31 0.377238 0.914139 0.5
505 33 0.39088 0.884487 0.5
81 28 0.413482 0.909787 0.5
197 29 0.424316 0.87753 0.5
451 33 0.444827 0.907031 0.5
941 29 0.457143 0.873925 0.5
559 33 0.480071 0.898964 0.5
490 32 0.493074 0.867694 0.5
61 32 0.527256 0.866359 0.5
670 34 0.512766 0.896935 0.5
659 35 0.534253 0.922104 0.5
623 36 0.596761 0.857393 0.5
657 25 0.547611 0.892055 0.5
86 30 0.56128 0.860585 0.5
58 27 0.581152 0.888743 0.5
835 33 0.601807 0.914708 0.5
852 34 0.567297 0.919631 0.5
256 33 0.660642 0.852907 0.5
535 25 0.615451 0.884604 0.5
650 29 0.629852 0.857015 0.5
291 27 0.634552 0.91367 0.5
59 24 0.647006 0.88631 0.5
537 27 0.66746 0.914734 0.5
150 38 0.67955 0.882177 0.5
444 33 0.700033 0.913985 0.5
390 32 0.713238 0.877147 0.5
592 25 0.730868 0.905312 0.5
979 34 0.74744 0.870222 0.5
926 33 0.751563 0.930141 0.5
551 30 0.764094 0.899786 0.5
525 26 0.779301 0.873789 0.5
253 29 0.799008 0.898551 0.5
355 31 0.814623 0.868265 0.5
681 24 0.828852 0.896764 0.5
930 26 0.816783 0.924738 0.5
102 23 0.782028 0.926561 0.5
395 28 0.845241 0.868962 0.5
482 29 0.862592 0.897914 0.5
107 29 0.876016 0.865569 0.5
520 31 0.893023 0.896219 0.5
415 25 0.877418 0.922722 0.5
708 26 0.848532 0.927055 0.5
877 29 0.910603 0.865154 0.5
173 30 0.912099 0.922052 0.5
420 34 0.927758 0.893334 0.5
52 37 0.947271 0.862792 0.5
314 31 0.982892 0.861656 0.5
243 33 0.964189 0.893339 0.5
483 28 0.947052 0.923176 0.5
955 28 0.980269 0.921941 0.5
528 33 0.040614 1.0011 0.5
940 27 0.0652939 0.94461 0.5
622 28 0.0539661 0.972958 0.5
768 31 0.0344608 0.949063 0.5
182 32 0.0152434 0.97727 0.5
703 30 -0.00359971 0.947785 0.5
924 26 0.0729683 0.998389 0.5
378 31 0.0855891 0.969208 0.5
68 31 0.1384 0.995289 0.5
164 33 0.105749 0.99776 0.5
63 29 0.0990117 0.939592 0.5
396 31 0.131096 0.941097 0.5
106 21 0.11976 0.970005 0.5
379 27 0.152641 0.968114 0.5
456 31 0.172234 0.995717 0.5
143 30 0.168502 0.937551 0.5
644 30 0.18508 0.965934 0.5
249 34 0.200556 0.936972 0.5
998 31 0.204168 0.994565 0.5
397 32 0.2195 0.964447 0.5
846 33 0.269059 0.928654 0.5
905 30 0.233908 0.931971 0.5
242 35 0.239006 0.993384 0.5
55 28 0.254511 0.958873 0.5
943 43 0.27572 0.989625 0.5
685 30 0.289947 0.954259 0.5
67 30 0.309924 0.98142 0.5
987 34 0.323955 0.95067 0.5
279 32 0.361483 0.943963 0.5
516 39 0.34724 0.975826 0.5
754 31 0.402424 1.00107 0.5
380 37 0.385109 0.970818 0.5
596 28 0.39781 0.938978 0.5
469 36 0.438202 0.996388 0.5
775 33 0.433544 0.938827 0.5
455 31 0.417618 0.969318 0.5
218 23 0.452943 0.964562 0.5
391 25 0.500821 0.9252 0.5
577 36 0.466976 0.931621 0.5
766 29 0.4737 0.994047 0.5
148 34 0.487626 0.957639 0.5
884 36 0.506982 0.988695 0.5
255 29 0.518515 0.955407 0.5
753 32 0.588785 1.00537 0.5
247 24 0.539589 0.984038 0.5
122 30 0.552261 0.953875 0.5
831 29 0.569516 0.978717 0.5
860 30 0.584622 0.947315 0.5
844 33 0.60395 0.975312 0.5
701 37 0.623918 1.00454 0.5
896 30 0.619388 0.945273 0.5
769 29 0.657177 1.00483 0.5
509 27 0.636971 0.975924 0.5
921 36 0.650672 0.944128 0.5
467 31 0.670485 0.973795 0.5
752 26 0.718141 0.938895 0.5
993 30 0.685445 0.945379 0.5
649 35 0.690915 1.00134 0.5
824 31 0.707858 0.969679 0.5
934 25 0.723067 0.998703 0.5
871 28 0.737923 0.962235 0.5
445 35 0.756344 0.988475 0.5
704 34 0.772354 0.958269 0.5
16 32 0.791757 0.986294 0.5
192 36 0.808218 0.954745 0.5
986 29 0.824582 0.983909 0.5
499 19 0.838704 0.958881 0.5
580 27 0.857043 0.981396 0.5
250 30 0.865131 0.951711 0.5
609 30 0.886483 0.976572 0.5
591 26 0.89881 0.94943 0.5
990 39 0.920162 0.986735 0.5
158 35 0.930423 0.954261 0.5
139 29 0.954667 0.977392 0.5
588 27 0.96228 0.949081 0.5
660 28 0.984675 0.977193 0.5
