ITEM: TIMESTEP
1750000
ITEM: NUMBER OF ATOMS
1000
ITEM: BOX BOUNDS pp pp pp
-1.5211456999999999e+01 1.5211456999999999e+01
-1.5211456999999999e+01 1.5211456999999999e+01
-5.0000000000000000e-01 5.0000000000000000e-01
ITEM: ATOMS id type xs ys zs
258 38 0.0166623 0.0370275 0.5
969 29 0.0500709 0.0355733 0.5
940 27 0.0351006 0.0670407 0.5
63 29 0.0681264 0.0652187 0.5
857 39 0.08416 0.0324984 0.5
780 29 0.118937 0.0318243 0.5
710 36 0.151969 0.0305314 0.5
396 31 0.103465 0.0616756 0.5
143 30 0.136293 0.0612282 0.5
106 21 0.0887317 0.0893674 0.5
379 27 0.122558 0.0896239 0.5
828 29 0.187808 0.029972 0.5
905 30 0.205383 0.0580779 0.5
224 30 0.220983 0.025865 0.5
249 34 0.171302 0.0599498 0.5
644 30 0.154776 0.0881014 0.5
397 32 0.189053 0.0880653 0.5
55 28 0.221584 0.0851709 0.5
846 33 0.236916 0.0558027 0.5
238 25 0.250942 0.0213586 0.5
113 35 0.272406 0.0459885 0.5
172 21 0.287323 0.0163211 0.5
987 34 0.293844 0.07408 0.5
685 30 0.260679 0.0791103 0.5
891 33 0.307252 0.0428496 0.5
194 31 0.344551 0.0381956 0.5
81 28 0.380695 0.035137 0.5
596 28 0.367096 0.0634986 0.5
279 32 0.330277 0.0677921 0.5
451 33 0.413299 0.0290156 0.5
577 36 0.434857 0.0570533 0.5
559 33 0.44911 0.0249546 0.5
775 33 0.399176 0.0616021 0.5
148 34 0.454644 0.0848532 0.5
391 25 0.467707 0.0531974 0.5
670 34 0.48212 0.017309 0.5
659 35 0.499862 0.0474794 0.5
657 25 0.51353 0.0129186 0.5
852 34 0.533093 0.0418526 0.5
122 30 0.521854 0.0735754 0.5
255 29 0.488832 0.0786479 0.5
58 27 0.547082 0.0122529 0.5
835 33 0.568417 0.0374188 0.5
291 27 0.602084 0.0367297 0.5
896 30 0.587698 0.0651867 0.5
860 30 0.554777 0.0694278 0.5
921 36 0.621638 0.0659898 0.5
537 27 0.63544 0.0348033 0.5
444 33 0.670587 0.0305486 0.5
752 26 0.689374 0.0570057 0.5
993 30 0.655692 0.0612093 0.5
592 25 0.702388 0.0263898 0.5
926 33 0.722053 0.0531542 0.5
551 30 0.735658 0.0231557 0.5
102 23 0.755318 0.048807 0.5
253 29 0.769673 0.0206429 0.5
871 28 0.707897 0.0813472 0.5
704 34 0.743412 0.0797995 0.5
930 26 0.786653 0.0473163 0.5
681 24 0.799749 0.0170781 0.5
708 26 0.818764 0.0442781 0.5
482 29 0.832746 0.0154531 0.5
499 19 0.808265 0.0697164 0.5
192 36 0.777782 0.079938 0.5
250 30 0.837908 0.0707138 0.5
415 25 0.849602 0.0431362 0.5
173 30 0.880134 0.0457105 0.5
520 31 0.865937 0.015161 0.5
420 34 0.9005 0.0188642 0.5
483 28 0.920824 0.0455792 0.5
591 26 0.869106 0.0760909 0.5
158 35 0.902816 0.0724324 0.5
719 24 0.983205 0.0435781 0.5
955 28 0.952232 0.0451158 0.5
153 37 0.970606 0.0135352 0.5
243 33 0.935893 0.0159704 0.5
768 31 1.00201 0.0690144 0.5
703 30 0.968975 0.0739916 0.5
588 27 0.937466 0.0739339 0.5
378 31 0.0528786 0.0922012 0.5
528 33 0.009331 0.126618 0.5
622 28 0.0216536 0.0956753 0.5
924 26 0.041931 0.121586 0.5
164 33 0.0752213 0.117438 0.5
229 32 0.031747 0.153242 0.5
272 36 0.0675568 0.149434 0.5
68 31 0.107006 0.116755 0.5
456 31 0.139442 0.118031 0.5
938 23 0.153335 0.145003 0.5
75 22 0.0985418 0.146372 0.5
115 23 0.125148 0.145344 0.5
998 31 0.172025 0.118473 0.5
242 35 0.207271 0.11885 0.5
920 29 0.184767 0.148422 0.5
350 17 0.213907 0.147245 0.5
648 25 0.240697 0.143369 0.5
943 43 0.243993 0.110586 0.5
67 30 0.280755 0.107055 0.5
298 37 0.304786 0.134488 0.5
215 28 0.270264 0.138153 0.5
886 28 0.260321 0.168091 0.5
976 23 0.292382 0.164755 0.5
516 39 0.316457 0.100574 0.5
894 27 0.340298 0.128088 0.5
380 37 0.352936 0.0950738 0.5
754 31 0.372505 0.123974 0.5
455 31 0.387969 0.0920814 0.5
673 27 0.360547 0.15503 0.5
124 28 0.328399 0.158475 0.5
218 23 0.422871 0.0881312 0.5
469 36 0.408006 0.119128 0.5
766 29 0.442938 0.115671 0.5
473 31 0.462902 0.143034 0.5
487 30 0.394824 0.150312 0.5
461 32 0.429533 0.145107 0.5
884 36 0.478366 0.111255 0.5
247 24 0.509678 0.10362 0.5
14 29 0.495406 0.1385 0.5
927 32 0.527542 0.131878 0.5
831 29 0.539886 0.101398 0.5
753 32 0.560359 0.127476 0.5
844 33 0.575103 0.0954702 0.5
701 37 0.59373 0.126201 0.5
509 27 0.608937 0.0962915 0.5
763 34 0.550726 0.15969 0.5
167 27 0.5833 0.158402 0.5
414 34 0.616207 0.154244 0.5
467 31 0.642429 0.0923432 0.5
824 31 0.675696 0.0867048 0.5
769 29 0.62867 0.122894 0.5
649 35 0.663504 0.119618 0.5
934 25 0.694015 0.114847 0.5
464 30 0.648622 0.150604 0.5
898 28 0.681795 0.147494 0.5
445 35 0.725233 0.109448 0.5
16 32 0.759915 0.109125 0.5
31 24 0.710903 0.141115 0.5
795 35 0.743734 0.138422 0.5
580 27 0.817464 0.0951499 0.5
986 29 0.792673 0.112081 0.5
305 30 0.822456 0.126269 0.5
609 30 0.848556 0.10063 0.5
178 24 0.776132 0.137755 0.5
452 33 0.803909 0.153887 0.5
208 32 0.838047 0.157172 0.5
798 34 0.859767 0.131242 0.5
990 39 0.88658 0.106549 0.5
139 29 0.922479 0.101589 0.5
408 28 0.892683 0.141121 0.5
919 24 0.9204 0.131478 0.5
214 34 0.870132 0.164938 0.5
182 32 0.988554 0.0998897 0.5
558 31 0.976698 0.130506 0.5
660 28 0.95402 0.104519 0.5
360 18 0.947943 0.133616 0.5
744 33 0.931641 0.162664 0.5
895 29 0.997095 0.15713 0.5
742 31 0.965123 0.1613 0.5
382 37 0.020394 0.18656 0.5
202 38 0.0576549 0.1848 0.5
653 25 0.0791904 0.212412 0.5
241 33 0.0403436 0.215564 0.5
859 39 0.00399988 0.220598 0.5
393 38 0.0619351 0.243889 0.5
737 34 0.0933655 0.178095 0.5
855 31 0.113828 0.208177 0.5
615 28 0.127703 0.177619 0.5
806 27 0.146049 0.205994 0.5
733 37 0.0980124 0.239586 0.5
797 31 0.131339 0.236935 0.5
923 33 0.161295 0.174556 0.5
27 33 0.180149 0.20525 0.5
589 24 0.194741 0.177604 0.5
155 30 0.214254 0.201917 0.5
33 30 0.226418 0.172254 0.5
80 29 0.16305 0.233146 0.5
705 29 0.201449 0.231327 0.5
448 32 0.248418 0.19798 0.5
851 31 0.282121 0.194487 0.5
936 25 0.303079 0.219306 0.5
933 29 0.234803 0.226741 0.5
776 31 0.268034 0.224761 0.5
662 32 0.314729 0.188443 0.5
513 27 0.347598 0.184034 0.5
273 28 0.367807 0.210674 0.5
170 33 0.381674 0.181348 0.5
809 27 0.335933 0.213538 0.5
87 28 0.321585 0.243902 0.5
227 32 0.355252 0.240376 0.5
538 33 0.389358 0.242337 0.5
819 30 0.399937 0.211028 0.5
66 31 0.415239 0.176968 0.5
511 37 0.43386 0.205594 0.5
694 31 0.44729 0.173845 0.5
488 26 0.42024 0.235859 0.5
823 28 0.455069 0.233748 0.5
71 34 0.468502 0.202408 0.5
743 32 0.482892 0.170267 0.5
706 32 0.515447 0.164521 0.5
330 28 0.501731 0.197458 0.5
280 37 0.53522 0.192426 0.5
181 32 0.489273 0.22925 0.5
517 36 0.523604 0.224637 0.5
957 35 0.571533 0.18962 0.5
961 30 0.60633 0.187062 0.5
409 30 0.558077 0.222133 0.5
440 38 0.592335 0.219722 0.5
104 26 0.625906 0.214132 0.5
493 25 0.637548 0.181896 0.5
430 33 0.656581 0.209122 0.5
536 28 0.669276 0.176605 0.5
582 29 0.689735 0.202939 0.5
900 25 0.676143 0.23515 0.5
629 26 0.699872 0.173136 0.5
715 23 0.728896 0.166835 0.5
492 39 0.722705 0.199448 0.5
982 32 0.758416 0.202164 0.5
912 38 0.763342 0.166645 0.5
90 39 0.710311 0.233323 0.5
358 28 0.744191 0.230878 0.5
57 32 0.789874 0.189199 0.5
655 29 0.820363 0.184317 0.5
963 27 0.844628 0.213738 0.5
413 26 0.777829 0.226479 0.5
312 38 0.809894 0.21725 0.5
211 19 0.849827 0.186755 0.5
301 36 0.878829 0.20097 0.5
583 25 0.900391 0.169298 0.5
569 33 0.916454 0.196009 0.5
677 38 0.90254 0.230545 0.5
485 34 0.867631 0.239656 0.5
317 36 0.984374 0.188392 0.5
676 31 0.951442 0.193835 0.5
749 28 0.97009 0.221807 0.5
425 32 0.937345 0.225043 0.5
994 28 0.0259513 0.247447 0.5
901 36 0.011985 0.279694 0.5
561 32 0.0477047 0.278199 0.5
829 25 0.0345962 0.307444 0.5
353 29 0.0694623 0.302244 0.5
97 24 0.0810702 0.271165 0.5
700 26 0.116451 0.267352 0.5
132 31 0.149253 0.263236 0.5
530 29 0.102156 0.296913 0.5
813 30 0.136365 0.292497 0.5
751 25 0.156495 0.321107 0.5
712 29 0.167387 0.290328 0.5
210 28 0.182968 0.257144 0.5
326 42 0.202217 0.284085 0.5
736 26 0.222352 0.254949 0.5
618 35 0.190996 0.318539 0.5
967 25 0.223876 0.313173 0.5
171 33 0.238903 0.282791 0.5
260 28 0.288472 0.247664 0.5
130 28 0.254873 0.253371 0.5
244 29 0.273352 0.278657 0.5
770 40 0.307146 0.275744 0.5
939 37 0.291138 0.307883 0.5
162 32 0.256634 0.309465 0.5
120 30 0.34205 0.270782 0.5
429 27 0.374373 0.269522 0.5
756 28 0.326666 0.304194 0.5
199 36 0.358758 0.300284 0.5
847 37 0.39585 0.297202 0.5
245 22 0.408035 0.266902 0.5
996 26 0.437448 0.260866 0.5
18 41 0.431354 0.295348 0.5
216 41 0.472582 0.263511 0.5
203 39 0.510414 0.25822 0.5
169 22 0.531764 0.285395 0.5
168 36 0.50026 0.29523 0.5
608 29 0.466657 0.299292 0.5
953 29 0.54373 0.253092 0.5
239 35 0.564177 0.280357 0.5
114 26 0.577647 0.249496 0.5
834 31 0.599629 0.275724 0.5
646 28 0.611983 0.246426 0.5
442 35 0.550603 0.312407 0.5
621 28 0.585648 0.306099 0.5
403 26 0.644844 0.237989 0.5
944 29 0.632661 0.270935 0.5
457 37 0.66648 0.265218 0.5
671 26 0.6886 0.296194 0.5
274 28 0.620254 0.300837 0.5
400 34 0.652841 0.299371 0.5
761 29 0.699904 0.265377 0.5
699 24 0.730988 0.260855 0.5
845 27 0.753048 0.286173 0.5
788 33 0.764307 0.255102 0.5
174 31 0.721518 0.291041 0.5
666 32 0.786718 0.283708 0.5
103 32 0.799314 0.251208 0.5
265 41 0.821618 0.280553 0.5
568 31 0.83347 0.245406 0.5
637 28 0.774016 0.314181 0.5
838 23 0.806708 0.310634 0.5
779 37 0.846799 0.306863 0.5
745 34 0.85824 0.271824 0.5
799 28 0.890659 0.264898 0.5
332 27 0.912824 0.288126 0.5
416 34 0.881775 0.29915 0.5
310 33 0.924792 0.257896 0.5
356 25 0.990667 0.252776 0.5
270 31 0.976642 0.282432 0.5
138 31 0.959178 0.25208 0.5
363 26 0.944204 0.284432 0.5
571 42 0.93544 0.316508 0.5
521 32 1.00367 0.312586 0.5
443 28 0.971055 0.313979 0.5
100 33 0.0232768 0.339772 0.5
803 31 0.0441065 0.366362 0.5
661 30 0.055361 0.332746 0.5
365 27 0.0780988 0.361656 0.5
540 34 0.0101186 0.370887 0.5
375 30 0.0301441 0.397449 0.5
141 32 0.0662058 0.392633 0.5
964 33 0.123121 0.323072 0.5
346 29 0.0895919 0.328352 0.5
283 36 0.110986 0.355815 0.5
264 31 0.145039 0.348675 0.5
313 33 0.13251 0.382075 0.5
12 34 0.0987175 0.387837 0.5
377 27 0.175954 0.348144 0.5
614 29 0.211883 0.344357 0.5
24 30 0.231678 0.372341 0.5
418 34 0.168016 0.379334 0.5
686 30 0.200217 0.375275 0.5
762 32 0.243875 0.340107 0.5
542 32 0.278825 0.339505 0.5
196 31 0.296743 0.367506 0.5
428 28 0.264253 0.368685 0.5
259 21 0.284023 0.396532 0.5
856 28 0.312563 0.336315 0.5
28 27 0.34458 0.332302 0.5
787 27 0.330738 0.361159 0.5
848 29 0.364602 0.359817 0.5
252 35 0.379458 0.328884 0.5
720 28 0.317221 0.393163 0.5
882 35 0.351125 0.389031 0.5
54 29 0.386143 0.388137 0.5
555 30 0.4141 0.32791 0.5
290 31 0.399002 0.359213 0.5
405 29 0.430727 0.355371 0.5
96 30 0.448012 0.326484 0.5
966 25 0.416613 0.386676 0.5
232 28 0.446955 0.381244 0.5
785 33 0.467611 0.355944 0.5
385 32 0.485119 0.327678 0.5
389 38 0.502245 0.361401 0.5
690 27 0.519162 0.323195 0.5
376 39 0.479828 0.394795 0.5
651 25 0.530323 0.376024 0.5
802 35 0.540591 0.345796 0.5
325 32 0.573934 0.338027 0.5
144 33 0.595774 0.364448 0.5
841 31 0.606246 0.330374 0.5
991 32 0.562671 0.37301 0.5
664 31 0.609105 0.394641 0.5
112 25 0.6714 0.324248 0.5
372 27 0.627101 0.357593 0.5
434 25 0.639345 0.328847 0.5
914 26 0.658086 0.354244 0.5
950 32 0.691354 0.348971 0.5
607 37 0.675232 0.3826 0.5
734 32 0.641342 0.385743 0.5
424 23 0.706325 0.319442 0.5
73 31 0.740816 0.317005 0.5
4 32 0.724391 0.345101 0.5
508 28 0.759056 0.342726 0.5
497 32 0.74568 0.374766 0.5
368 33 0.710396 0.376449 0.5
566 31 0.792738 0.340683 0.5
278 33 0.828046 0.33523 0.5
658 35 0.779538 0.373097 0.5
402 37 0.815892 0.368031 0.5
225 34 0.850601 0.364305 0.5
307 32 0.867922 0.333523 0.5
874 37 0.889594 0.363586 0.5
529 28 0.900305 0.328663 0.5
329 34 0.923696 0.352763 0.5
91 25 0.869029 0.389496 0.5
491 30 0.916126 0.389246 0.5
6 16 0.991836 0.34181 0.5
603 29 0.960084 0.34397 0.5
165 23 0.978053 0.366045 0.5
879 33 0.947011 0.376181 0.5
519 24 0.971002 0.393133 0.5
44 33 0.0118451 0.430259 0.5
606 34 0.050755 0.424628 0.5
438 27 0.0366707 0.454437 0.5
652 40 0.0707516 0.456052 0.5
41 31 0.00687449 0.464132 0.5
381 32 0.0855777 0.420506 0.5
177 25 0.118955 0.414081 0.5
544 28 0.139914 0.439449 0.5
345 32 0.152952 0.410103 0.5
191 36 0.107167 0.447014 0.5
288 35 0.132784 0.47294 0.5
574 23 0.186569 0.404969 0.5
2 29 0.173317 0.433855 0.5
611 36 0.206449 0.431827 0.5
233 27 0.218137 0.401158 0.5
698 22 0.160662 0.460669 0.5
849 35 0.191416 0.466538 0.5
188 31 0.224854 0.460572 0.5
84 27 0.238764 0.430351 0.5
672 31 0.250598 0.399373 0.5
369 34 0.272228 0.425159 0.5
723 29 0.30527 0.423858 0.5
407 26 0.293207 0.452196 0.5
548 36 0.257536 0.456822 0.5
837 33 0.337698 0.420196 0.5
564 27 0.372192 0.415974 0.5
881 27 0.324107 0.45019 0.5
917 38 0.35844 0.448551 0.5
427 31 0.393227 0.442706 0.5
597 25 0.404712 0.413896 0.5
8 26 0.423936 0.438431 0.5
728 33 0.440759 0.412754 0.5
201 33 0.44929 0.457029 0.5
293 35 0.414301 0.469437 0.5
995 25 0.468891 0.427472 0.5
935 26 0.514807 0.400162 0.5
885 25 0.497311 0.426154 0.5
228 27 0.529749 0.427153 0.5
303 29 0.512988 0.454201 0.5
965 30 0.481246 0.456634 0.5
263 29 0.546777 0.401293 0.5
72 26 0.579683 0.403043 0.5
888 28 0.56245 0.429551 0.5
645 33 0.594539 0.432011 0.5
331 27 0.545458 0.455717 0.5
814 31 0.576167 0.459576 0.5
384 41 0.615598 0.46355 0.5
707 44 0.630374 0.422915 0.5
674 28 0.66489 0.414925 0.5
875 34 0.653434 0.452145 0.5
949 34 0.685558 0.440956 0.5
977 35 0.698486 0.409096 0.5
581 24 0.718736 0.433731 0.5
21 31 0.731818 0.40419 0.5
476 22 0.747145 0.431267 0.5
121 32 0.767093 0.406385 0.5
988 20 0.708598 0.460115 0.5
619 32 0.738584 0.463113 0.5
531 27 0.769724 0.450314 0.5
383 35 0.80353 0.401034 0.5
593 25 0.789746 0.430126 0.5
500 40 0.829034 0.432176 0.5
217 32 0.837497 0.396558 0.5
832 40 0.803061 0.460709 0.5
887 32 0.863199 0.422333 0.5
94 25 0.891816 0.407345 0.5
805 28 0.89075 0.441218 0.5
176 32 0.918861 0.423065 0.5
952 33 0.861235 0.458 0.5
156 25 0.922119 0.455899 0.5
980 28 0.99928 0.400693 0.5
557 37 0.977633 0.425918 0.5
892 23 0.947234 0.408034 0.5
17 27 0.946945 0.438954 0.5
426 23 0.975614 0.456333 0.5
101 27 0.950487 0.470509 0.5
807 23 0.0344316 0.482622 0.5
632 30 0.0383649 0.513286 0.5
533 35 0.0666695 0.493393 0.5
633 30 0.00776916 0.498723 0.5
999 36 0.0417339 0.547669 0.5
601 31 0.0688424 0.528889 0.5
585 32 0.0104214 0.532332 0.5
575 32 0.0978999 0.481572 0.5
869 32 0.0977611 0.515205 0.5
929 33 0.131068 0.506601 0.5
729 24 0.0949116 0.545127 0.5
822 34 0.128058 0.542924 0.5
271 30 0.164078 0.490465 0.5
716 30 0.160432 0.521681 0.5
862 25 0.190161 0.506036 0.5
973 22 0.213453 0.490408 0.5
628 31 0.221677 0.520369 0.5
480 26 0.192943 0.536387 0.5
545 38 0.245081 0.49242 0.5
897 31 0.2783 0.48464 0.5
983 32 0.313116 0.481276 0.5
586 41 0.297213 0.514217 0.5
713 36 0.259507 0.524993 0.5
234 34 0.286405 0.549067 0.5
781 29 0.334366 0.510597 0.5
750 32 0.346274 0.481006 0.5
783 26 0.367599 0.505399 0.5
534 33 0.380814 0.476843 0.5
631 30 0.356583 0.536727 0.5
447 36 0.321601 0.542964 0.5
812 27 0.402829 0.500079 0.5
140 30 0.435374 0.495883 0.5
154 28 0.423997 0.526029 0.5
616 30 0.457955 0.52101 0.5
792 31 0.389711 0.529323 0.5
709 30 0.44798 0.551146 0.5
458 36 0.468796 0.488036 0.5
532 28 0.490982 0.514521 0.5
815 30 0.501208 0.483453 0.5
556 29 0.526845 0.508288 0.5
77 21 0.530597 0.479109 0.5
902 30 0.480616 0.546013 0.5
541 33 0.514755 0.540069 0.5
20 34 0.557227 0.494369 0.5
105 31 0.590521 0.489692 0.5
692 28 0.618974 0.50053 0.5
928 33 0.581143 0.523281 0.5
794 31 0.549274 0.532123 0.5
595 35 0.613536 0.533453 0.5
251 32 0.647086 0.485504 0.5
333 30 0.680897 0.473723 0.5
587 35 0.681049 0.509407 0.5
36 36 0.647036 0.522292 0.5
175 42 0.678769 0.546884 0.5
348 27 0.709983 0.48939 0.5
665 40 0.742469 0.499799 0.5
157 32 0.773924 0.482277 0.5
626 35 0.714276 0.522797 0.5
296 30 0.746345 0.536949 0.5
478 29 0.773844 0.516538 0.5
688 27 0.802273 0.497412 0.5
431 31 0.833756 0.47756 0.5
421 34 0.833375 0.511678 0.5
206 32 0.80427 0.530776 0.5
47 31 0.834439 0.546445 0.5
364 32 0.89198 0.474209 0.5
277 27 0.863535 0.492523 0.5
471 25 0.891699 0.506177 0.5
39 27 0.921629 0.486144 0.5
309 33 0.864783 0.527175 0.5
679 42 0.922663 0.51986 0.5
166 30 0.893689 0.54301 0.5
578 29 0.979465 0.484127 0.5
784 28 0.980726 0.516015 0.5
821 26 0.951002 0.50025 0.5
343 33 0.955318 0.535681 0.5
590 25 0.0130765 0.565787 0.5
553 32 0.041012 0.582569 0.5
911 29 0.0703458 0.564616 0.5
341 26 0.073142 0.595515 0.5
974 26 0.0136294 0.600033 0.5
772 32 0.0415451 0.615499 0.5
35 37 0.104617 0.576667 0.5
85 23 0.138157 0.573292 0.5
135 29 0.132989 0.602234 0.5
119 29 0.102014 0.6096 0.5
212 25 0.154989 0.627086 0.5
748 35 0.163633 0.55498 0.5
336 35 0.166523 0.592283 0.5
971 21 0.191609 0.567725 0.5
791 27 0.208273 0.58981 0.5
503 37 0.221381 0.555425 0.5
962 45 0.189997 0.6219 0.5
294 30 0.226986 0.616535 0.5
512 31 0.239423 0.5864 0.5
579 28 0.254748 0.557595 0.5
22 34 0.27663 0.583953 0.5
959 27 0.307791 0.573949 0.5
925 23 0.300204 0.604036 0.5
854 28 0.258289 0.611478 0.5
687 33 0.344753 0.568798 0.5
51 31 0.365169 0.593765 0.5
786 37 0.37855 0.561361 0.5
179 31 0.331931 0.599771 0.5
116 23 0.35493 0.62594 0.5
563 35 0.386972 0.620098 0.5
357 36 0.415066 0.557679 0.5
275 32 0.401042 0.589681 0.5
636 23 0.435346 0.585137 0.5
693 29 0.423327 0.614631 0.5
620 28 0.454809 0.609944 0.5
300 36 0.467861 0.579908 0.5
92 28 0.503007 0.571603 0.5
129 36 0.52524 0.596465 0.5
65 31 0.538957 0.564447 0.5
475 26 0.487356 0.604866 0.5
948 36 0.51062 0.628183 0.5
504 38 0.575663 0.558281 0.5
594 33 0.560136 0.590457 0.5
446 28 0.59616 0.590299 0.5
479 21 0.609034 0.564669 0.5
543 33 0.544614 0.625866 0.5
349 40 0.580641 0.62001 0.5
767 39 0.61804 0.621106 0.5
128 31 0.630046 0.588436 0.5
730 31 0.642613 0.558451 0.5
893 30 0.662789 0.588168 0.5
958 23 0.690498 0.578389 0.5
771 26 0.689567 0.60662 0.5
324 38 0.65538 0.623105 0.5
740 34 0.715606 0.557386 0.5
549 30 0.718835 0.592473 0.5
125 30 0.747346 0.569599 0.5
42 40 0.750666 0.606301 0.5
108 33 0.718186 0.625766 0.5
910 30 0.776131 0.550766 0.5
133 32 0.781038 0.583281 0.5
866 29 0.807584 0.564309 0.5
83 31 0.837682 0.579118 0.5
118 26 0.812043 0.597114 0.5
297 30 0.783867 0.617886 0.5
727 35 0.842976 0.613832 0.5
9 28 0.864988 0.56042 0.5
282 28 0.868845 0.591789 0.5
70 28 0.894461 0.575213 0.5
267 27 0.922319 0.555934 0.5
137 33 0.92377 0.588773 0.5
318 35 0.89422 0.609861 0.5
599 33 0.926596 0.624929 0.5
818 26 0.984234 0.550198 0.5
625 32 0.984843 0.58262 0.5
136 37 0.953003 0.569565 0.5
904 34 0.95486 0.605779 0.5
46 33 0.986379 0.619314 0.5
435 24 0.0173111 0.671091 0.5
968 37 0.0148128 0.638175 0.5
778 25 0.0455604 0.649417 0.5
187 33 0.0714198 0.627369 0.5
861 35 0.0501848 0.682116 0.5
269 32 0.0231922 0.702091 0.5
725 38 0.078856 0.662272 0.5
853 20 0.10046 0.639278 0.5
916 26 0.113086 0.667001 0.5
696 27 0.125591 0.633313 0.5
906 38 0.146444 0.662105 0.5
643 28 0.128768 0.694262 0.5
109 41 0.0943154 0.697501 0.5
946 30 0.181478 0.657937 0.5
868 37 0.215912 0.648167 0.5
790 32 0.208013 0.681986 0.5
724 39 0.168658 0.692405 0.5
359 33 0.240974 0.673121 0.5
793 29 0.250149 0.642278 0.5
465 27 0.27498 0.668202 0.5
26 39 0.283717 0.634543 0.5
641 29 0.307762 0.662001 0.5
422 30 0.29641 0.69406 0.5
830 29 0.262661 0.698729 0.5
600 35 0.320214 0.63044 0.5
764 36 0.342284 0.657087 0.5
361 33 0.376179 0.65248 0.5
111 29 0.33098 0.689562 0.5
714 29 0.363453 0.684351 0.5
524 33 0.409161 0.64588 0.5
410 39 0.429664 0.67378 0.5
29 29 0.44485 0.64046 0.5
826 30 0.463016 0.666063 0.5
680 29 0.395304 0.680399 0.5
441 30 0.451317 0.701106 0.5
550 25 0.477417 0.634315 0.5
7 34 0.497238 0.660421 0.5
942 26 0.532014 0.657139 0.5
640 36 0.484285 0.693864 0.5
702 28 0.51795 0.688192 0.5
412 29 0.565356 0.654214 0.5
506 36 0.599555 0.653067 0.5
796 27 0.548338 0.682871 0.5
117 31 0.582151 0.683226 0.5
956 33 0.618833 0.68185 0.5
732 28 0.635658 0.65274 0.5
816 32 0.667876 0.659227 0.5
840 26 0.688957 0.635576 0.5
371 29 0.650795 0.687759 0.5
79 37 0.685543 0.692576 0.5
432 29 0.702032 0.664166 0.5
126 32 0.732964 0.654606 0.5
864 25 0.758688 0.638039 0.5
406 30 0.759499 0.675052 0.5
347 43 0.725328 0.690196 0.5
711 34 0.814494 0.632907 0.5
1000 35 0.785758 0.654297 0.5
810 31 0.817895 0.667331 0.5
850 24 0.84432 0.650474 0.5
184 27 0.846637 0.681467 0.5
404 31 0.789587 0.68833 0.5
454 32 0.820317 0.700478 0.5
311 28 0.870315 0.63403 0.5
23 28 0.871902 0.665121 0.5
573 30 0.898985 0.646105 0.5
522 35 0.901757 0.679956 0.5
323 30 0.872951 0.698673 0.5
997 34 0.931385 0.659463 0.5
289 23 0.988758 0.656241 0.5
64 31 0.960734 0.63983 0.5
683 34 0.961363 0.674459 0.5
981 30 0.932203 0.695756 0.5
110 30 0.99166 0.687431 0.5
960 39 0.0280454 0.737631 0.5
867 36 0.0589348 0.715653 0.5
43 35 0.0646636 0.755672 0.5
612 27 0.0229987 0.771974 0.5
489 22 0.0503571 0.782576 0.5
514 26 0.0875033 0.730896 0.5
777 27 0.117957 0.724048 0.5
285 30 0.142951 0.746351 0.5
865 22 0.147294 0.717425 0.5
918 39 0.108875 0.759052 0.5
146 25 0.137514 0.777643 0.5
93 41 0.178304 0.735219 0.5
450 24 0.200368 0.711491 0.5
515 29 0.218921 0.735741 0.5
186 31 0.231497 0.706301 0.5
477 31 0.167789 0.769442 0.5
190 39 0.202733 0.764438 0.5
624 24 0.249958 0.730017 0.5
495 33 0.284448 0.724815 0.5
789 28 0.304965 0.752959 0.5
160 29 0.238296 0.759659 0.5
95 32 0.271455 0.755571 0.5
951 30 0.319666 0.71928 0.5
833 32 0.337703 0.747745 0.5
668 23 0.353094 0.71565 0.5
726 29 0.369983 0.74023 0.5
60 27 0.383614 0.710501 0.5
240 29 0.325115 0.779449 0.5
399 34 0.358357 0.777756 0.5
913 29 0.417246 0.705157 0.5
872 38 0.404591 0.735602 0.5
972 29 0.438428 0.730081 0.5
151 37 0.460938 0.759125 0.5
74 35 0.392854 0.767438 0.5
205 28 0.427081 0.760453 0.5
909 28 0.473185 0.726537 0.5
449 26 0.493056 0.751235 0.5
954 24 0.503219 0.721887 0.5
576 33 0.524352 0.749112 0.5
19 28 0.53233 0.716726 0.5
634 19 0.55234 0.7372 0.5
286 31 0.56555 0.709632 0.5
883 35 0.580186 0.740702 0.5
423 34 0.601342 0.711214 0.5
45 28 0.613582 0.74159 0.5
40 38 0.55549 0.76938 0.5
13 31 0.593485 0.770924 0.5
281 26 0.633177 0.713786 0.5
306 27 0.645691 0.742408 0.5
765 24 0.664176 0.714743 0.5
758 23 0.676414 0.740761 0.5
470 30 0.662609 0.76859 0.5
266 35 0.629027 0.770668 0.5
394 30 0.703257 0.723186 0.5
604 23 0.733455 0.723793 0.5
870 30 0.758857 0.707859 0.5
337 29 0.760942 0.740725 0.5
486 37 0.729979 0.754542 0.5
362 32 0.695737 0.765031 0.5
572 33 0.759745 0.774902 0.5
411 31 0.788113 0.721361 0.5
195 36 0.81932 0.735335 0.5
899 23 0.847843 0.716169 0.5
602 26 0.790311 0.755052 0.5
691 38 0.851008 0.75161 0.5
820 29 0.821982 0.769993 0.5
496 30 0.877897 0.732193 0.5
654 25 0.90399 0.711991 0.5
50 32 0.90694 0.744817 0.5
678 30 0.881864 0.766587 0.5
163 26 0.909049 0.77881 0.5
584 26 0.936357 0.727514 0.5
880 39 0.99391 0.722184 0.5
392 30 0.962486 0.708925 0.5
142 31 0.964909 0.741628 0.5
474 28 0.995276 0.755942 0.5
338 29 0.936233 0.758299 0.5
319 29 0.967417 0.773783 0.5
295 33 0.0268883 0.804154 0.5
546 32 0.0594867 0.812637 0.5
248 26 0.0342252 0.835426 0.5
436 31 0.0661397 0.843392 0.5
231 32 0.0821001 0.785693 0.5
539 31 0.0914336 0.817678 0.5
675 27 0.113004 0.79428 0.5
697 36 0.127433 0.824719 0.5
237 34 0.157462 0.804752 0.5
236 40 0.101709 0.850883 0.5
518 30 0.156995 0.840579 0.5
970 23 0.183797 0.826353 0.5
801 26 0.190189 0.797384 0.5
351 31 0.213734 0.817769 0.5
401 25 0.22768 0.790158 0.5
223 20 0.208611 0.845969 0.5
718 21 0.184371 0.854066 0.5
352 27 0.259522 0.784891 0.5
207 31 0.248541 0.813618 0.5
344 22 0.279372 0.812129 0.5
947 33 0.290411 0.783395 0.5
907 27 0.299667 0.837186 0.5
433 25 0.236182 0.843038 0.5
552 30 0.268672 0.840128 0.5
684 25 0.311233 0.808538 0.5
127 24 0.341029 0.805252 0.5
398 37 0.365895 0.826068 0.5
145 25 0.384886 0.79898 0.5
48 26 0.330352 0.834829 0.5
460 34 0.418192 0.79195 0.5
204 34 0.40435 0.823906 0.5
1 26 0.437813 0.822181 0.5
235 35 0.451586 0.792114 0.5
610 30 0.391367 0.856045 0.5
731 34 0.426216 0.852165 0.5
339 35 0.461271 0.846874 0.5
627 33 0.48878 0.783001 0.5
472 27 0.475358 0.816022 0.5
903 31 0.507816 0.81087 0.5
985 25 0.521363 0.780961 0.5
639 22 0.495416 0.842247 0.5
667 27 0.52453 0.837082 0.5
287 35 0.542901 0.805912 0.5
62 28 0.575739 0.797662 0.5
739 42 0.612453 0.802205 0.5
32 22 0.557098 0.833755 0.5
82 33 0.587965 0.829927 0.5
284 35 0.613261 0.854344 0.5
388 26 0.647623 0.799945 0.5
547 33 0.665429 0.8254 0.5
226 31 0.680848 0.795438 0.5
417 26 0.633586 0.829405 0.5
804 29 0.651515 0.855109 0.5
246 33 0.684654 0.856126 0.5
370 36 0.700242 0.822709 0.5
11 37 0.723943 0.792293 0.5
915 27 0.732493 0.825636 0.5
25 33 0.761606 0.808803 0.5
321 31 0.719553 0.854229 0.5
560 29 0.750927 0.850126 0.5
800 24 0.794796 0.783012 0.5
292 28 0.793311 0.813462 0.5
49 28 0.823692 0.801933 0.5
335 33 0.815905 0.835963 0.5
782 28 0.781624 0.842276 0.5
268 43 0.853461 0.824906 0.5
354 34 0.854913 0.788747 0.5
123 19 0.883671 0.797783 0.5
221 23 0.910922 0.807765 0.5
327 31 0.888464 0.828039 0.5
635 23 0.917192 0.837107 0.5
878 32 0.995872 0.789696 0.5
774 33 0.968732 0.808389 0.5
759 35 0.938759 0.792322 0.5
88 40 1.00024 0.828054 0.5
908 22 0.942194 0.824518 0.5
760 26 0.968258 0.83917 0.5
605 25 0.0132759 0.858768 0.5
149 28 0.0213016 0.888756 0.5
876 31 0.0435916 0.866625 0.5
134 34 0.0764444 0.878314 0.5
757 38 0.049764 0.906039 0.5
254 33 0.0145755 0.920247 0.5
501 34 0.0863324 0.913539 0.5
647 30 0.134011 0.863007 0.5
98 35 0.109276 0.886982 0.5
931 30 0.140387 0.896382 0.5
161 27 0.118585 0.922022 0.5
367 28 0.147981 0.927244 0.5
308 26 0.163244 0.874288 0.5
630 32 0.172807 0.908363 0.5
747 24 0.189557 0.881661 0.5
459 35 0.220172 0.873653 0.5
200 34 0.207502 0.90823 0.5
510 35 0.228406 0.937393 0.5
261 37 0.243216 0.903942 0.5
10 29 0.253285 0.870098 0.5
342 38 0.287013 0.869612 0.5
468 27 0.278057 0.901686 0.5
439 28 0.309653 0.8953 0.5
642 31 0.262101 0.933851 0.5
213 32 0.295883 0.927732 0.5
462 29 0.320187 0.864728 0.5
827 40 0.355042 0.860204 0.5
721 27 0.340944 0.891963 0.5
37 29 0.377623 0.887079 0.5
617 33 0.330297 0.92207 0.5
419 33 0.363663 0.917016 0.5
53 35 0.412073 0.883724 0.5
220 30 0.447258 0.881514 0.5
315 28 0.399946 0.914781 0.5
567 29 0.432729 0.909527 0.5
316 37 0.467786 0.909075 0.5
863 27 0.482703 0.872531 0.5
15 33 0.500727 0.899786 0.5
99 25 0.511809 0.867826 0.5
554 29 0.533263 0.894127 0.5
189 14 0.489819 0.928636 0.5
304 28 0.522917 0.924315 0.5
717 30 0.542756 0.862538 0.5
152 34 0.577163 0.861303 0.5
722 33 0.564709 0.893113 0.5
526 30 0.597955 0.886941 0.5
507 29 0.585965 0.918814 0.5
523 22 0.553245 0.922102 0.5
937 32 0.637906 0.885215 0.5
78 21 0.671947 0.885275 0.5
386 36 0.620963 0.914055 0.5
825 36 0.656922 0.913247 0.5
69 35 0.692598 0.916534 0.5
230 31 0.703028 0.884355 0.5
3 33 0.737829 0.881962 0.5
932 27 0.770704 0.877076 0.5
978 23 0.726819 0.912254 0.5
735 28 0.75955 0.907172 0.5
185 36 0.803594 0.869747 0.5
481 30 0.824482 0.895831 0.5
30 32 0.83706 0.861789 0.5
755 25 0.790385 0.900152 0.5
453 26 0.776441 0.932535 0.5
741 33 0.808917 0.927375 0.5
638 46 0.847611 0.925969 0.5
159 34 0.871425 0.858279 0.5
562 36 0.860834 0.890754 0.5
56 27 0.89447 0.896805 0.5
570 34 0.905104 0.865995 0.5
527 28 0.884251 0.926215 0.5
340 23 0.914393 0.923754 0.5
334 33 0.928303 0.894089 0.5
322 23 0.992995 0.893286 0.5
669 39 0.942681 0.861186 0.5
975 27 0.983149 0.866713 0.5
147 30 0.961649 0.891071 0.5
843 34 0.978862 0.920848 0.5
842 28 0.944978 0.922165 0.5
689 30 0.0372059 1.00578 0.5
746 25 0.0676752 1.00352 0.5
299 25 0.031644 0.94575 0.5
183 28 0.0172606 0.977425 0.5
276 34 0.0503873 0.974738 0.5
922 36 0.063439 0.942 0.5
219 28 0.101246 1.00269 0.5
89 30 0.133614 1.00179 0.5
613 28 0.0841244 0.976119 0.5
663 33 0.0986293 0.94711 0.5
656 22 0.114884 0.975799 0.5
502 26 0.130384 0.951912 0.5
889 28 0.149322 0.974882 0.5
38 29 0.168197 1.00234 0.5
34 31 0.200183 1.00016 0.5
839 28 0.193297 0.938921 0.5
695 22 0.167074 0.950396 0.5
328 23 0.179526 0.974739 0.5
992 36 0.211199 0.967174 0.5
262 32 0.233362 0.995363 0.5
873 32 0.266048 0.992496 0.5
320 33 0.297854 0.98748 0.5
131 28 0.247769 0.96572 0.5
193 28 0.279205 0.960209 0.5
498 29 0.322651 1.01431 0.5
505 33 0.360836 1.0094 0.5
989 34 0.313085 0.956082 0.5
466 42 0.336374 0.982395 0.5
257 33 0.349415 0.949019 0.5
565 27 0.371992 0.976377 0.5
180 33 0.384465 0.944615 0.5
197 29 0.392154 1.00284 0.5
941 29 0.426987 0.999064 0.5
490 32 0.46008 0.992046 0.5
387 29 0.417921 0.940845 0.5
374 34 0.404977 0.972522 0.5
984 32 0.438382 0.967303 0.5
811 27 0.448757 0.936414 0.5
61 32 0.494474 0.986801 0.5
86 30 0.528064 0.983655 0.5
738 32 0.47285 0.959341 0.5
198 35 0.506177 0.953554 0.5
5 33 0.540989 0.951988 0.5
535 25 0.582819 1.0095 0.5
59 24 0.612822 1.00643 0.5
623 36 0.562957 0.983154 0.5
222 33 0.574793 0.949483 0.5
650 29 0.59772 0.978625 0.5
682 35 0.608845 0.945677 0.5
150 38 0.645883 1.00402 0.5
390 32 0.680739 0.998721 0.5
256 33 0.628762 0.97272 0.5
808 27 0.644471 0.946359 0.5
773 21 0.663488 0.971669 0.5
494 23 0.67609 0.944187 0.5
890 33 0.696003 0.96738 0.5
979 34 0.714474 0.996254 0.5
525 26 0.749042 0.992911 0.5
366 29 0.714173 0.940725 0.5
302 26 0.744789 0.93666 0.5
209 26 0.729154 0.967983 0.5
437 32 0.759747 0.962869 0.5
355 31 0.781157 0.990014 0.5
395 28 0.814826 0.989042 0.5
107 29 0.849235 0.986702 0.5
817 35 0.795703 0.959308 0.5
373 35 0.830348 0.95884 0.5
877 29 0.88331 0.989134 0.5
52 37 0.91763 0.986229 0.5
598 34 0.865886 0.95857 0.5
484 34 0.899545 0.95465 0.5
76 26 1.00494 1.00581 0.5
945 34 0.983794 0.981014 0.5
314 31 0.951237 0.982206 0.5
858 33 0.998235 0.950149 0.5
463 27 0.965521 0.952512 0.5
836 29 0.932137 0.952762 0.5
