ITEM: TIMESTEP
1250000
ITEM: NUMBER OF ATOMS
1000
ITEM: BOX BOUNDS pp pp pp
-1.5211456999999999e+01 1.5211456999999999e+01
-1.5211456999999999e+01 1.5211456999999999e+01
-5.0000000000000000e-01 5.0000000000000000e-01
ITEM: ATOMS id type xs ys zs
938 23 0.036243 0.0257114 0.5
920 29 0.066142 0.0274786 0.5
923 33 0.0427602 0.0566106 0.5
615 28 0.0100976 0.0575405 0.5
350 17 0.0924856 0.0310041 0.5
648 25 0.117266 0.025475 0.5
589 24 0.0742811 0.0580484 0.5
33 30 0.105583 0.0552676 0.5
886 28 0.139589 0.0481754 0.5
215 28 0.1516 0.0176168 0.5
298 37 0.182546 0.015503 0.5
976 23 0.168139 0.0451348 0.5
894 27 0.218654 0.0106396 0.5
673 27 0.238662 0.0351128 0.5
124 28 0.207154 0.0386917 0.5
487 30 0.274462 0.034583 0.5
461 32 0.313084 0.0269396 0.5
170 33 0.254757 0.0627783 0.5
66 31 0.297426 0.0570328 0.5
473 31 0.346534 0.0293856 0.5
743 32 0.364858 0.0557569 0.5
694 31 0.331911 0.0581884 0.5
14 29 0.379858 0.0228977 0.5
927 32 0.410676 0.0152914 0.5
763 34 0.433267 0.0420698 0.5
706 32 0.39813 0.0506862 0.5
753 32 0.445784 0.0104913 0.5
167 27 0.465729 0.0360549 0.5
701 37 0.479495 0.00612648 0.5
414 34 0.500816 0.0389946 0.5
961 30 0.486685 0.0684002 0.5
769 29 0.511924 0.00213313 0.5
464 30 0.533812 0.0359968 0.5
898 28 0.563989 0.0315568 0.5
536 28 0.553685 0.0624654 0.5
493 25 0.519957 0.0638051 0.5
31 24 0.59225 0.0259417 0.5
795 35 0.623541 0.0235524 0.5
715 23 0.619448 0.056479 0.5
629 26 0.58571 0.0571471 0.5
178 24 0.65386 0.0186001 0.5
452 33 0.684113 0.0339298 0.5
912 38 0.652965 0.0511238 0.5
305 30 0.706981 0.0105849 0.5
798 34 0.741589 0.0188362 0.5
208 32 0.716532 0.0423195 0.5
214 34 0.747788 0.0539177 0.5
408 28 0.776387 0.0346743 0.5
919 24 0.800706 0.0164165 0.5
744 33 0.808231 0.0517991 0.5
583 25 0.780249 0.0632574 0.5
360 18 0.828014 0.0160561 0.5
558 31 0.857156 0.0135771 0.5
895 29 0.87622 0.0426702 0.5
742 31 0.841948 0.0465696 0.5
528 33 0.892518 0.0117177 0.5
229 32 0.913503 0.0372979 0.5
924 26 0.925218 0.00694018 0.5
115 23 1.0085 0.0236553 0.5
272 36 0.947376 0.031887 0.5
75 22 0.980444 0.0288356 0.5
737 34 0.97233 0.0606106 0.5
806 27 0.0261292 0.0832215 0.5
27 33 0.0587343 0.0846988 0.5
80 29 0.0429595 0.111441 0.5
797 31 0.0103063 0.120471 0.5
705 29 0.0791559 0.115444 0.5
155 30 0.0927589 0.0853366 0.5
448 32 0.123971 0.0802579 0.5
933 29 0.113758 0.11063 0.5
851 31 0.158435 0.0744433 0.5
936 25 0.179921 0.096286 0.5
776 31 0.146755 0.103772 0.5
260 28 0.164664 0.128572 0.5
662 32 0.19269 0.0679484 0.5
513 27 0.224518 0.0639837 0.5
809 27 0.209976 0.0956638 0.5
273 28 0.239772 0.0918864 0.5
87 28 0.194603 0.121085 0.5
227 32 0.229031 0.122527 0.5
819 30 0.278542 0.0860783 0.5
511 37 0.312815 0.0876943 0.5
488 26 0.298381 0.116456 0.5
538 33 0.264901 0.116452 0.5
71 34 0.347559 0.0856235 0.5
181 32 0.364532 0.113781 0.5
823 28 0.332067 0.11692 0.5
330 28 0.381647 0.0807325 0.5
280 37 0.419584 0.0775515 0.5
409 30 0.436635 0.10661 0.5
517 36 0.401262 0.108122 0.5
953 29 0.427947 0.135695 0.5
957 35 0.454384 0.0687713 0.5
440 38 0.471051 0.100457 0.5
646 28 0.491086 0.128458 0.5
104 26 0.503967 0.0999331 0.5
430 33 0.535432 0.0906891 0.5
900 25 0.555385 0.115497 0.5
403 26 0.524194 0.123928 0.5
582 29 0.568527 0.0896754 0.5
492 39 0.601335 0.0878528 0.5
90 39 0.589158 0.120893 0.5
358 28 0.623244 0.116955 0.5
982 32 0.636417 0.083747 0.5
57 32 0.667043 0.0816054 0.5
413 26 0.657305 0.109549 0.5
312 38 0.696863 0.100454 0.5
655 29 0.693318 0.0648568 0.5
963 27 0.729597 0.0969097 0.5
211 19 0.720728 0.0710158 0.5
485 34 0.75242 0.125081 0.5
301 36 0.762057 0.087612 0.5
569 33 0.796653 0.0912447 0.5
677 38 0.786991 0.123753 0.5
425 32 0.822717 0.117453 0.5
676 31 0.829707 0.0839187 0.5
317 36 0.864604 0.0749616 0.5
749 28 0.851506 0.106955 0.5
859 39 0.887145 0.102891 0.5
382 37 0.900304 0.0702434 0.5
241 33 0.924767 0.0982758 0.5
202 38 0.93775 0.0650289 0.5
855 31 0.994223 0.0880126 0.5
653 25 0.958692 0.0925478 0.5
393 38 0.941785 0.129572 0.5
733 37 0.974537 0.121395 0.5
132 31 0.0302343 0.1457 0.5
210 28 0.0610124 0.140042 0.5
712 29 0.0486639 0.172801 0.5
813 30 0.0150254 0.174518 0.5
736 26 0.100185 0.136439 0.5
171 33 0.119018 0.164307 0.5
326 42 0.0832658 0.166716 0.5
130 28 0.132619 0.13453 0.5
244 29 0.151426 0.159226 0.5
770 40 0.188947 0.154242 0.5
162 32 0.137308 0.193094 0.5
939 37 0.17162 0.187779 0.5
120 30 0.222644 0.155904 0.5
199 36 0.24275 0.183708 0.5
756 28 0.209015 0.185895 0.5
429 27 0.252662 0.15041 0.5
245 22 0.281612 0.142585 0.5
996 26 0.31616 0.140897 0.5
847 37 0.276305 0.175274 0.5
18 41 0.314916 0.17615 0.5
216 41 0.348959 0.148987 0.5
608 29 0.349031 0.183028 0.5
203 39 0.389008 0.141406 0.5
169 22 0.415675 0.167767 0.5
168 36 0.379931 0.176784 0.5
442 35 0.433978 0.194247 0.5
239 35 0.446973 0.162338 0.5
114 26 0.460814 0.131254 0.5
834 31 0.482232 0.157904 0.5
621 28 0.467526 0.189918 0.5
274 28 0.500796 0.185627 0.5
944 29 0.514001 0.153253 0.5
457 37 0.550684 0.14701 0.5
400 34 0.534372 0.178713 0.5
671 26 0.56787 0.178538 0.5
761 29 0.583347 0.153208 0.5
699 24 0.614775 0.148127 0.5
174 31 0.60242 0.178739 0.5
845 27 0.63418 0.173606 0.5
788 33 0.645648 0.143277 0.5
103 32 0.680113 0.133475 0.5
666 32 0.669314 0.16733 0.5
265 41 0.705346 0.160952 0.5
568 31 0.719681 0.127165 0.5
745 34 0.739738 0.159521 0.5
799 28 0.772655 0.154849 0.5
310 33 0.810703 0.150524 0.5
332 27 0.794035 0.179586 0.5
416 34 0.762352 0.187343 0.5
138 31 0.844489 0.141362 0.5
356 25 0.874467 0.13782 0.5
363 26 0.831848 0.172172 0.5
270 31 0.865613 0.167893 0.5
994 28 0.908 0.127623 0.5
901 36 0.897963 0.16228 0.5
561 32 0.931548 0.163148 0.5
829 25 0.919287 0.191945 0.5
700 26 0.99435 0.148619 0.5
97 24 0.962321 0.154209 0.5
530 29 0.984493 0.177626 0.5
353 29 0.952995 0.186841 0.5
751 25 0.0366362 0.202745 0.5
264 31 0.0297942 0.235833 0.5
377 27 0.0604086 0.230778 0.5
964 33 0.0063552 0.208498 0.5
618 35 0.0704438 0.199888 0.5
967 25 0.105806 0.193318 0.5
762 32 0.129923 0.22447 0.5
614 29 0.0953983 0.224468 0.5
542 32 0.161346 0.219322 0.5
196 31 0.18173 0.246255 0.5
428 28 0.148879 0.249579 0.5
856 28 0.197559 0.215668 0.5
28 27 0.22799 0.213459 0.5
848 29 0.246236 0.238947 0.5
787 27 0.212522 0.243344 0.5
252 35 0.262453 0.209895 0.5
555 30 0.296336 0.20758 0.5
405 29 0.312242 0.23552 0.5
290 31 0.280346 0.237848 0.5
96 30 0.330713 0.208641 0.5
385 32 0.367516 0.209515 0.5
785 33 0.351519 0.238988 0.5
690 27 0.401601 0.202313 0.5
802 35 0.422309 0.227264 0.5
389 38 0.386001 0.244955 0.5
991 32 0.447089 0.251429 0.5
325 32 0.456973 0.22056 0.5
841 31 0.490163 0.213988 0.5
144 33 0.478296 0.245235 0.5
372 27 0.511782 0.242295 0.5
434 25 0.52145 0.209519 0.5
112 25 0.553318 0.207236 0.5
914 26 0.542615 0.235024 0.5
950 32 0.574286 0.2311 0.5
424 23 0.58839 0.204604 0.5
73 31 0.62781 0.203505 0.5
4 32 0.608839 0.23125 0.5
508 28 0.643483 0.230124 0.5
637 28 0.659966 0.197325 0.5
566 31 0.674665 0.224334 0.5
838 23 0.688908 0.192398 0.5
402 37 0.695018 0.252392 0.5
779 37 0.725913 0.190139 0.5
278 33 0.707636 0.218495 0.5
307 32 0.74652 0.218751 0.5
225 34 0.730631 0.248136 0.5
529 28 0.782898 0.212472 0.5
571 42 0.81815 0.2032 0.5
329 34 0.801818 0.240848 0.5
874 37 0.768358 0.248355 0.5
443 28 0.851891 0.199728 0.5
603 29 0.833813 0.232281 0.5
6 16 0.872071 0.225051 0.5
165 23 0.858446 0.25101 0.5
521 32 0.884885 0.194215 0.5
100 33 0.906383 0.220685 0.5
661 30 0.941678 0.217576 0.5
803 31 0.925594 0.248183 0.5
540 34 0.888674 0.252048 0.5
365 27 0.956156 0.244723 0.5
346 29 0.972786 0.21083 0.5
283 36 0.991773 0.239814 0.5
418 34 0.050788 0.261202 0.5
345 32 0.0345471 0.292693 0.5
313 33 0.0126427 0.265379 0.5
574 23 0.0665432 0.288278 0.5
686 30 0.0839112 0.257498 0.5
233 27 0.104078 0.284626 0.5
24 30 0.114701 0.254816 0.5
611 36 0.0890973 0.314334 0.5
84 27 0.121874 0.311332 0.5
672 31 0.136086 0.277935 0.5
259 21 0.166475 0.271789 0.5
723 29 0.18971 0.304105 0.5
369 34 0.157237 0.303518 0.5
720 28 0.19584 0.274828 0.5
882 35 0.232443 0.267764 0.5
564 27 0.256729 0.297278 0.5
837 33 0.221019 0.298795 0.5
54 29 0.26686 0.267926 0.5
966 25 0.301098 0.263395 0.5
597 25 0.285691 0.290426 0.5
728 33 0.328154 0.29039 0.5
232 28 0.331693 0.260971 0.5
376 39 0.365388 0.276771 0.5
995 25 0.354218 0.308697 0.5
885 25 0.383889 0.306464 0.5
651 25 0.417235 0.259047 0.5
935 26 0.402508 0.284665 0.5
263 29 0.435212 0.282129 0.5
228 27 0.416936 0.310603 0.5
72 26 0.463853 0.279078 0.5
664 31 0.496621 0.273653 0.5
888 28 0.447086 0.311366 0.5
645 33 0.478437 0.311415 0.5
734 32 0.527476 0.271647 0.5
607 37 0.561778 0.26432 0.5
707 44 0.513815 0.305641 0.5
674 28 0.549373 0.299165 0.5
977 35 0.581283 0.295076 0.5
368 33 0.595809 0.261887 0.5
21 31 0.61583 0.293177 0.5
497 32 0.628882 0.262465 0.5
581 24 0.600386 0.320433 0.5
476 22 0.629825 0.319178 0.5
658 35 0.662711 0.257826 0.5
121 32 0.649256 0.29231 0.5
383 35 0.681989 0.287447 0.5
593 25 0.670199 0.315607 0.5
217 32 0.714062 0.284023 0.5
91 25 0.746008 0.274709 0.5
887 32 0.743378 0.307995 0.5
500 40 0.706712 0.320044 0.5
491 30 0.798898 0.277974 0.5
94 25 0.770463 0.289755 0.5
176 32 0.797835 0.309215 0.5
879 33 0.826533 0.263803 0.5
892 23 0.825772 0.296813 0.5
519 24 0.851969 0.279821 0.5
557 37 0.857107 0.310486 0.5
980 28 0.879718 0.282661 0.5
375 30 0.910235 0.278798 0.5
606 34 0.929986 0.308857 0.5
44 33 0.891856 0.311776 0.5
141 32 0.944027 0.27846 0.5
12 34 0.977247 0.270756 0.5
177 25 0.998737 0.297033 0.5
381 32 0.963977 0.30396 0.5
544 28 0.0193768 0.320709 0.5
698 22 0.0419013 0.340644 0.5
2 29 0.0557645 0.317414 0.5
288 35 0.0135145 0.357039 0.5
271 30 0.0458255 0.368108 0.5
849 35 0.0753646 0.34825 0.5
188 31 0.109068 0.342947 0.5
973 22 0.0975301 0.372335 0.5
545 38 0.129372 0.370805 0.5
548 36 0.143739 0.338555 0.5
407 26 0.176476 0.332118 0.5
897 31 0.163757 0.36596 0.5
983 32 0.19682 0.360392 0.5
881 27 0.206925 0.331307 0.5
917 38 0.241313 0.328251 0.5
750 32 0.231502 0.360456 0.5
534 33 0.264204 0.355063 0.5
427 31 0.276307 0.322877 0.5
293 35 0.301528 0.34544 0.5
8 26 0.308003 0.313622 0.5
140 30 0.315934 0.376454 0.5
201 33 0.334834 0.332323 0.5
965 30 0.367171 0.33654 0.5
815 30 0.38187 0.365196 0.5
458 36 0.347025 0.366993 0.5
303 29 0.398041 0.336556 0.5
331 27 0.430145 0.340052 0.5
77 21 0.410861 0.364072 0.5
20 34 0.436545 0.376289 0.5
814 31 0.461961 0.34011 0.5
384 41 0.499131 0.344052 0.5
105 31 0.471809 0.369063 0.5
875 34 0.535557 0.335731 0.5
333 30 0.559924 0.35944 0.5
251 32 0.525459 0.369629 0.5
949 34 0.568076 0.326179 0.5
988 20 0.590164 0.348808 0.5
619 32 0.620077 0.349053 0.5
348 27 0.585486 0.376445 0.5
531 27 0.650662 0.339694 0.5
832 40 0.682775 0.347015 0.5
157 32 0.654953 0.370098 0.5
952 33 0.739178 0.344358 0.5
431 31 0.714732 0.364514 0.5
277 27 0.743076 0.38074 0.5
805 28 0.76888 0.328714 0.5
156 25 0.796086 0.342332 0.5
364 32 0.767596 0.361101 0.5
39 27 0.799703 0.371962 0.5
17 27 0.827619 0.326765 0.5
101 27 0.827996 0.356994 0.5
426 23 0.85443 0.341505 0.5
578 29 0.859477 0.371171 0.5
41 31 0.884467 0.348248 0.5
438 27 0.911597 0.336075 0.5
807 23 0.917571 0.363815 0.5
652 40 0.949798 0.34015 0.5
191 36 0.987582 0.327841 0.5
575 32 0.980259 0.363439 0.5
533 35 0.949553 0.375326 0.5
716 30 0.0432439 0.402089 0.5
929 33 0.01437 0.390557 0.5
822 34 0.0149318 0.424841 0.5
748 35 0.048064 0.43696 0.5
862 25 0.0716052 0.384664 0.5
480 26 0.0737401 0.414435 0.5
628 31 0.102773 0.401176 0.5
503 37 0.0994758 0.437274 0.5
713 36 0.139247 0.40403 0.5
586 41 0.179995 0.394219 0.5
234 34 0.165779 0.428803 0.5
579 28 0.131355 0.435004 0.5
447 36 0.204064 0.420023 0.5
781 29 0.216536 0.389176 0.5
783 26 0.249871 0.386775 0.5
631 30 0.238501 0.415661 0.5
812 27 0.284893 0.383236 0.5
792 31 0.271441 0.410289 0.5
154 28 0.306305 0.406912 0.5
357 36 0.294587 0.43813 0.5
616 30 0.340485 0.398795 0.5
532 28 0.372155 0.396761 0.5
902 30 0.362308 0.428741 0.5
709 30 0.329455 0.430331 0.5
556 29 0.403294 0.393195 0.5
794 31 0.429286 0.41051 0.5
541 33 0.398025 0.424712 0.5
928 33 0.463042 0.405591 0.5
692 28 0.497865 0.386135 0.5
595 35 0.496287 0.418419 0.5
504 38 0.458534 0.440708 0.5
36 36 0.527961 0.408182 0.5
587 35 0.559729 0.394432 0.5
175 42 0.558965 0.432555 0.5
730 31 0.522398 0.440682 0.5
626 35 0.592798 0.408582 0.5
665 40 0.620712 0.384306 0.5
296 30 0.624856 0.421486 0.5
740 34 0.598316 0.44225 0.5
478 29 0.651466 0.402203 0.5
688 27 0.683401 0.384382 0.5
206 32 0.683273 0.415159 0.5
910 30 0.657357 0.435152 0.5
421 34 0.711865 0.397863 0.5
309 33 0.741771 0.412894 0.5
47 31 0.715044 0.431724 0.5
9 28 0.747086 0.444905 0.5
471 25 0.770329 0.396384 0.5
679 42 0.803945 0.406803 0.5
166 30 0.773418 0.42802 0.5
267 27 0.801781 0.440082 0.5
821 26 0.834404 0.389856 0.5
784 28 0.865777 0.403169 0.5
343 33 0.835773 0.420342 0.5
818 26 0.865519 0.435437 0.5
585 32 0.895616 0.414964 0.5
633 30 0.891034 0.381421 0.5
632 30 0.922114 0.394439 0.5
999 36 0.925348 0.431074 0.5
601 31 0.951913 0.410488 0.5
869 32 0.981725 0.39826 0.5
729 24 0.983144 0.428883 0.5
336 35 0.0504997 0.474566 0.5
85 23 0.0219445 0.455634 0.5
135 29 0.0186974 0.48482 0.5
971 21 0.0726273 0.45285 0.5
791 27 0.0925747 0.474134 0.5
512 31 0.121667 0.464954 0.5
962 45 0.0757128 0.5042 0.5
294 30 0.113468 0.498072 0.5
22 34 0.158454 0.463284 0.5
854 28 0.144626 0.492711 0.5
925 23 0.180697 0.484845 0.5
959 27 0.190373 0.452618 0.5
687 33 0.226781 0.446854 0.5
51 31 0.245548 0.474156 0.5
179 31 0.212351 0.480342 0.5
786 37 0.260475 0.442757 0.5
275 32 0.279926 0.470485 0.5
693 29 0.300814 0.49511 0.5
563 35 0.265711 0.502263 0.5
636 23 0.31229 0.466832 0.5
300 36 0.344679 0.458909 0.5
475 26 0.364935 0.484317 0.5
620 28 0.334212 0.49096 0.5
92 28 0.380133 0.453581 0.5
65 31 0.423965 0.444251 0.5
594 33 0.43915 0.473051 0.5
129 36 0.405899 0.475402 0.5
446 28 0.477754 0.472101 0.5
479 21 0.491525 0.447104 0.5
767 39 0.499258 0.504045 0.5
349 40 0.461218 0.502846 0.5
128 31 0.510841 0.471556 0.5
893 30 0.543664 0.463863 0.5
324 38 0.536773 0.499277 0.5
958 23 0.573574 0.46184 0.5
771 26 0.56682 0.489393 0.5
549 30 0.597837 0.475973 0.5
125 30 0.630799 0.455893 0.5
42 40 0.627703 0.491412 0.5
133 32 0.662916 0.468646 0.5
866 29 0.6878 0.450333 0.5
118 26 0.692106 0.48134 0.5
297 30 0.661945 0.501575 0.5
83 31 0.717941 0.463337 0.5
282 28 0.749649 0.477449 0.5
727 35 0.723188 0.496471 0.5
70 28 0.776469 0.460549 0.5
137 33 0.807461 0.473041 0.5
318 35 0.778136 0.493533 0.5
136 37 0.835402 0.45347 0.5
625 32 0.869421 0.466 0.5
904 34 0.839986 0.487063 0.5
46 33 0.871314 0.498368 0.5
590 25 0.89539 0.447702 0.5
553 32 0.924723 0.463917 0.5
974 26 0.897022 0.478151 0.5
772 32 0.929236 0.497592 0.5
911 29 0.956712 0.444702 0.5
35 37 0.987365 0.46121 0.5
341 26 0.956718 0.479319 0.5
119 29 0.986368 0.495575 0.5
212 25 0.0405351 0.509282 0.5
906 38 0.0321466 0.543128 0.5
696 27 0.0120873 0.514619 0.5
946 30 0.0652994 0.539607 0.5
868 37 0.100202 0.534134 0.5
359 33 0.124279 0.559667 0.5
790 32 0.0861922 0.565549 0.5
793 29 0.133382 0.523687 0.5
26 39 0.168261 0.520658 0.5
465 27 0.15905 0.556917 0.5
641 29 0.189877 0.544968 0.5
600 35 0.202256 0.512378 0.5
116 23 0.236532 0.504398 0.5
764 36 0.224066 0.5403 0.5
714 29 0.245148 0.568388 0.5
361 33 0.25609 0.535682 0.5
524 33 0.287917 0.526672 0.5
410 39 0.311037 0.550483 0.5
680 29 0.277605 0.560641 0.5
29 29 0.324843 0.519454 0.5
550 25 0.355203 0.515695 0.5
7 34 0.377028 0.541972 0.5
826 30 0.344682 0.54848 0.5
948 36 0.387422 0.50762 0.5
942 26 0.412143 0.535688 0.5
543 33 0.42538 0.505473 0.5
796 27 0.431456 0.564104 0.5
412 29 0.44453 0.535298 0.5
506 36 0.480256 0.536993 0.5
117 31 0.464868 0.565656 0.5
956 33 0.49646 0.565559 0.5
732 28 0.516076 0.534825 0.5
816 32 0.545954 0.547567 0.5
840 26 0.564858 0.519145 0.5
432 29 0.581085 0.545787 0.5
108 33 0.593878 0.506937 0.5
126 32 0.612831 0.537341 0.5
864 25 0.641301 0.521589 0.5
406 30 0.640358 0.554132 0.5
1000 35 0.667932 0.537775 0.5
810 31 0.698495 0.548501 0.5
711 34 0.692997 0.515588 0.5
850 24 0.72498 0.530539 0.5
311 28 0.751321 0.514335 0.5
23 28 0.754382 0.545479 0.5
184 27 0.727438 0.563573 0.5
573 30 0.780106 0.526378 0.5
599 33 0.808822 0.507451 0.5
997 34 0.814196 0.540322 0.5
522 35 0.783108 0.561789 0.5
64 31 0.841261 0.521772 0.5
289 23 0.87106 0.534549 0.5
683 34 0.846393 0.555733 0.5
968 37 0.901144 0.515401 0.5
778 25 0.93218 0.528824 0.5
435 24 0.904133 0.55003 0.5
861 35 0.93237 0.56135 0.5
853 20 0.985659 0.523823 0.5
187 33 0.958351 0.512976 0.5
725 38 0.965623 0.547711 0.5
916 26 0.99957 0.552551 0.5
865 22 0.0356564 0.602704 0.5
724 39 0.0516808 0.574778 0.5
93 41 0.0616953 0.624177 0.5
643 28 0.0154415 0.578861 0.5
285 30 0.0255019 0.633504 0.5
450 24 0.0776164 0.595615 0.5
186 31 0.110631 0.58823 0.5
515 29 0.099372 0.616542 0.5
624 24 0.129577 0.609889 0.5
830 29 0.146324 0.583472 0.5
422 30 0.180791 0.576744 0.5
495 33 0.166289 0.607762 0.5
951 30 0.202868 0.60326 0.5
111 29 0.213391 0.572181 0.5
668 23 0.233771 0.595522 0.5
833 32 0.223944 0.62886 0.5
726 29 0.254753 0.615492 0.5
60 27 0.267794 0.589346 0.5
913 29 0.302605 0.583309 0.5
872 38 0.288809 0.61474 0.5
972 29 0.320154 0.609334 0.5
441 30 0.333683 0.579229 0.5
640 36 0.36852 0.57715 0.5
909 28 0.355144 0.607498 0.5
954 24 0.387782 0.602242 0.5
702 28 0.401189 0.565559 0.5
19 28 0.414526 0.591959 0.5
634 19 0.431499 0.61594 0.5
286 31 0.446985 0.591373 0.5
423 34 0.479886 0.596867 0.5
883 35 0.461171 0.626162 0.5
45 28 0.494316 0.625845 0.5
281 26 0.511974 0.598531 0.5
371 29 0.527949 0.573937 0.5
765 24 0.542345 0.599595 0.5
306 27 0.528549 0.623016 0.5
758 23 0.558891 0.622321 0.5
79 37 0.563627 0.575593 0.5
347 43 0.601984 0.57551 0.5
604 23 0.616363 0.606486 0.5
394 30 0.586135 0.611852 0.5
870 30 0.641853 0.58806 0.5
404 31 0.669316 0.570395 0.5
411 31 0.671196 0.603781 0.5
337 29 0.645667 0.62105 0.5
454 32 0.69931 0.580853 0.5
323 30 0.753449 0.580642 0.5
899 23 0.725542 0.597876 0.5
195 36 0.69974 0.616568 0.5
496 30 0.759843 0.610352 0.5
654 25 0.78578 0.593833 0.5
981 30 0.813547 0.574884 0.5
584 26 0.814524 0.607745 0.5
50 32 0.789065 0.624621 0.5
392 30 0.840963 0.590555 0.5
110 30 0.878784 0.5661 0.5
880 39 0.874983 0.602735 0.5
142 31 0.845679 0.622073 0.5
269 32 0.905179 0.582432 0.5
960 39 0.911075 0.619708 0.5
867 36 0.940806 0.597255 0.5
109 41 0.977984 0.584007 0.5
777 27 1.00222 0.608537 0.5
514 26 0.968915 0.615061 0.5
146 25 0.0201431 0.663031 0.5
477 31 0.0486676 0.655183 0.5
237 34 0.0380619 0.688896 0.5
801 26 0.0711007 0.680167 0.5
190 39 0.0891327 0.653508 0.5
160 29 0.120081 0.63972 0.5
401 25 0.115476 0.673394 0.5
95 32 0.150654 0.635833 0.5
789 28 0.188842 0.632354 0.5
947 33 0.173852 0.662978 0.5
352 27 0.143348 0.667091 0.5
240 29 0.210018 0.660761 0.5
399 34 0.244463 0.660072 0.5
684 25 0.196877 0.689985 0.5
127 24 0.228941 0.68642 0.5
74 35 0.275884 0.647044 0.5
205 28 0.307914 0.64087 0.5
460 34 0.301342 0.673003 0.5
145 25 0.27095 0.677902 0.5
151 37 0.340592 0.638265 0.5
449 26 0.373446 0.631688 0.5
627 33 0.374335 0.664693 0.5
235 35 0.338563 0.673699 0.5
576 33 0.405901 0.630266 0.5
40 38 0.435753 0.651556 0.5
985 25 0.404582 0.664673 0.5
287 35 0.425313 0.689333 0.5
13 31 0.478868 0.653757 0.5
62 28 0.458406 0.67874 0.5
739 42 0.497637 0.68794 0.5
266 35 0.514121 0.652296 0.5
470 30 0.546946 0.650483 0.5
388 26 0.533064 0.680956 0.5
226 31 0.567029 0.675415 0.5
362 32 0.580452 0.644267 0.5
486 37 0.61564 0.639406 0.5
11 37 0.608337 0.676172 0.5
572 33 0.64474 0.655736 0.5
602 26 0.673466 0.638201 0.5
800 24 0.672224 0.668789 0.5
25 33 0.64509 0.689345 0.5
292 28 0.675657 0.698699 0.5
820 29 0.701052 0.651626 0.5
691 38 0.732259 0.630751 0.5
354 34 0.735522 0.666213 0.5
49 28 0.705378 0.681971 0.5
678 30 0.76403 0.650263 0.5
163 26 0.793359 0.661825 0.5
123 19 0.765733 0.681418 0.5
338 29 0.819303 0.639951 0.5
759 35 0.820605 0.676046 0.5
319 29 0.849048 0.653241 0.5
474 28 0.875282 0.637942 0.5
878 32 0.878105 0.668809 0.5
774 33 0.851607 0.688414 0.5
612 27 0.907668 0.651391 0.5
489 22 0.933615 0.665573 0.5
295 33 0.908644 0.684142 0.5
546 32 0.941381 0.695065 0.5
43 35 0.944099 0.635139 0.5
918 39 0.990194 0.643114 0.5
231 32 0.963701 0.665591 0.5
675 27 0.996998 0.677714 0.5
518 30 0.0430893 0.725618 0.5
970 23 0.0668177 0.70857 0.5
718 21 0.0699382 0.737517 0.5
697 36 0.00868274 0.709676 0.5
647 30 0.0166651 0.745702 0.5
351 31 0.0970624 0.696222 0.5
433 25 0.121369 0.724228 0.5
223 20 0.0917068 0.725645 0.5
207 31 0.137745 0.696147 0.5
459 35 0.102987 0.75575 0.5
344 22 0.166647 0.691411 0.5
552 30 0.153787 0.722834 0.5
907 27 0.183158 0.715236 0.5
10 29 0.137192 0.750516 0.5
342 38 0.172357 0.749852 0.5
48 26 0.210933 0.717322 0.5
398 37 0.256 0.706735 0.5
827 40 0.240696 0.739993 0.5
462 29 0.205904 0.749392 0.5
204 34 0.292552 0.705736 0.5
731 34 0.31199 0.734325 0.5
610 30 0.275198 0.736977 0.5
1 26 0.326128 0.703003 0.5
472 27 0.35851 0.698534 0.5
639 22 0.380557 0.72263 0.5
339 35 0.349683 0.729724 0.5
903 31 0.391858 0.695042 0.5
667 27 0.409063 0.721818 0.5
32 22 0.438213 0.718839 0.5
99 25 0.390762 0.753268 0.5
717 30 0.424821 0.749668 0.5
82 33 0.4668 0.708245 0.5
284 35 0.497134 0.731154 0.5
152 34 0.459071 0.741419 0.5
417 26 0.521463 0.709849 0.5
547 33 0.554204 0.705043 0.5
804 29 0.537783 0.736045 0.5
246 33 0.571296 0.736305 0.5
370 36 0.587502 0.705039 0.5
915 27 0.620361 0.707976 0.5
321 31 0.603407 0.737872 0.5
560 29 0.634988 0.733478 0.5
782 28 0.665009 0.726291 0.5
185 36 0.686487 0.750813 0.5
335 33 0.701159 0.717566 0.5
268 43 0.737001 0.705152 0.5
159 34 0.755733 0.73949 0.5
30 32 0.723028 0.744509 0.5
221 23 0.792713 0.690792 0.5
327 31 0.77167 0.711379 0.5
635 23 0.797245 0.725127 0.5
570 34 0.788616 0.753575 0.5
908 22 0.821932 0.711174 0.5
669 39 0.821954 0.745137 0.5
760 26 0.849068 0.720938 0.5
975 27 0.862672 0.749174 0.5
88 40 0.883244 0.708804 0.5
248 26 0.915984 0.716119 0.5
605 25 0.893365 0.740659 0.5
876 31 0.92473 0.749493 0.5
436 31 0.948364 0.727067 0.5
539 31 0.974652 0.698758 0.5
236 40 0.980196 0.735195 0.5
308 26 0.046556 0.757358 0.5
931 30 0.0247951 0.778636 0.5
630 32 0.0568321 0.791936 0.5
367 28 0.031428 0.811679 0.5
839 28 0.0770592 0.819926 0.5
747 24 0.0745449 0.765983 0.5
200 34 0.0915781 0.791255 0.5
261 37 0.127029 0.782243 0.5
510 35 0.114316 0.815417 0.5
468 27 0.159875 0.78097 0.5
439 28 0.194369 0.778986 0.5
213 32 0.179783 0.806926 0.5
642 31 0.148511 0.814862 0.5
721 27 0.228991 0.771257 0.5
419 33 0.251975 0.799048 0.5
617 33 0.213606 0.803281 0.5
37 29 0.259625 0.768154 0.5
53 35 0.296113 0.766723 0.5
567 29 0.316328 0.795044 0.5
315 28 0.285166 0.799851 0.5
220 30 0.331032 0.761428 0.5
863 27 0.360988 0.760064 0.5
316 37 0.351603 0.79109 0.5
189 14 0.364754 0.818153 0.5
811 27 0.336205 0.819274 0.5
15 33 0.385026 0.784647 0.5
554 29 0.415121 0.783243 0.5
523 22 0.439698 0.806262 0.5
304 28 0.403902 0.81176 0.5
722 33 0.446917 0.774116 0.5
526 30 0.478695 0.766548 0.5
507 29 0.467671 0.799425 0.5
386 36 0.502846 0.794085 0.5
937 32 0.517749 0.763646 0.5
78 21 0.553735 0.761637 0.5
825 36 0.538171 0.792163 0.5
69 35 0.573666 0.797645 0.5
230 31 0.584702 0.767104 0.5
3 33 0.622055 0.765391 0.5
978 23 0.605007 0.792631 0.5
735 28 0.643173 0.789509 0.5
932 27 0.6561 0.759424 0.5
755 25 0.677277 0.783454 0.5
481 30 0.708683 0.781188 0.5
562 36 0.743281 0.775917 0.5
638 46 0.730676 0.811067 0.5
741 33 0.693558 0.810629 0.5
56 27 0.7758 0.781626 0.5
334 33 0.808706 0.781456 0.5
340 23 0.793374 0.808739 0.5
527 28 0.765144 0.810567 0.5
147 30 0.8446 0.776875 0.5
842 28 0.827887 0.807006 0.5
843 34 0.861731 0.805048 0.5
322 23 0.873463 0.776637 0.5
149 28 0.901683 0.769863 0.5
757 38 0.930636 0.788282 0.5
254 33 0.896657 0.803478 0.5
134 34 0.956153 0.761273 0.5
98 35 0.990926 0.769595 0.5
501 34 0.966967 0.79479 0.5
161 27 1.0001 0.801747 0.5
695 22 0.0509524 0.832824 0.5
889 28 0.0294587 0.854507 0.5
328 23 0.0660978 0.855334 0.5
502 26 0.00789449 0.830803 0.5
992 36 0.096759 0.846784 0.5
131 28 0.132423 0.842004 0.5
262 32 0.118983 0.875816 0.5
34 31 0.0828637 0.879867 0.5
193 28 0.164555 0.839932 0.5
320 33 0.18365 0.869722 0.5
989 34 0.197204 0.835679 0.5
873 32 0.149841 0.871831 0.5
257 33 0.236411 0.83096 0.5
466 42 0.219276 0.863308 0.5
565 27 0.252996 0.858708 0.5
180 33 0.269581 0.827786 0.5
387 29 0.304461 0.823413 0.5
374 34 0.287503 0.856105 0.5
941 29 0.306587 0.882341 0.5
984 32 0.322695 0.848629 0.5
738 32 0.355678 0.846749 0.5
61 32 0.376401 0.872755 0.5
490 32 0.342328 0.875849 0.5
198 35 0.387996 0.8409 0.5
5 33 0.423764 0.835525 0.5
86 30 0.410905 0.868078 0.5
623 36 0.443353 0.865136 0.5
222 33 0.458165 0.832904 0.5
682 35 0.492486 0.82724 0.5
650 29 0.479832 0.858471 0.5
256 33 0.514847 0.853565 0.5
808 27 0.525877 0.823861 0.5
773 21 0.54712 0.85327 0.5
494 23 0.554856 0.82599 0.5
890 33 0.578607 0.848884 0.5
366 29 0.595714 0.820766 0.5
209 26 0.612902 0.845684 0.5
302 26 0.626584 0.817996 0.5
437 32 0.644154 0.843974 0.5
453 26 0.661565 0.815388 0.5
817 35 0.678716 0.842524 0.5
525 26 0.633583 0.874228 0.5
355 31 0.666007 0.872695 0.5
373 35 0.711787 0.844238 0.5
598 34 0.745277 0.846547 0.5
107 29 0.730084 0.874864 0.5
395 28 0.699275 0.873549 0.5
877 29 0.764065 0.874527 0.5
484 34 0.777597 0.839255 0.5
52 37 0.796309 0.868671 0.5
836 29 0.810632 0.836113 0.5
463 27 0.844578 0.835705 0.5
314 31 0.833785 0.865872 0.5
945 34 0.867117 0.863016 0.5
858 33 0.882594 0.833917 0.5
299 25 0.912999 0.832517 0.5
183 28 0.899841 0.862614 0.5
276 34 0.93205 0.857955 0.5
922 36 0.944065 0.822316 0.5
663 33 0.977548 0.828121 0.5
613 28 0.965372 0.857419 0.5
656 22 0.997937 0.857875 0.5
710 36 0.0372478 0.912529 0.5
38 29 0.0513146 0.881418 0.5
89 30 0.0187612 0.883771 0.5
143 30 0.0204063 0.943283 0.5
249 34 0.0573691 0.940621 0.5
828 29 0.0712336 0.909921 0.5
224 30 0.105054 0.90506 0.5
846 33 0.123637 0.933169 0.5
905 30 0.0907931 0.936068 0.5
238 25 0.139409 0.900323 0.5
172 21 0.173625 0.899184 0.5
891 33 0.191957 0.922807 0.5
113 35 0.157125 0.925618 0.5
498 29 0.208883 0.895874 0.5
505 33 0.241207 0.891597 0.5
194 31 0.227479 0.920798 0.5
81 28 0.260905 0.915905 0.5
197 29 0.273464 0.884707 0.5
451 33 0.295179 0.910503 0.5
775 33 0.28155 0.940748 0.5
577 36 0.316277 0.941024 0.5
559 33 0.329967 0.907446 0.5
670 34 0.36384 0.905891 0.5
391 25 0.350215 0.934556 0.5
657 25 0.396067 0.898993 0.5
58 27 0.427249 0.894482 0.5
852 34 0.417614 0.925556 0.5
659 35 0.38331 0.931623 0.5
835 33 0.451718 0.915671 0.5
535 25 0.468819 0.886122 0.5
59 24 0.496355 0.883954 0.5
291 27 0.485343 0.915865 0.5
150 38 0.533057 0.883616 0.5
444 33 0.552203 0.914093 0.5
537 27 0.516119 0.910837 0.5
993 30 0.540206 0.94377 0.5
390 32 0.56687 0.881366 0.5
979 34 0.602845 0.876053 0.5
592 25 0.589581 0.905739 0.5
551 30 0.61951 0.903092 0.5
926 33 0.606486 0.932333 0.5
752 26 0.571285 0.937263 0.5
102 23 0.638728 0.930412 0.5
253 29 0.651323 0.902669 0.5
681 24 0.685268 0.900988 0.5
930 26 0.673203 0.930356 0.5
708 26 0.702691 0.926434 0.5
482 29 0.718496 0.902079 0.5
520 31 0.749858 0.904754 0.5
415 25 0.733518 0.929726 0.5
420 34 0.784225 0.901101 0.5
173 30 0.767683 0.932522 0.5
483 28 0.804184 0.931471 0.5
243 33 0.817267 0.901547 0.5
153 37 0.853209 0.898858 0.5
955 28 0.834928 0.928795 0.5
719 24 0.866035 0.931427 0.5
76 26 0.885842 0.888828 0.5
689 30 0.918609 0.888971 0.5
969 29 0.934563 0.917139 0.5
258 38 0.899501 0.919197 0.5
746 25 0.949318 0.886592 0.5
219 28 0.983818 0.883003 0.5
857 39 0.968387 0.915389 0.5
780 29 1.00184 0.912169 0.5
998 31 0.0561625 0.998914 0.5
456 31 0.0248864 0.998509 0.5
644 30 0.0401139 0.970702 0.5
242 35 0.090022 1.00077 0.5
397 32 0.0737477 0.969688 0.5
943 43 0.126689 0.99143 0.5
55 28 0.106332 0.962892 0.5
67 30 0.16473 0.98572 0.5
685 30 0.144765 0.960242 0.5
987 34 0.17801 0.954784 0.5
754 31 0.25551 1.00462 0.5
516 39 0.198784 0.982839 0.5
380 37 0.233758 0.978073 0.5
279 32 0.213073 0.950695 0.5
596 28 0.246562 0.948154 0.5
469 36 0.290003 1.00284 0.5
455 31 0.268711 0.972277 0.5
218 23 0.301069 0.972377 0.5
766 29 0.324003 0.99752 0.5
884 36 0.36099 0.9948 0.5
148 34 0.339498 0.967649 0.5
255 29 0.373241 0.962384 0.5
247 24 0.393248 0.987232 0.5
831 29 0.423314 0.984107 0.5
122 30 0.405304 0.960029 0.5
860 30 0.437495 0.953222 0.5
844 33 0.457096 0.978138 0.5
896 30 0.471479 0.943813 0.5
509 27 0.489623 0.972666 0.5
921 36 0.50556 0.943596 0.5
649 35 0.546329 1.00257 0.5
467 31 0.52562 0.972757 0.5
824 31 0.562714 0.971787 0.5
934 25 0.578059 1.00147 0.5
445 35 0.609708 0.992701 0.5
871 28 0.593002 0.962542 0.5
704 34 0.627874 0.959882 0.5
16 32 0.642131 0.990789 0.5
986 29 0.675632 0.999668 0.5
192 36 0.66541 0.962879 0.5
499 19 0.693322 0.950975 0.5
609 30 0.732674 0.987193 0.5
580 27 0.699335 0.97859 0.5
250 30 0.721648 0.957503 0.5
591 26 0.754852 0.964435 0.5
990 39 0.770188 0.995393 0.5
139 29 0.806376 0.987165 0.5
158 35 0.786925 0.960971 0.5
588 27 0.822949 0.959069 0.5
660 28 0.838208 0.987195 0.5
182 32 0.87167 0.984325 0.5
703 30 0.854565 0.957682 0.5
768 31 0.888923 0.953317 0.5
622 28 0.905508 0.981055 0.5
940 27 0.920736 0.944658 0.5
378 31 0.935598 0.971038 0.5
68 31 0.990924 0.998802 0.5
164 33 0.958116 0.997854 0.5
379 27 1.00812 0.9713 0.5
63 29 0.953098 0.944912 0.5
396 31 0.988944 0.943537 0.5
106 21 0.971674 0.969479 0.5
