ITEM: TIMESTEP
2270000
ITEM: NUMBER OF ATOMS
1000
ITEM: BOX BOUNDS pp pp pp
-1.6560829999999999e+01 1.6560829999999999e+01
-1.6560829999999999e+01 1.6560829999999999e+01
-5.0000000000000000e-01 5.0000000000000000e-01
ITEM: ATOMS id type xs ys zs
873 33 0.0440333 0.00195197 0.5
34 31 0.0110067 0.00491627 0.5
242 38 0.0300818 0.0352899 0.5
886 27 0.0496154 0.0647977 0.5
685 30 0.107365 0.0196098 0.5
943 50 0.0711043 0.03458 0.5
488 24 0.104292 0.0487251 0.5
67 30 0.134446 0.0414263 0.5
215 26 0.168636 0.00262704 0.5
193 27 0.139998 0.01065 0.5
513 26 0.161943 0.0312403 0.5
197 28 0.192326 0.0359852 0.5
180 34 0.199959 0.00416507 0.5
775 34 0.227092 0.0252366 0.5
380 41 0.262884 0.0120473 0.5
487 30 0.249798 0.0477152 0.5
245 18 0.215272 0.052276 0.5
81 26 0.281273 0.0415557 0.5
37 28 0.298025 0.0131747 0.5
61 33 0.312865 0.0457428 0.5
682 38 0.333147 0.0177054 0.5
559 34 0.348596 0.0489908 0.5
921 40 0.371586 0.0215853 0.5
941 28 0.382959 0.054422 0.5
148 35 0.409506 0.0257173 0.5
414 36 0.445543 0.0141734 0.5
525 24 0.464288 0.043041 0.5
809 25 0.435871 0.0451607 0.5
169 17 0.411132 0.0561376 0.5
263 28 0.505966 0.00865365 0.5
58 26 0.478042 0.0192317 0.5
763 36 0.496185 0.0471873 0.5
366 29 0.529488 0.0297058 0.5
629 23 0.527326 0.0589445 0.5
877 28 0.562032 0.0183262 0.5
253 29 0.555642 0.0501514 0.5
551 30 0.592954 0.0101499 0.5
355 32 0.587906 0.0427421 0.5
102 19 0.620443 0.00114586 0.5
107 29 0.618246 0.030313 0.5
250 30 0.646431 0.0139254 0.5
57 33 0.645629 0.048903 0.5
390 33 0.614139 0.0646179 0.5
445 37 0.675968 0.0295772 0.5
16 32 0.70198 0.00917026 0.5
919 21 0.703283 0.0494736 0.5
241 34 0.728593 0.0314379 0.5
243 34 0.675591 0.0643332 0.5
824 32 0.731306 0.0644664 0.5
591 24 0.756572 0.0141632 0.5
926 35 0.762306 0.0474134 0.5
420 36 0.787115 0.00715532 0.5
924 23 0.793685 0.0388726 0.5
182 33 0.819737 0.0225649 0.5
138 32 0.82058 0.0565359 0.5
483 27 0.845702 0.0025946 0.5
990 44 0.853976 0.0389966 0.5
703 30 0.876071 0.00961062 0.5
229 33 0.902823 0.0270077 0.5
397 33 0.923979 0.0562863 0.5
912 42 0.886511 0.0609782 0.5
365 26 0.93399 0.0237869 0.5
964 34 0.996116 0.037813 0.5
378 32 0.978643 0.0103774 0.5
272 39 0.959039 0.044276 0.5
161 25 0.0158117 0.0649154 0.5
155 30 0.0334627 0.0901717 0.5
249 35 0.000617193 0.0979873 0.5
350 10 0.0198732 0.118511 0.5
920 28 0.0459674 0.118371 0.5
736 23 0.0854765 0.0709358 0.5
766 28 0.0957534 0.0985063 0.5
998 31 0.065115 0.0934851 0.5
538 35 0.122936 0.0753601 0.5
705 28 0.12737 0.107354 0.5
851 32 0.103455 0.129226 0.5
589 21 0.0743349 0.122249 0.5
290 31 0.155546 0.06611 0.5
516 44 0.165121 0.10529 0.5
298 41 0.190455 0.0718095 0.5
469 39 0.204565 0.108125 0.5
455 31 0.225599 0.0806946 0.5
170 34 0.259279 0.0784055 0.5
577 39 0.247391 0.11225 0.5
172 16 0.278183 0.0998944 0.5
743 33 0.292717 0.073707 0.5
659 37 0.326914 0.0781485 0.5
673 25 0.305765 0.103954 0.5
852 35 0.284475 0.127897 0.5
168 39 0.341666 0.111356 0.5
279 33 0.364288 0.0812836 0.5
227 32 0.397121 0.0821872 0.5
280 41 0.379046 0.116521 0.5
860 30 0.432655 0.079487 0.5
374 36 0.41745 0.110086 0.5
996 24 0.448496 0.107505 0.5
623 39 0.466591 0.0760731 0.5
649 38 0.506432 0.0842539 0.5
192 38 0.481178 0.111421 0.5
114 23 0.516541 0.116318 0.5
104 23 0.5772 0.0715164 0.5
982 33 0.548096 0.0821531 0.5
699 20 0.575885 0.101777 0.5
715 19 0.597085 0.0880056 0.5
798 36 0.547905 0.116571 0.5
845 26 0.577982 0.130095 0.5
358 27 0.624886 0.0961311 0.5
413 24 0.601507 0.113815 0.5
752 24 0.648697 0.0802002 0.5
211 13 0.650027 0.105362 0.5
788 35 0.632786 0.128117 0.5
582 27 0.666017 0.124864 0.5
930 24 0.674119 0.094968 0.5
986 27 0.702709 0.0809886 0.5
214 35 0.729486 0.100791 0.5
704 36 0.698256 0.115199 0.5
408 26 0.756962 0.0832267 0.5
745 37 0.787006 0.071023 0.5
301 39 0.785154 0.109365 0.5
425 33 0.753665 0.126014 0.5
779 40 0.818984 0.0923944 0.5
569 34 0.852349 0.0778706 0.5
940 26 0.848175 0.111267 0.5
603 28 0.81692 0.126647 0.5
528 34 0.879482 0.0980352 0.5
68 32 0.913974 0.0892621 0.5
382 41 0.90555 0.124355 0.5
530 28 0.871333 0.130925 0.5
768 31 0.938645 0.112178 0.5
89 30 0.981162 0.0694268 0.5
63 28 0.948633 0.0789249 0.5
644 30 0.968626 0.105397 0.5
676 31 0.995214 0.13157 0.5
379 25 0.0267305 0.142714 0.5
332 25 0.00603078 0.163383 0.5
393 42 0.0402909 0.173554 0.5
97 20 0.0561084 0.143468 0.5
933 28 0.012277 0.194363 0.5
24 29 0.0823593 0.154868 0.5
367 26 0.11235 0.159805 0.5
700 24 0.0721133 0.183449 0.5
260 27 0.101494 0.186844 0.5
18 46 0.142379 0.13997 0.5
823 27 0.166367 0.165258 0.5
754 31 0.183855 0.138943 0.5
216 46 0.137653 0.186292 0.5
706 33 0.174314 0.197354 0.5
442 37 0.199003 0.172624 0.5
511 41 0.22182 0.143024 0.5
517 39 0.257625 0.153817 0.5
813 30 0.231971 0.180761 0.5
385 32 0.266086 0.189214 0.5
847 41 0.294544 0.164916 0.5
608 29 0.31857 0.137446 0.5
900 22 0.328087 0.165807 0.5
167 25 0.296374 0.200057 0.5
935 23 0.325234 0.193786 0.5
71 35 0.351551 0.14557 0.5
536 26 0.382166 0.158742 0.5
927 33 0.354243 0.181945 0.5
701 41 0.388846 0.194657 0.5
592 22 0.403347 0.1397 0.5
831 28 0.461291 0.139454 0.5
856 26 0.432222 0.141193 0.5
409 30 0.41359 0.167318 0.5
493 22 0.444356 0.168801 0.5
934 22 0.471662 0.168602 0.5
492 43 0.49678 0.146315 0.5
372 25 0.525826 0.166745 0.5
178 20 0.529225 0.140818 0.5
174 31 0.498955 0.182316 0.5
961 29 0.555329 0.152553 0.5
464 30 0.584063 0.164801 0.5
871 27 0.555865 0.181896 0.5
452 34 0.591843 0.198316 0.5
580 26 0.604473 0.142307 0.5
485 36 0.656062 0.156263 0.5
90 43 0.619958 0.172622 0.5
434 22 0.650486 0.187239 0.5
795 38 0.692171 0.149839 0.5
799 26 0.722894 0.134844 0.5
744 34 0.68226 0.184406 0.5
305 29 0.714882 0.179403 0.5
737 36 0.743636 0.162141 0.5
571 48 0.785723 0.150175 0.5
443 27 0.770602 0.182741 0.5
307 33 0.802125 0.186163 0.5
797 32 0.82462 0.159511 0.5
838 19 0.843384 0.137463 0.5
994 27 0.85721 0.160863 0.5
857 43 0.83712 0.193084 0.5
859 43 0.89428 0.160686 0.5
677 42 0.875386 0.193188 0.5
346 29 0.926275 0.176849 0.5
660 26 0.932733 0.146273 0.5
648 22 0.960298 0.136429 0.5
938 20 0.978611 0.156788 0.5
661 30 0.957807 0.17747 0.5
976 19 0.986282 0.182143 0.5
202 42 0.0481246 0.212115 0.5
310 34 0.0131651 0.22772 0.5
776 31 0.0410158 0.247233 0.5
574 18 0.0124545 0.256532 0.5
106 15 0.0666984 0.237333 0.5
542 32 0.0851619 0.213352 0.5
80 29 0.116682 0.214999 0.5
233 25 0.0926868 0.243998 0.5
849 37 0.126857 0.248379 0.5
712 29 0.149725 0.220475 0.5
28 26 0.183173 0.227933 0.5
596 26 0.162295 0.249202 0.5
429 25 0.190105 0.257272 0.5
132 31 0.206564 0.205415 0.5
672 31 0.238318 0.214792 0.5
694 31 0.213691 0.237643 0.5
597 21 0.244332 0.244542 0.5
376 44 0.272995 0.22641 0.5
995 23 0.313411 0.223189 0.5
966 22 0.298908 0.24785 0.5
162 32 0.329224 0.249571 0.5
239 37 0.347032 0.218681 0.5
140 29 0.378902 0.228356 0.5
400 36 0.362815 0.257254 0.5
273 27 0.396427 0.263509 0.5
389 43 0.428778 0.200056 0.5
834 31 0.410345 0.233869 0.5
181 32 0.443336 0.233737 0.5
274 26 0.426512 0.262981 0.5
440 43 0.462928 0.264895 0.5
957 38 0.467505 0.199639 0.5
950 32 0.499725 0.215908 0.5
671 23 0.473544 0.232395 0.5
914 23 0.527802 0.232953 0.5
991 34 0.529157 0.200289 0.5
144 35 0.499939 0.250462 0.5
658 38 0.560888 0.215819 0.5
121 33 0.593974 0.234704 0.5
566 32 0.562989 0.250228 0.5
832 45 0.627901 0.213131 0.5
508 26 0.666753 0.213752 0.5
568 32 0.623217 0.252047 0.5
963 25 0.650476 0.23854 0.5
317 40 0.704373 0.214388 0.5
225 36 0.681875 0.243439 0.5
666 33 0.717944 0.25197 0.5
312 42 0.741611 0.202569 0.5
270 32 0.778785 0.213373 0.5
540 36 0.754097 0.238684 0.5
521 33 0.788543 0.244819 0.5
456 31 0.811968 0.218455 0.5
733 41 0.849738 0.229063 0.5
264 31 0.820922 0.251751 0.5
353 28 0.908003 0.20322 0.5
12 36 0.887147 0.22844 0.5
829 22 0.870279 0.254124 0.5
806 26 0.919664 0.234454 0.5
615 27 0.899736 0.258789 0.5
2 28 0.930643 0.263121 0.5
164 35 0.942433 0.208028 0.5
939 40 0.978829 0.213379 0.5
210 26 0.951879 0.240331 0.5
803 31 0.98542 0.248425 0.5
66 32 0.0324107 0.280183 0.5
923 35 0.0117122 0.307313 0.5
545 42 0.0547283 0.309613 0.5
770 45 0.0693016 0.270257 0.5
936 22 0.102389 0.270498 0.5
448 33 0.130793 0.284728 0.5
120 30 0.0922343 0.298276 0.5
345 33 0.119317 0.317839 0.5
369 36 0.167063 0.28177 0.5
407 24 0.19975 0.284469 0.5
87 27 0.15281 0.310168 0.5
564 25 0.185856 0.309459 0.5
171 35 0.22812 0.270455 0.5
427 31 0.218722 0.307474 0.5
837 34 0.249873 0.296469 0.5
651 21 0.264899 0.321783 0.5
252 37 0.268964 0.267547 0.5
815 30 0.304327 0.276105 0.5
130 27 0.281669 0.298601 0.5
555 30 0.292498 0.329939 0.5
785 34 0.314854 0.306736 0.5
124 26 0.335509 0.281754 0.5
802 37 0.37105 0.291171 0.5
54 28 0.34756 0.314307 0.5
841 31 0.381227 0.32738 0.5
953 28 0.437282 0.290766 0.5
325 33 0.405138 0.298041 0.5
690 25 0.441614 0.320447 0.5
430 34 0.532972 0.265681 0.5
646 26 0.498684 0.285583 0.5
368 34 0.468514 0.302028 0.5
645 34 0.500598 0.318175 0.5
734 33 0.529346 0.300127 0.5
944 29 0.561942 0.28409 0.5
416 35 0.592799 0.268906 0.5
674 26 0.556804 0.314663 0.5
402 40 0.589188 0.307388 0.5
348 26 0.620813 0.287203 0.5
874 41 0.657966 0.27257 0.5
4 34 0.625468 0.318731 0.5
988 14 0.647069 0.301096 0.5
821 24 0.654409 0.329914 0.5
742 31 0.692776 0.275424 0.5
887 33 0.721721 0.290055 0.5
103 34 0.675764 0.304681 0.5
476 18 0.703806 0.316658 0.5
529 27 0.745275 0.270379 0.5
360 11 0.77037 0.264566 0.5
637 27 0.794053 0.276427 0.5
952 35 0.740258 0.318173 0.5
44 34 0.767428 0.295939 0.5
653 22 0.846368 0.268342 0.5
165 19 0.821414 0.281481 0.5
100 34 0.805769 0.307117 0.5
611 39 0.84134 0.304771 0.5
652 46 0.876497 0.287316 0.5
85 19 0.909967 0.284236 0.5
418 36 0.872142 0.326122 0.5
27 34 0.907589 0.315424 0.5
377 25 0.998547 0.2787 0.5
855 31 0.963156 0.271374 0.5
662 33 0.937524 0.295278 0.5
548 39 0.97364 0.307959 0.5
41 31 0.943526 0.327693 0.5
614 29 0.0289967 0.335425 0.5
618 38 0.0288467 0.370583 0.5
751 22 0.0104555 0.39671 0.5
686 30 0.0590208 0.385526 0.5
428 27 0.0578894 0.350028 0.5
199 39 0.0874013 0.333142 0.5
544 27 0.0841646 0.367853 0.5
259 15 0.0861059 0.395057 0.5
897 31 0.111657 0.38432 0.5
244 28 0.115109 0.352943 0.5
881 25 0.171405 0.336063 0.5
405 28 0.142811 0.339833 0.5
534 35 0.142853 0.372906 0.5
967 22 0.166672 0.393127 0.5
812 25 0.174912 0.366954 0.5
586 47 0.20553 0.343986 0.5
756 27 0.239366 0.332456 0.5
917 42 0.203789 0.388075 0.5
750 33 0.236216 0.368503 0.5
888 27 0.265488 0.351505 0.5
293 38 0.265991 0.386917 0.5
96 30 0.324196 0.338225 0.5
720 27 0.29776 0.359618 0.5
458 39 0.331471 0.372929 0.5
303 28 0.298518 0.389277 0.5
403 23 0.354589 0.343449 0.5
885 22 0.393423 0.357849 0.5
232 26 0.367221 0.367402 0.5
201 35 0.392325 0.38942 0.5
753 33 0.413828 0.335929 0.5
73 31 0.444981 0.351996 0.5
848 28 0.420458 0.372656 0.5
794 31 0.4515 0.385027 0.5
621 26 0.471892 0.334956 0.5
977 38 0.533661 0.339122 0.5
331 25 0.47371 0.364418 0.5
333 30 0.499759 0.350172 0.5
664 32 0.519387 0.376039 0.5
949 36 0.489398 0.394051 0.5
457 40 0.572194 0.343564 0.5
607 40 0.55484 0.378713 0.5
581 20 0.603559 0.340959 0.5
500 46 0.596603 0.374826 0.5
761 29 0.630219 0.351377 0.5
21 31 0.635061 0.384418 0.5
424 20 0.65705 0.360318 0.5
329 36 0.685121 0.341314 0.5
426 19 0.71694 0.33738 0.5
94 22 0.682208 0.373325 0.5
910 30 0.70177 0.398028 0.5
166 30 0.713044 0.365572 0.5
980 27 0.743108 0.352514 0.5
679 48 0.778763 0.334006 0.5
278 34 0.740489 0.387231 0.5
91 22 0.766423 0.368803 0.5
283 39 0.798045 0.371089 0.5
265 46 0.825245 0.340963 0.5
879 35 0.860441 0.359906 0.5
39 25 0.831615 0.376311 0.5
363 23 0.854778 0.392978 0.5
6 7 0.919829 0.338662 0.5
191 39 0.897506 0.354786 0.5
519 21 0.882981 0.384078 0.5
438 26 0.912429 0.385645 0.5
141 33 0.934069 0.361641 0.5
762 33 0.994771 0.337858 0.5
781 28 0.965705 0.349157 0.5
606 36 0.991967 0.371751 0.5
177 21 0.961157 0.377835 0.5
575 33 0.0372251 0.412351 0.5
973 18 0.0281034 0.440664 0.5
983 32 0.00238865 0.425642 0.5
729 20 0.0692468 0.412894 0.5
196 31 0.0581249 0.44043 0.5
26 43 0.100776 0.421779 0.5
792 31 0.109079 0.455646 0.5
787 25 0.137756 0.404099 0.5
951 29 0.166727 0.421531 0.5
929 35 0.137052 0.436866 0.5
631 30 0.167415 0.45398 0.5
786 41 0.199994 0.431383 0.5
84 25 0.234069 0.403323 0.5
636 19 0.221809 0.454063 0.5
925 19 0.232184 0.430143 0.5
902 29 0.259465 0.421723 0.5
628 31 0.249912 0.454502 0.5
728 35 0.322691 0.408993 0.5
972 28 0.280489 0.446726 0.5
702 26 0.289738 0.418075 0.5
709 30 0.314149 0.440409 0.5
361 34 0.358318 0.4007 0.5
556 28 0.346505 0.433567 0.5
707 52 0.38752 0.429135 0.5
668 19 0.364676 0.456486 0.5
616 29 0.335919 0.463509 0.5
357 39 0.424035 0.407883 0.5
36 39 0.460838 0.419691 0.5
77 15 0.458563 0.449975 0.5
384 47 0.426397 0.449464 0.5
730 32 0.495606 0.427509 0.5
491 29 0.518346 0.450392 0.5
740 35 0.485547 0.461028 0.5
665 46 0.53034 0.412951 0.5
175 49 0.576194 0.41277 0.5
497 33 0.549641 0.444186 0.5
626 37 0.583429 0.453957 0.5
72 23 0.610813 0.405256 0.5
587 38 0.637373 0.42208 0.5
864 22 0.606228 0.432661 0.5
771 23 0.61398 0.46086 0.5
309 35 0.645001 0.459797 0.5
421 35 0.667739 0.40225 0.5
531 24 0.666754 0.435413 0.5
383 37 0.697951 0.43196 0.5
478 29 0.678665 0.462562 0.5
892 19 0.725826 0.415762 0.5
289 19 0.727792 0.440987 0.5
101 26 0.711917 0.46425 0.5
176 33 0.775801 0.398608 0.5
217 33 0.753932 0.424037 0.5
277 24 0.741302 0.463537 0.5
590 22 0.766513 0.453424 0.5
46 35 0.788742 0.433134 0.5
136 40 0.815632 0.407256 0.5
625 33 0.820397 0.445969 0.5
364 33 0.847125 0.424676 0.5
578 28 0.851784 0.459739 0.5
156 22 0.876204 0.410517 0.5
343 35 0.87791 0.441021 0.5
822 37 0.90832 0.418807 0.5
698 17 0.933184 0.435995 0.5
553 32 0.910737 0.45371 0.5
901 39 0.941921 0.403609 0.5
375 30 0.977129 0.402974 0.5
313 34 0.999352 0.458884 0.5
557 40 0.968362 0.439426 0.5
962 53 0.0360847 0.474519 0.5
807 20 0.0290725 0.512154 0.5
326 48 0.0638915 0.510762 0.5
869 33 0.0051539 0.531353 0.5
336 38 0.0781359 0.471045 0.5
472 25 0.108696 0.487055 0.5
600 38 0.102245 0.5194 0.5
512 32 0.135221 0.505669 0.5
179 31 0.136582 0.471487 0.5
22 35 0.166436 0.489608 0.5
793 28 0.164116 0.522636 0.5
234 35 0.19702 0.470447 0.5
693 28 0.193715 0.507708 0.5
20 37 0.222307 0.524037 0.5
287 38 0.228517 0.487144 0.5
51 32 0.256612 0.511849 0.5
541 34 0.268784 0.481086 0.5
687 34 0.303608 0.472697 0.5
563 38 0.329863 0.498862 0.5
882 38 0.293256 0.508414 0.5
875 35 0.391643 0.469667 0.5
65 32 0.361562 0.485587 0.5
692 27 0.388926 0.501366 0.5
228 26 0.361307 0.517752 0.5
412 28 0.456148 0.477121 0.5
504 43 0.423685 0.490426 0.5
296 29 0.454423 0.51114 0.5
251 32 0.423105 0.526365 0.5
105 31 0.511905 0.483304 0.5
133 32 0.483088 0.497554 0.5
128 31 0.511653 0.518055 0.5
893 29 0.482003 0.529793 0.5
593 22 0.539375 0.472365 0.5
25 34 0.567368 0.484926 0.5
112 23 0.539922 0.502722 0.5
79 41 0.577063 0.519804 0.5
958 19 0.598775 0.482121 0.5
281 23 0.626753 0.486878 0.5
306 25 0.610297 0.508626 0.5
688 25 0.640339 0.512115 0.5
549 29 0.658861 0.489649 0.5
866 28 0.690866 0.492245 0.5
9 26 0.672552 0.51889 0.5
206 32 0.704094 0.523985 0.5
727 38 0.725819 0.494617 0.5
157 33 0.795373 0.468439 0.5
35 40 0.764301 0.486717 0.5
47 31 0.736397 0.528496 0.5
137 34 0.799419 0.502196 0.5
70 26 0.767613 0.519006 0.5
471 22 0.827952 0.476116 0.5
760 24 0.857183 0.488901 0.5
805 26 0.832754 0.504916 0.5
533 37 0.859206 0.528656 0.5
267 25 0.884216 0.4729 0.5
911 28 0.912883 0.485165 0.5
784 27 0.881675 0.50404 0.5
503 40 0.912808 0.519103 0.5
971 16 0.889561 0.538411 0.5
585 33 0.941886 0.465176 0.5
288 38 1.00052 0.496183 0.5
723 28 0.970744 0.480473 0.5
95 33 0.943599 0.501559 0.5
716 30 0.973523 0.518106 0.5
713 39 0.0400189 0.545179 0.5
212 22 0.0100772 0.563079 0.5
450 21 0.0335537 0.577977 0.5
789 27 0.0610946 0.572667 0.5
696 26 0.0132573 0.597928 0.5
135 28 0.0770605 0.546123 0.5
862 22 0.105687 0.550751 0.5
60 25 0.0913005 0.574295 0.5
441 29 0.133867 0.538037 0.5
129 39 0.128655 0.573557 0.5
826 30 0.161861 0.554113 0.5
579 26 0.161598 0.583653 0.5
532 27 0.19051 0.539454 0.5
830 28 0.188989 0.57073 0.5
111 28 0.218285 0.560026 0.5
928 34 0.250298 0.546163 0.5
10 29 0.243165 0.578695 0.5
985 22 0.207977 0.591666 0.5
783 24 0.280135 0.537427 0.5
154 27 0.27487 0.568881 0.5
275 32 0.332996 0.533558 0.5
594 34 0.30473 0.553926 0.5
965 29 0.303258 0.586186 0.5
300 39 0.339573 0.571256 0.5
7 36 0.389561 0.534671 0.5
765 21 0.360497 0.545585 0.5
126 32 0.380504 0.569465 0.5
796 25 0.402417 0.594619 0.5
62 27 0.450263 0.544454 0.5
349 45 0.417735 0.563714 0.5
446 27 0.454208 0.578014 0.5
758 18 0.430781 0.594644 0.5
406 29 0.477769 0.559525 0.5
266 37 0.511327 0.562206 0.5
604 18 0.518505 0.592879 0.5
11 40 0.487852 0.593326 0.5
324 42 0.541826 0.53905 0.5
691 42 0.573835 0.559359 0.5
678 29 0.542503 0.577282 0.5
311 26 0.569528 0.595516 0.5
767 44 0.610558 0.54453 0.5
17 25 0.631101 0.575869 0.5
432 28 0.599998 0.584472 0.5
42 45 0.650274 0.545559 0.5
347 50 0.666289 0.586895 0.5
431 31 0.687893 0.554381 0.5
83 31 0.706023 0.584484 0.5
118 24 0.719477 0.554921 0.5
522 38 0.740339 0.581126 0.5
772 33 0.761518 0.553056 0.5
110 30 0.792259 0.536204 0.5
338 28 0.773123 0.58477 0.5
999 39 0.804998 0.569176 0.5
282 26 0.822397 0.53219 0.5
725 42 0.842302 0.56257 0.5
968 41 0.86458 0.597892 0.5
632 30 0.878886 0.563242 0.5
960 44 0.917398 0.558973 0.5
601 31 0.898382 0.590813 0.5
119 28 0.93154 0.591611 0.5
188 32 0.946517 0.535676 0.5
641 29 0.977569 0.548312 0.5
916 23 0.952516 0.566059 0.5
764 40 0.982662 0.581758 0.5
853 14 0.957433 0.59898 0.5
959 25 0.0435315 0.604136 0.5
190 44 0.0214664 0.631729 0.5
480 24 0.0575982 0.629935 0.5
680 29 0.0419202 0.660247 0.5
854 27 0.0740036 0.59965 0.5
187 34 0.106944 0.602553 0.5
791 25 0.0861283 0.62665 0.5
398 41 0.119728 0.636743 0.5
748 37 0.0765741 0.658602 0.5
833 33 0.142112 0.608953 0.5
790 33 0.158936 0.640479 0.5
359 35 0.180314 0.609675 0.5
714 29 0.191858 0.642491 0.5
550 22 0.209026 0.618431 0.5
465 26 0.234795 0.607338 0.5
205 26 0.248857 0.633008 0.5
475 24 0.220857 0.642782 0.5
40 43 0.269985 0.604883 0.5
506 39 0.332275 0.6081 0.5
92 26 0.30175 0.616727 0.5
410 44 0.281422 0.6451 0.5
524 35 0.319821 0.645054 0.5
948 39 0.368957 0.602924 0.5
29 28 0.388321 0.630596 0.5
423 35 0.354196 0.638657 0.5
543 35 0.37767 0.663032 0.5
620 26 0.452145 0.611261 0.5
399 35 0.420272 0.621363 0.5
246 34 0.446072 0.645019 0.5
722 34 0.41217 0.654127 0.5
870 29 0.511862 0.620059 0.5
956 34 0.479679 0.63072 0.5
732 27 0.506319 0.654233 0.5
820 29 0.541169 0.609684 0.5
323 30 0.567154 0.630291 0.5
404 31 0.535933 0.643394 0.5
619 32 0.597333 0.616071 0.5
297 30 0.594856 0.64826 0.5
125 30 0.62963 0.606185 0.5
23 26 0.625874 0.640365 0.5
1000 38 0.657703 0.627026 0.5
454 32 0.652121 0.662062 0.5
850 20 0.69261 0.613179 0.5
899 19 0.686948 0.638402 0.5
816 33 0.722648 0.614497 0.5
392 30 0.7147 0.645714 0.5
908 17 0.682582 0.661379 0.5
711 36 0.748898 0.649995 0.5
43 37 0.757934 0.615393 0.5
867 40 0.797548 0.608102 0.5
64 32 0.783748 0.64119 0.5
974 24 0.830801 0.600107 0.5
269 32 0.817577 0.636785 0.5
584 23 0.845084 0.62528 0.5
861 37 0.844004 0.659512 0.5
777 25 0.872921 0.631674 0.5
109 47 0.909273 0.625717 0.5
633 30 0.877727 0.660529 0.5
341 23 0.909266 0.659412 0.5
906 42 0.983144 0.620429 0.5
294 29 0.946144 0.621969 0.5
489 17 0.963263 0.646564 0.5
675 26 0.936655 0.651895 0.5
295 34 0.992303 0.65697 0.5
514 23 0.0171611 0.677064 0.5
918 43 0.0495969 0.695707 0.5
946 29 0.0178697 0.710129 0.5
240 28 0.109114 0.668811 0.5
868 41 0.0885308 0.694813 0.5
872 42 0.126384 0.700568 0.5
204 35 0.0788608 0.729976 0.5
477 31 0.14252 0.669268 0.5
186 32 0.175321 0.670684 0.5
684 23 0.159407 0.698197 0.5
617 34 0.191025 0.702253 0.5
552 29 0.208064 0.671934 0.5
422 30 0.226947 0.696997 0.5
447 39 0.246427 0.667841 0.5
610 30 0.259114 0.70052 0.5
48 23 0.213305 0.72357 0.5
907 25 0.241948 0.725015 0.5
127 20 0.277786 0.67795 0.5
226 32 0.305784 0.675712 0.5
8 23 0.288407 0.702583 0.5
942 23 0.274727 0.726038 0.5
1 24 0.31837 0.702895 0.5
344 17 0.302134 0.725073 0.5
151 41 0.341823 0.675004 0.5
804 28 0.370579 0.697614 0.5
449 24 0.34497 0.712061 0.5
634 12 0.393616 0.714671 0.5
576 34 0.370458 0.731902 0.5
152 36 0.402339 0.687741 0.5
286 31 0.437854 0.678706 0.5
739 48 0.427299 0.716632 0.5
486 40 0.464475 0.702597 0.5
883 38 0.473952 0.665563 0.5
198 37 0.499851 0.689392 0.5
470 29 0.530307 0.676995 0.5
572 35 0.493213 0.725541 0.5
371 29 0.526723 0.7142 0.5
595 37 0.56456 0.665413 0.5
479 16 0.548556 0.698754 0.5
481 30 0.575922 0.6991 0.5
978 19 0.593519 0.677004 0.5
814 31 0.559371 0.727307 0.5
840 24 0.59236 0.730039 0.5
560 28 0.619651 0.669352 0.5
334 34 0.640953 0.694163 0.5
411 31 0.609322 0.703102 0.5
185 39 0.626705 0.73458 0.5
904 36 0.662229 0.72012 0.5
496 30 0.674338 0.689042 0.5
683 36 0.710346 0.681107 0.5
354 36 0.697726 0.714611 0.5
276 37 0.73336 0.714476 0.5
981 29 0.746588 0.683448 0.5
635 19 0.764174 0.706406 0.5
142 31 0.776042 0.674214 0.5
318 37 0.794655 0.702922 0.5
573 30 0.780504 0.733734 0.5
381 33 0.809404 0.669518 0.5
254 34 0.864936 0.691611 0.5
997 36 0.830365 0.696786 0.5
474 27 0.81741 0.727642 0.5
319 29 0.849465 0.723761 0.5
818 23 0.929878 0.682609 0.5
271 29 0.897264 0.686318 0.5
435 20 0.918797 0.706766 0.5
93 48 0.888164 0.723631 0.5
726 29 0.958576 0.673038 0.5
495 34 0.987102 0.693376 0.5
236 45 0.951712 0.711476 0.5
231 32 0.985769 0.728139 0.5
876 31 0.0436097 0.73198 0.5
401 22 0.0144863 0.738704 0.5
970 19 0.0628209 0.75681 0.5
827 45 0.0310891 0.769203 0.5
724 44 0.0685024 0.789842 0.5
913 28 0.111528 0.733516 0.5
248 23 0.092595 0.759028 0.5
624 21 0.102332 0.784417 0.5
19 27 0.123644 0.761328 0.5
342 43 0.133268 0.795491 0.5
74 37 0.147523 0.731896 0.5
989 36 0.18388 0.738181 0.5
419 34 0.158905 0.766813 0.5
261 41 0.198153 0.776584 0.5
647 30 0.222563 0.751674 0.5
460 36 0.258434 0.751441 0.5
894 25 0.237764 0.77856 0.5
627 34 0.328432 0.739365 0.5
316 41 0.295356 0.756356 0.5
82 35 0.271187 0.783814 0.5
639 18 0.324431 0.770831 0.5
86 30 0.303922 0.792546 0.5
640 39 0.354427 0.765266 0.5
284 37 0.391733 0.767975 0.5
145 22 0.371045 0.792016 0.5
116 19 0.399522 0.736978 0.5
13 32 0.458708 0.738199 0.5
220 30 0.423679 0.753212 0.5
667 25 0.449688 0.768463 0.5
99 23 0.423989 0.784574 0.5
507 28 0.515323 0.74684 0.5
825 39 0.483473 0.76308 0.5
370 40 0.519012 0.781698 0.5
417 23 0.490634 0.797389 0.5
394 29 0.54476 0.7553 0.5
209 24 0.57534 0.756604 0.5
117 32 0.556795 0.78433 0.5
388 24 0.587139 0.786966 0.5
321 31 0.605113 0.761549 0.5
49 26 0.66014 0.751439 0.5
932 25 0.635528 0.766942 0.5
108 34 0.618345 0.794652 0.5
800 20 0.660852 0.779161 0.5
184 25 0.649419 0.803875 0.5
123 12 0.684511 0.741166 0.5
195 39 0.71562 0.747624 0.5
395 26 0.685562 0.767861 0.5
695 17 0.709986 0.77831 0.5
30 33 0.68215 0.802716 0.5
463 25 0.749822 0.743107 0.5
878 32 0.771411 0.766032 0.5
327 31 0.739736 0.774186 0.5
50 33 0.762333 0.79956 0.5
774 35 0.795703 0.790181 0.5
599 34 0.805572 0.757019 0.5
612 25 0.837033 0.753887 0.5
778 22 0.864605 0.750059 0.5
654 22 0.856724 0.77622 0.5
299 22 0.828601 0.782454 0.5
200 36 0.924359 0.738515 0.5
759 38 0.895937 0.764983 0.5
839 26 0.929908 0.770801 0.5
285 30 0.910596 0.796535 0.5
134 36 0.957513 0.750555 0.5
546 33 1.00108 0.794946 0.5
237 37 0.991882 0.761841 0.5
88 46 0.962605 0.78887 0.5
643 26 0.0348771 0.803977 0.5
459 38 0.00983227 0.829143 0.5
642 31 0.0438828 0.835134 0.5
842 27 0.0221908 0.860828 0.5
801 24 0.0741356 0.824127 0.5
468 26 0.10025 0.811833 0.5
747 21 0.0954256 0.842518 0.5
146 22 0.0693294 0.850642 0.5
207 31 0.125513 0.833738 0.5
697 39 0.114849 0.868631 0.5
131 26 0.168093 0.796418 0.5
213 32 0.197012 0.810821 0.5
992 40 0.163139 0.830269 0.5
238 22 0.14588 0.857543 0.5
518 30 0.197547 0.843885 0.5
865 17 0.222362 0.798393 0.5
352 25 0.248487 0.806091 0.5
194 31 0.225598 0.826419 0.5
387 28 0.230667 0.857744 0.5
462 28 0.255551 0.839892 0.5
351 31 0.277927 0.8169 0.5
721 26 0.284633 0.849345 0.5
884 39 0.31048 0.827966 0.5
433 22 0.310214 0.860997 0.5
45 27 0.397648 0.801959 0.5
53 37 0.339074 0.799564 0.5
547 34 0.37221 0.822482 0.5
304 26 0.343233 0.833802 0.5
954 21 0.336654 0.86231 0.5
909 26 0.365754 0.853689 0.5
386 39 0.401848 0.841466 0.5
15 35 0.459237 0.799431 0.5
235 37 0.428026 0.816725 0.5
78 15 0.454227 0.83002 0.5
291 25 0.436143 0.848426 0.5
218 20 0.464479 0.852574 0.5
755 23 0.51118 0.815167 0.5
230 31 0.481932 0.826946 0.5
808 24 0.492129 0.858322 0.5
69 37 0.521864 0.844789 0.5
782 26 0.572897 0.81395 0.5
602 23 0.538574 0.809642 0.5
915 25 0.551524 0.83345 0.5
526 30 0.552371 0.864861 0.5
292 27 0.579026 0.843812 0.5
163 23 0.600353 0.823517 0.5
520 32 0.631713 0.828561 0.5
362 33 0.609772 0.854912 0.5
335 35 0.66497 0.832761 0.5
817 38 0.650292 0.866011 0.5
638 55 0.722456 0.810293 0.5
773 16 0.694108 0.832744 0.5
139 28 0.684327 0.859725 0.5
337 28 0.714923 0.851682 0.5
153 40 0.753503 0.839059 0.5
570 35 0.786136 0.823703 0.5
56 26 0.787144 0.855311 0.5
183 27 0.817352 0.813166 0.5
147 30 0.847349 0.806767 0.5
221 20 0.810188 0.841041 0.5
955 27 0.838404 0.836191 0.5
843 36 0.856325 0.863898 0.5
630 32 0.878243 0.79874 0.5
149 26 0.869288 0.830651 0.5
605 22 0.902828 0.826331 0.5
396 32 0.889949 0.855564 0.5
613 26 0.92085 0.851703 0.5
757 42 0.93825 0.82228 0.5
539 31 0.975494 0.825675 0.5
98 37 0.986952 0.859345 0.5
969 28 0.950704 0.857728 0.5
143 30 0.052598 0.875983 0.5
223 14 0.0295535 0.887464 0.5
889 27 0.00436341 0.888946 0.5
846 35 0.0468507 0.909461 0.5
115 19 0.0186348 0.91696 0.5
328 20 0.0840145 0.870577 0.5
922 39 0.0836466 0.901759 0.5
828 28 0.107609 0.933325 0.5
38 29 0.118114 0.902442 0.5
224 29 0.173971 0.865216 0.5
510 37 0.149397 0.891486 0.5
567 28 0.141181 0.923661 0.5
811 24 0.171249 0.916655 0.5
718 15 0.180309 0.893064 0.5
947 35 0.203878 0.878392 0.5
731 36 0.262374 0.872727 0.5
439 27 0.204675 0.910496 0.5
903 31 0.233829 0.895598 0.5
451 34 0.265698 0.907344 0.5
535 22 0.2935 0.883572 0.5
320 34 0.323632 0.89019 0.5
257 35 0.300399 0.916675 0.5
32 18 0.387657 0.870591 0.5
5 35 0.336376 0.924636 0.5
670 35 0.358748 0.885656 0.5
717 30 0.390561 0.898008 0.5
391 22 0.367177 0.91482 0.5
222 34 0.394625 0.935496 0.5
523 18 0.446758 0.871933 0.5
890 35 0.41733 0.877179 0.5
979 37 0.447429 0.903523 0.5
863 24 0.416762 0.912285 0.5
453 23 0.471225 0.879756 0.5
59 20 0.496766 0.884688 0.5
650 28 0.481905 0.908573 0.5
437 33 0.514674 0.909724 0.5
993 29 0.524378 0.87856 0.5
3 34 0.582591 0.877054 0.5
937 32 0.551153 0.898388 0.5
189 5 0.537131 0.920523 0.5
735 26 0.554954 0.933417 0.5
268 49 0.587649 0.916355 0.5
373 37 0.618725 0.888356 0.5
537 25 0.623548 0.920007 0.5
482 29 0.650035 0.902438 0.5
340 18 0.704242 0.879184 0.5
836 28 0.677921 0.890389 0.5
173 30 0.674921 0.923277 0.5
302 24 0.701985 0.908066 0.5
415 22 0.725903 0.896053 0.5
681 21 0.737392 0.87079 0.5
322 19 0.763615 0.869101 0.5
527 27 0.754456 0.894428 0.5
741 35 0.736509 0.926103 0.5
810 31 0.786666 0.88679 0.5
975 25 0.774918 0.915056 0.5
501 36 0.820417 0.871717 0.5
669 44 0.810949 0.913629 0.5
945 36 0.84723 0.899412 0.5
858 34 0.911767 0.882185 0.5
622 27 0.870939 0.922728 0.5
76 24 0.879308 0.885249 0.5
588 24 0.895968 0.908999 0.5
308 24 0.924016 0.913855 0.5
515 28 0.943801 0.890807 0.5
219 26 0.973498 0.889755 0.5
905 30 0.989213 0.916589 0.5
502 23 0.957372 0.916309 0.5
436 31 0.0223924 0.973147 0.5
33 30 0.036699 0.940893 0.5
931 29 0.00432067 0.945375 0.5
710 40 0.058483 0.968838 0.5
505 34 0.0731191 0.93543 0.5
262 32 0.0829072 0.996859 0.5
987 36 0.0963259 0.964791 0.5
498 29 0.117936 0.988672 0.5
315 27 0.129896 0.953432 0.5
461 33 0.195022 0.941013 0.5
490 32 0.148614 0.978956 0.5
160 28 0.161184 0.947418 0.5
891 34 0.182524 0.973253 0.5
819 29 0.231481 0.993775 0.5
466 48 0.237384 0.93453 0.5
255 29 0.216583 0.965255 0.5
984 33 0.253833 0.971752 0.5
565 26 0.284553 0.982034 0.5
339 38 0.277849 0.943381 0.5
844 34 0.317424 0.984022 0.5
330 26 0.312821 0.948563 0.5
769 28 0.340988 0.960135 0.5
14 28 0.390546 0.993627 0.5
738 33 0.355574 0.98902 0.5
554 28 0.378026 0.964799 0.5
247 21 0.363519 0.941003 0.5
835 34 0.461038 0.937276 0.5
473 31 0.410676 0.968037 0.5
896 29 0.428814 0.940594 0.5
657 22 0.420373 0.995743 0.5
150 42 0.44772 0.972792 0.5
467 32 0.496466 0.937217 0.5
494 19 0.525546 0.938689 0.5
509 25 0.479186 0.989753 0.5
203 43 0.509331 0.971787 0.5
31 20 0.477758 0.962652 0.5
598 35 0.537028 0.997628 0.5
256 34 0.569592 0.984857 0.5
122 30 0.544333 0.963316 0.5
609 30 0.579089 0.952365 0.5
159 36 0.603009 0.977321 0.5
708 24 0.609561 0.945383 0.5
484 35 0.640005 0.97322 0.5
898 27 0.645407 0.938961 0.5
444 35 0.670824 0.991383 0.5
558 32 0.674177 0.9563 0.5
208 32 0.700455 0.976114 0.5
314 32 0.70367 0.940645 0.5
749 27 0.7315 0.996762 0.5
52 40 0.734247 0.962445 0.5
561 32 0.761774 0.983319 0.5
655 28 0.790776 0.9734 0.5
562 39 0.768415 0.94739 0.5
258 41 0.840005 0.939196 0.5
356 22 0.817924 0.991024 0.5
583 21 0.801275 0.945355 0.5
719 20 0.818703 0.964585 0.5
746 21 0.843223 0.973927 0.5
499 13 0.866087 0.984581 0.5
656 17 0.920359 0.998505 0.5
895 28 0.86929 0.956969 0.5
158 37 0.895433 0.979975 0.5
689 30 0.928117 0.969663 0.5
880 44 0.903799 0.942877 0.5
780 29 0.941214 0.940187 0.5
663 34 0.949405 0.995309 0.5
113 37 0.984894 0.974855 0.5
75 17 0.956052 0.965823 0.5
55 27 0.972867 0.94395 0.5
