ITEM: TIMESTEP
250000
ITEM: NUMBER OF ATOMS
1000
ITEM: BOX BOUNDS pp pp pp
-1.6560829999999999e+01 1.6560829999999999e+01
-1.6560829999999999e+01 1.6560829999999999e+01
-5.0000000000000000e-01 5.0000000000000000e-01
ITEM: ATOMS id type xs ys zs
448 33 0.025471 0.0272705 0.5
596 26 0.0492998 0.00263184 0.5
369 36 0.0597793 0.0344134 0.5
407 24 0.0910841 0.0417575 0.5
429 25 0.0826753 0.0123928 0.5
171 35 0.116583 0.0218026 0.5
837 34 0.141433 0.0480861 0.5
130 27 0.174814 0.0481721 0.5
252 37 0.159113 0.0168127 0.5
815 30 0.196781 0.0256792 0.5
785 34 0.209507 0.0565898 0.5
124 26 0.227968 0.0328433 0.5
162 32 0.218229 0.000496997 0.5
802 37 0.262734 0.0420352 0.5
273 27 0.287258 0.0155616 0.5
400 36 0.249878 0.00904978 0.5
325 33 0.297256 0.0486666 0.5
953 28 0.328576 0.0405233 0.5
274 26 0.317367 0.012133 0.5
440 43 0.353809 0.0152016 0.5
368 34 0.359983 0.0526904 0.5
646 26 0.387456 0.0312662 0.5
144 35 0.389052 0.00016129 0.5
430 34 0.421126 0.0134782 0.5
734 33 0.420513 0.0452402 0.5
944 29 0.450703 0.0328116 0.5
566 32 0.453647 -0.000562344 0.5
416 35 0.483398 0.0167073 0.5
348 26 0.511287 0.036519 0.5
568 32 0.512113 0.00268701 0.5
402 40 0.479509 0.0534794 0.5
988 14 0.53283 0.0523592 0.5
874 41 0.544163 0.0234617 0.5
103 34 0.564946 0.0552892 0.5
742 31 0.581626 0.0251784 0.5
887 33 0.611558 0.0371293 0.5
529 27 0.637107 0.0208603 0.5
44 34 0.659692 0.0439174 0.5
360 11 0.6602 0.0124838 0.5
637 27 0.684133 0.0226933 0.5
100 34 0.692794 0.0560244 0.5
165 19 0.709248 0.0273634 0.5
653 22 0.734542 0.0136003 0.5
829 22 0.757941 0.00029167 0.5
611 39 0.729817 0.0490699 0.5
652 46 0.765648 0.0352546 0.5
85 19 0.799133 0.0280345 0.5
2 28 0.815778 0.00445458 0.5
615 27 0.785418 0.00321681 0.5
662 33 0.825442 0.0414421 0.5
855 31 0.846006 0.0158023 0.5
548 39 0.858406 0.0550134 0.5
377 25 0.876684 0.0238802 0.5
923 35 0.895523 0.0484587 0.5
574 18 0.899849 0.00657878 0.5
66 32 0.922546 0.0273789 0.5
770 45 0.958697 0.0139296 0.5
120 30 0.983603 0.0423367 0.5
936 22 0.993854 0.0153471 0.5
545 42 0.951042 0.0546901 0.5
87 27 0.044392 0.0660394 0.5
345 33 0.0126461 0.0586817 0.5
405 28 0.0215271 0.0886508 0.5
881 25 0.0583331 0.0922471 0.5
244 28 0.0016873 0.110121 0.5
564 25 0.0736088 0.0647569 0.5
427 31 0.111956 0.062298 0.5
586 47 0.0954658 0.0957171 0.5
750 33 0.128585 0.118575 0.5
756 27 0.132259 0.0871526 0.5
651 21 0.156453 0.0718852 0.5
888 27 0.158686 0.101451 0.5
555 30 0.183716 0.078978 0.5
720 27 0.189972 0.109054 0.5
96 30 0.214223 0.0883867 0.5
54 28 0.239989 0.0675283 0.5
403 23 0.2425 0.0961321 0.5
841 31 0.269002 0.0792374 0.5
885 22 0.283096 0.104748 0.5
232 26 0.25904 0.120862 0.5
690 25 0.335462 0.0710829 0.5
753 33 0.307012 0.0856459 0.5
73 31 0.336556 0.102027 0.5
848 28 0.311647 0.122564 0.5
621 26 0.362788 0.0839291 0.5
331 25 0.363966 0.114216 0.5
645 34 0.390993 0.0635979 0.5
333 30 0.389073 0.0974694 0.5
977 38 0.420813 0.0825807 0.5
674 26 0.451251 0.0678572 0.5
457 40 0.451671 0.102241 0.5
581 20 0.480454 0.0863217 0.5
4 34 0.510795 0.0716931 0.5
761 29 0.519088 0.104306 0.5
821 24 0.541066 0.076451 0.5
424 20 0.54991 0.10334 0.5
329 36 0.577081 0.0903221 0.5
476 18 0.592814 0.0643113 0.5
952 35 0.631851 0.065389 0.5
426 19 0.608333 0.0814019 0.5
980 27 0.631705 0.0972997 0.5
166 30 0.601868 0.110436 0.5
679 48 0.667216 0.0822578 0.5
265 46 0.714145 0.0869585 0.5
418 36 0.758694 0.0723282 0.5
879 35 0.745882 0.107262 0.5
27 34 0.793513 0.0609212 0.5
191 39 0.781513 0.1004 0.5
6 7 0.805306 0.0874972 0.5
141 33 0.820725 0.109139 0.5
41 31 0.826679 0.0740088 0.5
781 28 0.851852 0.0943773 0.5
606 36 0.878612 0.115958 0.5
762 33 0.884105 0.0817382 0.5
614 29 0.918361 0.070426 0.5
618 38 0.912573 0.104946 0.5
428 27 0.946942 0.0891606 0.5
199 39 0.984458 0.0791847 0.5
544 27 0.971125 0.110754 0.5
534 35 0.0363356 0.116518 0.5
787 25 0.0414234 0.147409 0.5
897 31 0.0101248 0.139566 0.5
812 25 0.0673938 0.118219 0.5
967 22 0.0696887 0.149229 0.5
917 42 0.0987316 0.135057 0.5
786 41 0.0913419 0.17338 0.5
84 25 0.129309 0.151488 0.5
293 38 0.15842 0.136085 0.5
902 29 0.152183 0.170211 0.5
458 39 0.225474 0.125257 0.5
702 26 0.183816 0.169291 0.5
303 28 0.193342 0.138736 0.5
728 35 0.216306 0.160243 0.5
361 34 0.249899 0.153095 0.5
201 35 0.282866 0.140281 0.5
707 52 0.278669 0.17955 0.5
357 39 0.31442 0.160079 0.5
794 31 0.34065 0.136811 0.5
36 39 0.349903 0.170877 0.5
949 36 0.376483 0.143812 0.5
730 32 0.381988 0.178555 0.5
665 46 0.414209 0.157824 0.5
664 32 0.416109 0.118046 0.5
607 40 0.451726 0.140387 0.5
497 33 0.446326 0.177265 0.5
500 46 0.48766 0.120188 0.5
175 49 0.486218 0.164217 0.5
72 23 0.512283 0.140361 0.5
21 31 0.539576 0.129696 0.5
94 22 0.57123 0.122918 0.5
421 35 0.562469 0.154959 0.5
587 38 0.528637 0.168377 0.5
910 30 0.594874 0.143138 0.5
278 34 0.62771 0.134588 0.5
892 19 0.6152 0.162405 0.5
91 22 0.653638 0.120006 0.5
283 39 0.685963 0.119683 0.5
176 33 0.666909 0.14992 0.5
136 40 0.703578 0.155502 0.5
39 25 0.718179 0.123927 0.5
363 23 0.742243 0.139578 0.5
364 33 0.735619 0.173839 0.5
156 22 0.762753 0.158195 0.5
519 21 0.768325 0.1314 0.5
438 26 0.798317 0.130681 0.5
822 37 0.793944 0.162823 0.5
177 21 0.847625 0.123379 0.5
901 39 0.82796 0.147841 0.5
375 30 0.865015 0.148332 0.5
983 32 0.892209 0.167711 0.5
751 22 0.900456 0.137757 0.5
575 33 0.927618 0.1507 0.5
686 30 0.943105 0.121504 0.5
729 20 0.959241 0.147427 0.5
259 15 0.980215 0.136216 0.5
26 43 0.984838 0.169467 0.5
929 35 0.0232866 0.173844 0.5
179 31 0.0392904 0.204632 0.5
792 31 0.00550262 0.201539 0.5
512 32 0.021025 0.232322 0.5
951 29 0.0562043 0.176711 0.5
22 35 0.0560161 0.232864 0.5
631 30 0.0727642 0.203675 0.5
234 35 0.0904459 0.23433 0.5
636 19 0.110332 0.200274 0.5
925 19 0.124799 0.1789 0.5
287 38 0.125801 0.232299 0.5
628 31 0.140557 0.201785 0.5
541 34 0.161202 0.230116 0.5
972 28 0.17386 0.196779 0.5
709 30 0.20548 0.19271 0.5
687 34 0.196347 0.224188 0.5
616 29 0.23004 0.213551 0.5
556 28 0.240212 0.185022 0.5
668 19 0.258213 0.206358 0.5
875 35 0.286217 0.219883 0.5
65 32 0.255929 0.235297 0.5
384 47 0.322291 0.199269 0.5
504 43 0.317428 0.241441 0.5
412 28 0.348018 0.225248 0.5
77 15 0.358583 0.200291 0.5
740 35 0.385879 0.212851 0.5
491 29 0.413041 0.19271 0.5
105 31 0.414643 0.232174 0.5
593 22 0.438606 0.207276 0.5
25 34 0.449821 0.234821 0.5
626 37 0.470429 0.204281 0.5
864 22 0.505264 0.192855 0.5
771 23 0.497946 0.219892 0.5
309 35 0.532595 0.211783 0.5
383 37 0.588408 0.18083 0.5
531 24 0.554749 0.187357 0.5
478 29 0.568751 0.213674 0.5
217 33 0.64209 0.175624 0.5
101 26 0.599836 0.21245 0.5
289 19 0.616438 0.188546 0.5
277 24 0.628626 0.213054 0.5
46 35 0.678373 0.182105 0.5
590 22 0.655411 0.204592 0.5
157 33 0.683798 0.220066 0.5
625 33 0.708836 0.197562 0.5
471 22 0.718215 0.227029 0.5
578 28 0.741033 0.207609 0.5
343 35 0.76711 0.188199 0.5
267 25 0.772878 0.21919 0.5
553 32 0.800919 0.196679 0.5
911 28 0.802087 0.22833 0.5
698 17 0.824815 0.178539 0.5
557 40 0.858758 0.184092 0.5
585 33 0.832119 0.21099 0.5
723 28 0.863393 0.219538 0.5
973 18 0.918837 0.179184 0.5
313 34 0.89111 0.200747 0.5
962 53 0.929659 0.212974 0.5
196 31 0.948626 0.175083 0.5
336 38 0.970219 0.205299 0.5
472 25 0.989414 0.230559 0.5
793 28 0.0381273 0.260279 0.5
441 29 0.0235398 0.287483 0.5
600 38 -0.00274451 0.262025 0.5
693 28 0.0716013 0.263006 0.5
532 27 0.0864072 0.29088 0.5
20 37 0.10949 0.266192 0.5
51 32 0.145961 0.260422 0.5
928 34 0.136516 0.292 0.5
783 24 0.166836 0.287434 0.5
882 38 0.188733 0.261234 0.5
563 38 0.222564 0.246911 0.5
275 32 0.222997 0.282286 0.5
692 27 0.284273 0.253162 0.5
228 26 0.251931 0.264841 0.5
7 36 0.278485 0.285158 0.5
765 21 0.251144 0.294238 0.5
251 32 0.312031 0.275651 0.5
296 29 0.346357 0.26064 0.5
62 27 0.340231 0.292648 0.5
893 29 0.370834 0.278649 0.5
133 32 0.377708 0.245885 0.5
128 31 0.402589 0.268613 0.5
112 23 0.433167 0.259821 0.5
324 42 0.432623 0.291001 0.5
79 41 0.466889 0.27242 0.5
958 19 0.478021 0.241438 0.5
281 23 0.518584 0.239014 0.5
306 25 0.498827 0.259614 0.5
688 25 0.527415 0.26729 0.5
549 29 0.548072 0.241764 0.5
866 28 0.579431 0.242757 0.5
9 26 0.564214 0.268455 0.5
206 32 0.595436 0.272042 0.5
727 38 0.614455 0.242571 0.5
47 31 0.63122 0.271003 0.5
35 40 0.651321 0.235692 0.5
70 26 0.660129 0.268619 0.5
137 34 0.692282 0.254573 0.5
110 30 0.683393 0.289064 0.5
760 24 0.745705 0.23668 0.5
282 26 0.713898 0.284009 0.5
805 26 0.722485 0.256441 0.5
533 37 0.751942 0.273527 0.5
784 27 0.775639 0.249328 0.5
971 16 0.781809 0.277715 0.5
503 40 0.807881 0.261611 0.5
95 33 0.840088 0.243455 0.5
188 32 0.840035 0.277586 0.5
716 30 0.869274 0.255461 0.5
641 29 0.871807 0.28678 0.5
288 38 0.894181 0.234742 0.5
869 33 0.898737 0.268429 0.5
807 20 0.922886 0.249583 0.5
713 39 0.931432 0.283755 0.5
326 48 0.958345 0.253633 0.5
135 28 0.964081 0.289431 0.5
579 26 0.0461652 0.320142 0.5
129 39 0.0144205 0.320354 0.5
826 30 0.0554533 0.291716 0.5
111 28 0.10877 0.307179 0.5
830 28 0.0779189 0.31987 0.5
985 22 0.102081 0.335432 0.5
10 29 0.135349 0.326581 0.5
40 43 0.160601 0.352629 0.5
154 27 0.165536 0.317163 0.5
594 34 0.195604 0.302602 0.5
965 29 0.193552 0.336684 0.5
300 39 0.231329 0.320346 0.5
126 32 0.268402 0.318043 0.5
948 39 0.259563 0.353618 0.5
796 25 0.291532 0.344699 0.5
349 45 0.305451 0.312191 0.5
758 18 0.319109 0.342393 0.5
446 27 0.342307 0.326757 0.5
406 29 0.366534 0.309486 0.5
11 40 0.375535 0.343109 0.5
266 37 0.400613 0.313378 0.5
604 18 0.408938 0.342998 0.5
691 42 0.464549 0.312991 0.5
678 29 0.431528 0.326867 0.5
311 26 0.460983 0.348498 0.5
767 44 0.502679 0.294291 0.5
432 28 0.494539 0.332746 0.5
17 25 0.524118 0.323427 0.5
42 45 0.544779 0.29683 0.5
431 31 0.58467 0.30202 0.5
347 50 0.560465 0.336577 0.5
83 31 0.598883 0.331704 0.5
118 24 0.615699 0.299275 0.5
522 38 0.631283 0.330775 0.5
772 33 0.648437 0.298637 0.5
338 28 0.665836 0.326063 0.5
999 39 0.701259 0.319096 0.5
974 24 0.723523 0.343943 0.5
725 42 0.737978 0.310257 0.5
968 41 0.75864 0.341821 0.5
960 44 0.809754 0.300381 0.5
632 30 0.770965 0.304527 0.5
601 31 0.791634 0.33348 0.5
119 28 0.822623 0.333571 0.5
916 23 0.841029 0.310915 0.5
853 14 0.847672 0.339494 0.5
764 40 0.873454 0.322297 0.5
212 22 0.89892 0.299296 0.5
450 21 0.918453 0.316257 0.5
696 26 0.902268 0.339492 0.5
959 25 0.931743 0.341731 0.5
862 22 0.994232 0.29284 0.5
789 27 0.949054 0.317365 0.5
60 25 0.979619 0.316859 0.5
854 27 0.961921 0.345178 0.5
833 33 0.0288264 0.353085 0.5
790 33 0.0411595 0.383982 0.5
398 41 0.00159206 0.389581 0.5
359 35 0.0630341 0.351137 0.5
550 22 0.0961507 0.361885 0.5
714 29 0.0758348 0.38324 0.5
475 24 0.107643 0.386329 0.5
465 26 0.123753 0.353749 0.5
205 26 0.137539 0.380293 0.5
410 44 0.169738 0.39405 0.5
506 39 0.222241 0.358966 0.5
92 26 0.190264 0.368596 0.5
524 35 0.21091 0.394627 0.5
423 35 0.244212 0.387011 0.5
29 28 0.277503 0.381282 0.5
620 26 0.344093 0.358515 0.5
722 34 0.300581 0.40438 0.5
399 35 0.309538 0.370569 0.5
246 34 0.334762 0.394722 0.5
956 34 0.370364 0.379263 0.5
732 27 0.394304 0.402389 0.5
870 29 0.400344 0.36903 0.5
820 29 0.431871 0.359068 0.5
404 31 0.427111 0.392671 0.5
323 30 0.45887 0.37911 0.5
125 30 0.523035 0.354899 0.5
619 32 0.491172 0.364482 0.5
297 30 0.484729 0.396095 0.5
23 26 0.514948 0.388354 0.5
850 20 0.589356 0.36066 0.5
1000 38 0.548187 0.376704 0.5
899 19 0.57863 0.385933 0.5
392 30 0.606035 0.393699 0.5
816 33 0.618559 0.363325 0.5
711 36 0.63869 0.394939 0.5
867 40 0.689292 0.353986 0.5
43 37 0.652883 0.359738 0.5
64 32 0.674688 0.387196 0.5
269 32 0.708729 0.382795 0.5
584 23 0.736864 0.370291 0.5
861 37 0.737455 0.40251 0.5
777 25 0.763541 0.377986 0.5
633 30 0.772224 0.406886 0.5
109 47 0.798582 0.369269 0.5
341 23 0.801678 0.404327 0.5
906 42 0.872045 0.359215 0.5
675 26 0.828532 0.398009 0.5
294 29 0.834445 0.363339 0.5
489 17 0.852747 0.384964 0.5
295 34 0.878354 0.40173 0.5
190 44 0.906986 0.374875 0.5
514 23 0.910207 0.413685 0.5
187 34 0.991937 0.349839 0.5
680 29 0.933887 0.397568 0.5
480 24 0.941934 0.369641 0.5
791 25 0.971677 0.373837 0.5
477 31 0.0256643 0.414219 0.5
684 23 0.0460305 0.436256 0.5
74 37 0.0546305 0.46605 0.5
872 42 0.0150877 0.452495 0.5
240 28 -0.00481469 0.425725 0.5
186 32 0.0601952 0.412024 0.5
552 29 0.0956073 0.413786 0.5
617 34 0.0795957 0.442803 0.5
48 23 0.0959863 0.470206 0.5
422 30 0.112533 0.444656 0.5
447 39 0.130137 0.413044 0.5
127 20 0.160869 0.428194 0.5
610 30 0.144338 0.448677 0.5
907 25 0.125535 0.473263 0.5
8 23 0.175856 0.451176 0.5
226 32 0.190784 0.424965 0.5
151 41 0.230536 0.424808 0.5
1 24 0.204798 0.453023 0.5
543 35 0.266007 0.413152 0.5
449 24 0.231868 0.460644 0.5
804 28 0.257409 0.445881 0.5
634 12 0.280934 0.463859 0.5
152 36 0.290107 0.436921 0.5
286 31 0.323719 0.430004 0.5
739 48 0.315976 0.465707 0.5
486 40 0.35291 0.450368 0.5
883 38 0.363264 0.415662 0.5
198 37 0.391941 0.441054 0.5
371 29 0.414838 0.467564 0.5
470 29 0.420597 0.42161 0.5
595 37 0.454831 0.413855 0.5
479 16 0.435629 0.449267 0.5
481 30 0.463199 0.448052 0.5
560 28 0.509452 0.418302 0.5
978 19 0.481939 0.425077 0.5
411 31 0.494656 0.450987 0.5
454 32 0.542294 0.413043 0.5
908 17 0.573026 0.409943 0.5
334 34 0.528873 0.445671 0.5
496 30 0.564731 0.437363 0.5
683 36 0.599809 0.428977 0.5
276 37 0.625689 0.461139 0.5
981 29 0.631178 0.428331 0.5
354 36 0.589877 0.462824 0.5
635 19 0.653854 0.44986 0.5
142 31 0.662966 0.421149 0.5
381 33 0.695345 0.415424 0.5
318 37 0.68358 0.449343 0.5
997 36 0.721532 0.437748 0.5
254 34 0.755682 0.437147 0.5
319 29 0.740753 0.466997 0.5
271 29 0.790825 0.43279 0.5
435 20 0.813038 0.452129 0.5
93 48 0.781455 0.467177 0.5
726 29 0.850873 0.41881 0.5
818 23 0.821331 0.425299 0.5
236 45 0.848801 0.454426 0.5
495 34 0.881057 0.43615 0.5
946 29 0.909656 0.455164 0.5
918 43 0.938538 0.432594 0.5
748 37 0.966385 0.405867 0.5
876 31 0.939447 0.466972 0.5
868 41 0.973586 0.453031 0.5
419 34 0.0434272 0.512959 0.5
913 28 0.026923 0.483747 0.5
19 27 0.00929162 0.511615 0.5
989 36 0.0738409 0.492989 0.5
261 41 0.0870463 0.527589 0.5
647 30 0.108839 0.497748 0.5
942 23 0.1593 0.474862 0.5
894 25 0.125845 0.527424 0.5
460 36 0.142591 0.499235 0.5
344 17 0.187617 0.47292 0.5
316 41 0.182356 0.505123 0.5
627 34 0.214059 0.48702 0.5
639 18 0.211593 0.516402 0.5
640 39 0.24232 0.512936 0.5
576 34 0.258326 0.480253 0.5
116 19 0.289327 0.484779 0.5
284 37 0.279983 0.514157 0.5
220 30 0.314244 0.504697 0.5
667 25 0.339238 0.520647 0.5
13 32 0.343796 0.490416 0.5
572 35 0.378973 0.474888 0.5
825 39 0.3718 0.514369 0.5
507 28 0.400758 0.498341 0.5
814 31 0.446656 0.475584 0.5
394 29 0.431987 0.505476 0.5
209 24 0.460957 0.501711 0.5
840 24 0.480558 0.477552 0.5
185 39 0.516944 0.479717 0.5
321 31 0.494417 0.507572 0.5
932 25 0.52249 0.51755 0.5
904 36 0.55443 0.469931 0.5
49 26 0.546463 0.500545 0.5
123 12 0.576111 0.488155 0.5
395 26 0.581291 0.513958 0.5
195 39 0.607693 0.493919 0.5
327 31 0.632264 0.521074 0.5
463 25 0.639939 0.488506 0.5
573 30 0.669037 0.478299 0.5
878 32 0.665349 0.5101 0.5
599 34 0.699868 0.501894 0.5
474 27 0.710379 0.469327 0.5
612 25 0.731202 0.495859 0.5
654 22 0.750088 0.52019 0.5
778 22 0.758393 0.492789 0.5
299 22 0.721611 0.526509 0.5
200 36 0.82 0.48241 0.5
759 38 0.789339 0.507825 0.5
839 26 0.829783 0.512556 0.5
134 36 0.857011 0.494506 0.5
231 32 0.883111 0.471586 0.5
237 37 0.891501 0.512416 0.5
401 22 0.910781 0.484231 0.5
827 45 0.936931 0.505164 0.5
204 35 0.993706 0.484259 0.5
970 19 0.962362 0.485946 0.5
248 23 0.974669 0.510656 0.5
342 43 0.0205298 0.545126 0.5
131 26 0.0563303 0.54168 0.5
992 40 0.0474901 0.577277 0.5
207 31 0.0108641 0.582252 0.5
865 17 0.107849 0.548935 0.5
213 32 0.0810979 0.56337 0.5
194 31 0.10988 0.577955 0.5
82 35 0.157992 0.531864 0.5
352 25 0.133708 0.555808 0.5
462 28 0.142091 0.585598 0.5
351 31 0.165598 0.565306 0.5
86 30 0.193296 0.53977 0.5
53 37 0.227939 0.547784 0.5
884 39 0.199882 0.575885 0.5
304 26 0.233341 0.581688 0.5
145 22 0.25916 0.540778 0.5
45 27 0.286598 0.545963 0.5
547 34 0.266537 0.572556 0.5
99 23 0.314395 0.535381 0.5
235 37 0.308722 0.569786 0.5
78 15 0.338321 0.583528 0.5
15 35 0.339974 0.554499 0.5
370 40 0.404797 0.532709 0.5
230 31 0.36669 0.579019 0.5
417 23 0.370641 0.547962 0.5
755 23 0.39321 0.56498 0.5
602 23 0.422072 0.560657 0.5
117 32 0.441285 0.536458 0.5
915 25 0.440266 0.579633 0.5
782 26 0.463381 0.559748 0.5
388 24 0.474003 0.528046 0.5
108 34 0.504901 0.543805 0.5
163 23 0.490037 0.572631 0.5
520 32 0.520553 0.574192 0.5
184 25 0.542117 0.547425 0.5
800 20 0.557242 0.52582 0.5
335 35 0.555217 0.577011 0.5
30 33 0.577224 0.548985 0.5
773 16 0.58373 0.577775 0.5
695 17 0.604382 0.525895 0.5
638 55 0.616587 0.559893 0.5
50 33 0.655629 0.545766 0.5
774 35 0.688498 0.535506 0.5
570 35 0.680228 0.569921 0.5
183 27 0.710169 0.55899 0.5
147 30 0.742236 0.549517 0.5
955 27 0.733488 0.579639 0.5
285 30 0.810361 0.538812 0.5
149 26 0.764003 0.574848 0.5
630 32 0.774759 0.538947 0.5
605 22 0.793872 0.564769 0.5
613 26 0.802567 0.591781 0.5
88 46 0.85626 0.534414 0.5
757 42 0.827757 0.569201 0.5
539 31 0.865453 0.570108 0.5
643 26 0.919435 0.535419 0.5
546 33 0.892697 0.549907 0.5
642 31 0.925437 0.56599 0.5
459 38 0.897563 0.589132 0.5
624 21 0.98859 0.532326 0.5
724 44 0.955916 0.54181 0.5
801 24 0.955448 0.576696 0.5
468 26 0.987638 0.559398 0.5
747 21 0.980946 0.586989 0.5
238 22 0.0271417 0.614048 0.5
510 37 0.0367724 0.64659 0.5
697 39 -0.00412371 0.615176 0.5
224 29 0.057878 0.617666 0.5
518 30 0.0828978 0.595973 0.5
718 15 0.0669016 0.646208 0.5
387 28 0.118139 0.609393 0.5
947 35 0.0912217 0.629209 0.5
721 26 0.171271 0.597612 0.5
903 31 0.119884 0.642136 0.5
731 36 0.148528 0.620075 0.5
535 22 0.176932 0.63115 0.5
954 21 0.226188 0.612653 0.5
433 22 0.198821 0.607994 0.5
320 34 0.206927 0.638154 0.5
386 39 0.287712 0.602184 0.5
909 26 0.254447 0.605153 0.5
670 35 0.243283 0.640409 0.5
32 18 0.270348 0.627935 0.5
890 35 0.304601 0.634972 0.5
291 25 0.319713 0.601528 0.5
523 18 0.332173 0.624304 0.5
218 20 0.349717 0.605048 0.5
453 23 0.358633 0.629403 0.5
808 24 0.380385 0.60793 0.5
59 20 0.387281 0.632824 0.5
69 37 0.408525 0.592638 0.5
993 29 0.416594 0.627851 0.5
526 30 0.443656 0.610825 0.5
937 32 0.443285 0.647294 0.5
292 27 0.46797 0.591479 0.5
3 34 0.472124 0.626104 0.5
362 33 0.4991 0.603751 0.5
373 37 0.508203 0.635406 0.5
817 38 0.537573 0.608625 0.5
337 28 0.573151 0.601764 0.5
139 28 0.56606 0.631177 0.5
340 18 0.595294 0.624097 0.5
681 21 0.60132 0.599494 0.5
415 22 0.624052 0.614071 0.5
302 24 0.615778 0.640327 0.5
322 19 0.651729 0.61664 0.5
153 40 0.645221 0.585499 0.5
56 26 0.680323 0.602571 0.5
810 31 0.675273 0.635058 0.5
501 36 0.707611 0.623036 0.5
221 20 0.70634 0.589461 0.5
843 36 0.742455 0.611928 0.5
945 36 0.736842 0.647664 0.5
76 24 0.767951 0.638726 0.5
396 32 0.774568 0.605838 0.5
858 34 0.802433 0.627732 0.5
969 28 0.830353 0.606233 0.5
515 28 0.833565 0.637123 0.5
98 37 0.862128 0.60597 0.5
219 26 0.86718 0.640168 0.5
146 22 0.932007 0.596876 0.5
842 27 0.889831 0.623714 0.5
223 14 0.915309 0.614754 0.5
889 27 0.912464 0.641045 0.5
143 30 0.938972 0.625879 0.5
328 20 0.959809 0.603956 0.5
922 39 0.972258 0.642603 0.5
567 28 0.0324074 0.678731 0.5
160 28 0.052033 0.702414 0.5
38 29 0.00519372 0.648774 0.5
828 28 -0.000712051 0.680392 0.5
315 27 0.0216761 0.706691 0.5
811 24 0.0607355 0.673726 0.5
439 27 0.0908618 0.663439 0.5
461 33 0.0868662 0.694549 0.5
451 34 0.152221 0.654283 0.5
466 48 0.123128 0.681855 0.5
339 38 0.162078 0.689319 0.5
257 35 0.186901 0.663119 0.5
5 35 0.223605 0.668965 0.5
330 26 0.201101 0.692093 0.5
717 30 0.275757 0.656376 0.5
247 21 0.236599 0.697213 0.5
391 22 0.254593 0.677764 0.5
222 34 0.283314 0.689717 0.5
979 37 0.336862 0.653729 0.5
863 24 0.304993 0.665106 0.5
896 29 0.318125 0.692357 0.5
835 34 0.350079 0.685959 0.5
650 28 0.369429 0.657343 0.5
437 33 0.401487 0.658898 0.5
467 32 0.384863 0.686597 0.5
494 19 0.41573 0.687355 0.5
189 5 0.426955 0.665562 0.5
735 26 0.447631 0.681803 0.5
609 30 0.468976 0.704027 0.5
268 49 0.481876 0.665374 0.5
537 25 0.517516 0.666426 0.5
708 24 0.503609 0.693866 0.5
482 29 0.542221 0.648325 0.5
898 27 0.533637 0.68732 0.5
173 30 0.563507 0.673078 0.5
836 28 0.589609 0.6537 0.5
314 32 0.593206 0.688757 0.5
741 35 0.625752 0.670948 0.5
527 27 0.645102 0.643198 0.5
562 39 0.657863 0.69591 0.5
975 25 0.664221 0.664877 0.5
583 21 0.688558 0.690242 0.5
669 44 0.701404 0.661755 0.5
258 41 0.732871 0.686902 0.5
622 27 0.7638 0.669945 0.5
588 24 0.790408 0.656663 0.5
880 44 0.798225 0.689161 0.5
895 28 0.764137 0.702472 0.5
308 24 0.817872 0.662821 0.5
780 29 0.83345 0.689615 0.5
502 23 0.848941 0.663218 0.5
55 27 0.862805 0.690166 0.5
905 30 0.883467 0.664751 0.5
931 29 0.895454 0.694591 0.5
115 19 0.911712 0.670731 0.5
33 30 0.928489 0.693239 0.5
846 35 0.939382 0.658773 0.5
505 34 0.966462 0.683219 0.5
490 32 0.0416363 0.731722 0.5
193 27 0.0310274 0.763911 0.5
498 29 0.010813 0.739023 0.5
215 26 0.0616606 0.760866 0.5
891 34 0.0741634 0.726732 0.5
255 29 0.106183 0.721177 0.5
180 34 0.0954561 0.754329 0.5
984 33 0.137238 0.717442 0.5
819 29 0.126156 0.748993 0.5
380 41 0.162358 0.741564 0.5
769 28 0.21727 0.717075 0.5
565 26 0.184996 0.715801 0.5
844 34 0.200407 0.744842 0.5
738 33 0.241226 0.738274 0.5
554 28 0.260401 0.710663 0.5
14 28 0.275345 0.738046 0.5
473 31 0.298571 0.717224 0.5
657 22 0.304065 0.746457 0.5
150 42 0.334075 0.724844 0.5
414 36 0.330745 0.762915 0.5
31 20 0.366035 0.711847 0.5
509 25 0.364572 0.739894 0.5
203 43 0.397824 0.720098 0.5
263 28 0.390487 0.757585 0.5
598 35 0.42563 0.745666 0.5
122 30 0.437501 0.713292 0.5
256 34 0.461408 0.736099 0.5
159 36 0.495301 0.725977 0.5
102 19 0.508386 0.751002 0.5
551 30 0.482652 0.761767 0.5
558 32 0.561551 0.704917 0.5
484 35 0.531852 0.725076 0.5
250 30 0.535461 0.75937 0.5
444 35 0.563259 0.741257 0.5
208 32 0.591273 0.721698 0.5
16 32 0.594135 0.755659 0.5
52 40 0.624539 0.708162 0.5
749 27 0.62196 0.743042 0.5
591 24 0.649912 0.765261 0.5
561 32 0.651041 0.729651 0.5
655 28 0.685451 0.718031 0.5
420 36 0.678194 0.751031 0.5
719 20 0.710835 0.706704 0.5
356 22 0.709544 0.734775 0.5
746 21 0.734544 0.719147 0.5
483 27 0.735522 0.748829 0.5
499 13 0.757312 0.72894 0.5
703 30 0.766132 0.755178 0.5
689 30 0.818378 0.718421 0.5
158 37 0.784975 0.7275 0.5
656 17 0.807834 0.749225 0.5
75 17 0.846373 0.712542 0.5
663 34 0.840826 0.741962 0.5
113 37 0.874617 0.724224 0.5
378 32 0.868186 0.758812 0.5
34 31 0.901964 0.750113 0.5
436 31 0.912662 0.72063 0.5
873 33 0.936872 0.747888 0.5
987 36 0.988245 0.71297 0.5
710 40 0.95443 0.718092 0.5
262 32 0.978051 0.74479 0.5
67 30 0.024867 0.793273 0.5
290 31 0.0436947 0.820958 0.5
513 26 0.0558189 0.79051 0.5
685 30 -0.000174626 0.769783 0.5
538 35 0.00866367 0.824327 0.5
197 28 0.0855446 0.785554 0.5
298 41 0.0804915 0.819563 0.5
455 31 0.116729 0.816995 0.5
775 34 0.117659 0.782744 0.5
487 30 0.149035 0.774541 0.5
245 18 0.142486 0.802725 0.5
81 26 0.169531 0.798554 0.5
37 28 0.181505 0.770935 0.5
682 38 0.226224 0.767829 0.5
61 33 0.201793 0.796915 0.5
559 34 0.240578 0.799785 0.5
921 40 0.263282 0.771825 0.5
941 28 0.275002 0.803466 0.5
148 35 0.298757 0.778844 0.5
169 17 0.302027 0.81085 0.5
809 25 0.325665 0.798463 0.5
525 24 0.354544 0.793434 0.5
58 26 0.36242 0.76833 0.5
763 36 0.386558 0.79266 0.5
629 23 0.416509 0.805965 0.5
366 29 0.418558 0.777234 0.5
877 28 0.450383 0.769424 0.5
253 29 0.444756 0.800156 0.5
104 23 0.462245 0.82193 0.5
355 32 0.47699 0.79499 0.5
107 29 0.507147 0.77972 0.5
390 33 0.508481 0.812971 0.5
57 33 0.535877 0.792771 0.5
445 37 0.566975 0.776106 0.5
243 34 0.565365 0.809872 0.5
919 21 0.594511 0.794419 0.5
241 34 0.621276 0.777118 0.5
824 32 0.621643 0.811729 0.5
926 35 0.653244 0.795424 0.5
924 23 0.684174 0.785254 0.5
745 37 0.681926 0.816157 0.5
182 33 0.710319 0.766487 0.5
138 32 0.713316 0.802851 0.5
990 44 0.745687 0.784391 0.5
569 34 0.743665 0.823172 0.5
229 33 0.792473 0.774833 0.5
912 42 0.778076 0.807443 0.5
397 33 0.81536 0.802043 0.5
365 26 0.824204 0.76885 0.5
272 39 0.850359 0.790628 0.5
89 30 0.872067 0.818879 0.5
964 34 0.88638 0.787157 0.5
242 38 0.921316 0.780111 0.5
161 25 0.906222 0.810576 0.5
886 27 0.939222 0.811908 0.5
488 24 0.995132 0.798558 0.5
943 50 0.962546 0.781556 0.5
736 23 0.974043 0.819282 0.5
705 28 0.0257287 0.852398 0.5
851 32 0.00206081 0.875189 0.5
516 44 0.0612853 0.854567 0.5
469 39 0.103727 0.853936 0.5
170 34 0.149157 0.832041 0.5
577 39 0.141854 0.866685 0.5
172 16 0.17157 0.852577 0.5
852 35 0.177282 0.880587 0.5
743 33 0.184819 0.827085 0.5
659 37 0.21921 0.827916 0.5
673 25 0.198056 0.855269 0.5
168 39 0.231552 0.862027 0.5
279 33 0.25534 0.82983 0.5
227 32 0.288755 0.835258 0.5
280 41 0.269401 0.867722 0.5
860 30 0.322102 0.831196 0.5
374 36 0.307867 0.866612 0.5
996 24 0.339864 0.853034 0.5
623 39 0.357551 0.824639 0.5
649 38 0.393525 0.830588 0.5
192 38 0.373374 0.859201 0.5
114 23 0.405637 0.862263 0.5
982 33 0.430556 0.833029 0.5
699 20 0.464606 0.848603 0.5
798 36 0.437182 0.865458 0.5
845 26 0.467029 0.882226 0.5
715 19 0.488939 0.835548 0.5
358 27 0.514811 0.84497 0.5
413 24 0.491053 0.86167 0.5
788 35 0.523538 0.876817 0.5
752 24 0.536086 0.824169 0.5
211 13 0.539004 0.853339 0.5
930 24 0.558029 0.839798 0.5
582 27 0.556045 0.873867 0.5
704 36 0.585424 0.857679 0.5
986 27 0.59367 0.825726 0.5
214 35 0.621682 0.846432 0.5
799 26 0.610844 0.87861 0.5
408 26 0.649666 0.828685 0.5
425 33 0.642224 0.871736 0.5
301 39 0.673605 0.852131 0.5
603 28 0.706131 0.873896 0.5
779 40 0.710283 0.838878 0.5
940 26 0.738911 0.856136 0.5
530 28 0.759183 0.878876 0.5
528 34 0.768207 0.844959 0.5
68 32 0.803015 0.833819 0.5
382 41 0.794736 0.870252 0.5
63 28 0.838877 0.826018 0.5
768 31 0.828445 0.857181 0.5
644 30 0.860888 0.85096 0.5
648 22 0.84939 0.878059 0.5
249 35 0.892821 0.843517 0.5
155 30 0.922993 0.837629 0.5
350 10 0.912726 0.862285 0.5
920 28 0.938844 0.866961 0.5
676 31 0.885931 0.876366 0.5
998 31 0.956048 0.842121 0.5
766 28 0.985908 0.848382 0.5
589 21 0.968781 0.873883 0.5
18 46 0.0381743 0.886336 0.5
216 46 0.0301594 0.936503 0.5
367 26 0.00955046 0.907114 0.5
823 27 0.0589769 0.917095 0.5
754 31 0.0774407 0.888798 0.5
511 41 0.115516 0.894152 0.5
442 37 0.0914153 0.92313 0.5
813 30 0.125022 0.930119 0.5
517 39 0.150686 0.904487 0.5
385 32 0.15774 0.941315 0.5
608 29 0.209765 0.889734 0.5
847 41 0.185809 0.917112 0.5
900 22 0.219222 0.918438 0.5
71 35 0.242425 0.896241 0.5
927 33 0.245138 0.932539 0.5
592 22 0.288971 0.893037 0.5
536 26 0.270216 0.913924 0.5
409 30 0.301239 0.920309 0.5
856 26 0.322807 0.899752 0.5
493 22 0.333817 0.9255 0.5
831 28 0.346555 0.881709 0.5
934 22 0.360218 0.917845 0.5
492 43 0.382046 0.89491 0.5
174 31 0.38623 0.932327 0.5
178 20 0.415507 0.887866 0.5
372 25 0.412453 0.914644 0.5
961 29 0.440365 0.899621 0.5
871 27 0.446378 0.93008 0.5
464 30 0.472654 0.912427 0.5
580 26 0.495539 0.890689 0.5
90 43 0.509981 0.922651 0.5
434 22 0.539914 0.939252 0.5
485 36 0.545972 0.906329 0.5
795 38 0.582756 0.896616 0.5
744 34 0.572346 0.932811 0.5
305 29 0.604857 0.926473 0.5
737 36 0.631889 0.905716 0.5
443 27 0.655294 0.926999 0.5
571 48 0.672974 0.893143 0.5
307 33 0.687922 0.930778 0.5
838 19 0.731655 0.882561 0.5
797 32 0.710075 0.904439 0.5
994 27 0.744277 0.908994 0.5
857 43 0.721227 0.938866 0.5
859 43 0.781676 0.908291 0.5
346 29 0.81814 0.918534 0.5
660 26 0.823295 0.88854 0.5
938 20 0.868335 0.90054 0.5
661 30 0.848579 0.921224 0.5
976 19 0.876783 0.927868 0.5
379 25 0.916245 0.887994 0.5
332 25 0.894157 0.907719 0.5
393 42 0.926687 0.919604 0.5
933 28 0.900558 0.942096 0.5
97 20 0.951262 0.893088 0.5
700 24 0.960664 0.926979 0.5
24 29 0.98096 0.900767 0.5
260 27 0.991928 0.932241 0.5
712 29 0.0426012 0.97298 0.5
849 37 0.0160287 0.992202 0.5
80 29 0.00169166 0.962596 0.5
706 33 0.0662513 0.948111 0.5
28 26 0.0745137 0.979625 0.5
132 31 0.0983133 0.956111 0.5
694 31 0.105623 0.98882 0.5
672 31 0.130987 0.963932 0.5
597 21 0.133961 0.995655 0.5
376 44 0.163501 0.977067 0.5
167 25 0.188112 0.948512 0.5
935 23 0.216542 0.945737 0.5
966 22 0.188171 0.997435 0.5
995 23 0.206949 0.97228 0.5
239 37 0.239445 0.967801 0.5
701 41 0.274996 0.950829 0.5
140 29 0.26997 0.984931 0.5
389 43 0.314776 0.952267 0.5
834 31 0.300498 0.985896 0.5
181 32 0.333771 0.983665 0.5
957 38 0.356888 0.949843 0.5
671 23 0.36297 0.981535 0.5
950 32 0.39107 0.966307 0.5
991 34 0.418315 0.947381 0.5
914 23 0.421274 0.981118 0.5
658 38 0.450252 0.965437 0.5
452 34 0.481951 0.946036 0.5
121 33 0.483348 0.981178 0.5
832 45 0.51567 0.963484 0.5
963 25 0.540216 0.987169 0.5
225 36 0.572638 0.992995 0.5
508 26 0.558225 0.962162 0.5
317 40 0.594548 0.963884 0.5
312 42 0.63173 0.95031 0.5
666 33 0.607748 1.00216 0.5
540 36 0.640883 0.98705 0.5
521 33 0.675633 0.989552 0.5
270 32 0.664732 0.956212 0.5
456 31 0.699723 0.965972 0.5
264 31 0.707203 0.998069 0.5
733 41 0.736495 0.97548 0.5
677 42 0.75915 0.941579 0.5
353 28 0.795725 0.944311 0.5
12 36 0.774986 0.973588 0.5
806 26 0.806966 0.974722 0.5
164 35 0.831782 0.950105 0.5
210 26 0.839107 0.983384 0.5
939 40 0.866412 0.9585 0.5
803 31 0.870765 0.993467 0.5
776 31 0.927684 0.992936 0.5
310 34 0.899489 0.975976 0.5
202 42 0.934586 0.95769 0.5
106 15 0.953662 0.982555 0.5
542 32 0.970749 0.956966 0.5
233 25 0.980352 0.987581 0.5
