ITEM: TIMESTEP
2250000
ITEM: NUMBER OF ATOMS
1000
ITEM: BOX BOUNDS pp pp pp
-1.6560829999999999e+01 1.6560829999999999e+01
-1.6560829999999999e+01 1.6560829999999999e+01
-5.0000000000000000e-01 5.0000000000000000e-01
ITEM: ATOMS id type xs ys zs
873 33 0.0445125 0.00322356 0.5
34 31 0.00826793 0.00689153 0.5
242 38 0.0301969 0.0350919 0.5
685 30 0.106563 0.0182317 0.5
943 50 0.0722295 0.033832 0.5
488 24 0.10334 0.0594601 0.5
215 26 0.168214 0.00384453 0.5
193 27 0.136686 0.0113469 0.5
513 26 0.159039 0.0322947 0.5
67 30 0.128232 0.0412724 0.5
180 34 0.199705 0.00412712 0.5
197 28 0.189101 0.0350943 0.5
775 34 0.220676 0.0307285 0.5
380 41 0.266127 0.00637241 0.5
81 26 0.283872 0.0406266 0.5
487 30 0.252038 0.0391939 0.5
37 28 0.300369 0.0141244 0.5
682 38 0.334876 0.0164989 0.5
61 33 0.31469 0.0447827 0.5
559 34 0.349522 0.0509578 0.5
921 40 0.371353 0.0219566 0.5
941 28 0.382843 0.055407 0.5
148 35 0.409379 0.0262646 0.5
414 36 0.444867 0.0155795 0.5
525 24 0.462979 0.0432588 0.5
809 25 0.434266 0.0479139 0.5
263 28 0.505359 0.0115603 0.5
58 26 0.476449 0.0188747 0.5
763 36 0.497329 0.0469478 0.5
877 28 0.561791 0.0197937 0.5
366 29 0.531128 0.029472 0.5
253 29 0.554024 0.0499328 0.5
102 19 0.621137 0.00158312 0.5
551 30 0.593814 0.0105235 0.5
107 29 0.617582 0.0312092 0.5
355 32 0.588726 0.0445753 0.5
250 30 0.645833 0.0140637 0.5
445 37 0.677107 0.0305602 0.5
57 33 0.646157 0.0471819 0.5
16 32 0.705813 0.0114324 0.5
919 21 0.704266 0.0513354 0.5
241 34 0.730825 0.0347312 0.5
591 24 0.758818 0.0191848 0.5
926 35 0.761586 0.0504888 0.5
749 27 0.735123 -0.00180002 0.5
420 36 0.789652 0.0109703 0.5
924 23 0.794129 0.0429337 0.5
182 33 0.82155 0.0251299 0.5
138 32 0.821728 0.0584486 0.5
483 27 0.845576 0.00262261 0.5
990 44 0.856029 0.0411229 0.5
703 30 0.876588 0.0111207 0.5
656 17 0.919518 0.000241754 0.5
229 33 0.903749 0.03152 0.5
365 26 0.935225 0.0246366 0.5
397 33 0.924037 0.0583834 0.5
964 34 0.995912 0.0429616 0.5
378 32 0.975933 0.0150078 0.5
272 39 0.960587 0.0479519 0.5
161 25 0.0161941 0.0677783 0.5
155 30 0.0398029 0.0916023 0.5
249 35 0.00638306 0.0987591 0.5
886 27 0.0486008 0.063466 0.5
350 10 0.0192953 0.122007 0.5
736 23 0.0770757 0.0727679 0.5
766 28 0.10112 0.0897168 0.5
998 31 0.0707113 0.102781 0.5
290 31 0.162763 0.0641147 0.5
538 35 0.131034 0.0745988 0.5
516 44 0.159459 0.100902 0.5
705 28 0.124757 0.108507 0.5
298 41 0.198888 0.0681421 0.5
455 31 0.227596 0.0877858 0.5
469 39 0.198585 0.108207 0.5
245 18 0.229794 0.0585516 0.5
170 34 0.257997 0.0757863 0.5
172 16 0.278214 0.0989968 0.5
743 33 0.290473 0.0719183 0.5
577 39 0.249053 0.115344 0.5
659 37 0.326288 0.0773088 0.5
673 25 0.306855 0.106247 0.5
168 39 0.340054 0.111198 0.5
169 17 0.410697 0.0585748 0.5
279 33 0.363274 0.0833429 0.5
227 32 0.39822 0.0832746 0.5
860 30 0.430483 0.0799984 0.5
374 36 0.415786 0.1125 0.5
996 24 0.448225 0.111502 0.5
623 39 0.465659 0.0749366 0.5
649 38 0.507237 0.0856092 0.5
629 23 0.52664 0.0592715 0.5
192 38 0.480913 0.112132 0.5
104 23 0.575486 0.0723734 0.5
982 33 0.545578 0.0833779 0.5
699 20 0.575018 0.100222 0.5
390 33 0.615468 0.0654561 0.5
715 19 0.597859 0.0886855 0.5
358 27 0.622787 0.0979773 0.5
413 24 0.600254 0.11628 0.5
243 34 0.676289 0.0654076 0.5
752 24 0.647729 0.0794266 0.5
930 24 0.671725 0.0966675 0.5
211 13 0.648646 0.10608 0.5
986 27 0.703022 0.0808965 0.5
824 32 0.731217 0.067761 0.5
214 35 0.729389 0.102229 0.5
408 26 0.758891 0.0893848 0.5
745 37 0.790245 0.0744901 0.5
301 39 0.785969 0.1108 0.5
779 40 0.820965 0.0968488 0.5
569 34 0.853431 0.0781636 0.5
940 26 0.851254 0.111355 0.5
528 34 0.881758 0.102038 0.5
912 42 0.889264 0.0665615 0.5
68 32 0.917662 0.0901326 0.5
768 31 0.942027 0.111624 0.5
89 30 0.984265 0.0739542 0.5
63 28 0.951721 0.0814976 0.5
644 30 0.973898 0.105453 0.5
920 28 0.0450958 0.121965 0.5
379 25 0.0241926 0.144732 0.5
332 25 0.00319025 0.164411 0.5
393 42 0.0354165 0.178432 0.5
851 32 0.102654 0.132368 0.5
589 21 0.0713977 0.132477 0.5
97 20 0.051855 0.150875 0.5
24 29 0.0807225 0.160057 0.5
367 26 0.109922 0.163013 0.5
18 46 0.139199 0.141045 0.5
823 27 0.166422 0.166064 0.5
754 31 0.18233 0.139137 0.5
511 41 0.21904 0.139807 0.5
442 37 0.199175 0.171262 0.5
517 39 0.254041 0.155119 0.5
852 35 0.283875 0.128828 0.5
847 41 0.294929 0.166036 0.5
608 29 0.317253 0.138094 0.5
900 22 0.32898 0.164904 0.5
71 35 0.352647 0.145695 0.5
280 41 0.377474 0.117009 0.5
592 22 0.400306 0.140436 0.5
536 26 0.38014 0.16211 0.5
831 28 0.460309 0.140435 0.5
856 26 0.430745 0.141359 0.5
409 30 0.412297 0.167438 0.5
493 22 0.444627 0.168466 0.5
934 22 0.471353 0.169063 0.5
114 23 0.51473 0.117461 0.5
492 43 0.497065 0.146537 0.5
372 25 0.52949 0.170113 0.5
798 36 0.548032 0.118317 0.5
845 26 0.576718 0.132039 0.5
178 20 0.528572 0.141506 0.5
961 29 0.554618 0.153282 0.5
464 30 0.585084 0.168575 0.5
788 35 0.63218 0.12954 0.5
580 26 0.604138 0.145029 0.5
582 27 0.664713 0.12698 0.5
704 36 0.696656 0.115632 0.5
795 38 0.688047 0.15161 0.5
485 36 0.654362 0.158694 0.5
425 33 0.754485 0.126335 0.5
799 26 0.721546 0.137366 0.5
737 36 0.743642 0.16079 0.5
571 48 0.784165 0.15102 0.5
603 28 0.816349 0.130207 0.5
797 32 0.822475 0.160494 0.5
530 28 0.87445 0.133988 0.5
838 19 0.843893 0.139207 0.5
994 27 0.857345 0.164271 0.5
382 41 0.908805 0.126013 0.5
859 43 0.893014 0.161577 0.5
660 26 0.935443 0.149394 0.5
676 31 0.995741 0.132899 0.5
648 22 0.961878 0.132824 0.5
938 20 0.976925 0.155666 0.5
661 30 0.95556 0.176387 0.5
933 28 0.00702839 0.195867 0.5
202 42 0.0449145 0.21547 0.5
310 34 0.0103865 0.2289 0.5
700 24 0.0679945 0.187647 0.5
260 27 0.0992393 0.190569 0.5
542 32 0.0804463 0.215869 0.5
216 46 0.136262 0.187437 0.5
80 29 0.115695 0.220362 0.5
712 29 0.148442 0.222042 0.5
706 33 0.171208 0.198942 0.5
132 31 0.205538 0.205218 0.5
28 26 0.185405 0.229499 0.5
813 30 0.231735 0.181919 0.5
385 32 0.264517 0.189376 0.5
672 31 0.238517 0.212545 0.5
376 44 0.272861 0.225308 0.5
167 25 0.294964 0.198576 0.5
935 23 0.323373 0.193777 0.5
995 23 0.313796 0.220609 0.5
239 37 0.348946 0.216541 0.5
927 33 0.355639 0.181709 0.5
701 41 0.389642 0.196641 0.5
140 29 0.380519 0.228737 0.5
834 31 0.412393 0.232539 0.5
389 43 0.428887 0.198869 0.5
957 38 0.467477 0.200478 0.5
181 32 0.444468 0.231855 0.5
174 31 0.499926 0.183609 0.5
950 32 0.500234 0.215997 0.5
671 23 0.474808 0.232906 0.5
914 23 0.529847 0.232931 0.5
871 27 0.558735 0.184878 0.5
991 34 0.529747 0.201749 0.5
658 38 0.560709 0.219185 0.5
90 43 0.619973 0.175838 0.5
452 34 0.592008 0.201147 0.5
832 45 0.628749 0.216317 0.5
121 33 0.594613 0.236011 0.5
744 34 0.681533 0.186621 0.5
434 22 0.650457 0.190417 0.5
508 26 0.664473 0.215055 0.5
317 40 0.7048 0.217552 0.5
305 29 0.712544 0.175187 0.5
312 42 0.737643 0.199908 0.5
443 27 0.767861 0.183165 0.5
307 33 0.799627 0.186867 0.5
270 32 0.774114 0.212875 0.5
456 31 0.807432 0.221263 0.5
857 43 0.835648 0.19597 0.5
677 42 0.87396 0.19797 0.5
733 41 0.846474 0.23335 0.5
346 29 0.923293 0.17906 0.5
353 28 0.909239 0.207343 0.5
12 36 0.886387 0.232969 0.5
976 19 0.983103 0.18171 0.5
164 35 0.942125 0.20881 0.5
939 40 0.978015 0.213514 0.5
776 31 0.039573 0.249982 0.5
574 18 0.0113671 0.259296 0.5
66 32 0.0321343 0.280748 0.5
106 15 0.0664291 0.239599 0.5
233 25 0.0945169 0.24462 0.5
770 45 0.068706 0.272205 0.5
936 22 0.103406 0.270509 0.5
849 37 0.129879 0.253286 0.5
596 26 0.162404 0.247623 0.5
448 33 0.126561 0.288452 0.5
369 36 0.162873 0.280067 0.5
694 31 0.216441 0.237064 0.5
429 25 0.19046 0.259052 0.5
171 35 0.225266 0.269469 0.5
407 24 0.195735 0.286379 0.5
597 21 0.245799 0.243634 0.5
252 37 0.271796 0.264077 0.5
966 22 0.298845 0.246887 0.5
162 32 0.329622 0.245517 0.5
815 30 0.310763 0.2736 0.5
124 26 0.34093 0.282176 0.5
400 36 0.364007 0.257312 0.5
273 27 0.397905 0.267184 0.5
802 37 0.375833 0.291969 0.5
274 26 0.427158 0.260346 0.5
440 43 0.46513 0.264162 0.5
953 28 0.439472 0.288009 0.5
144 35 0.502072 0.250582 0.5
646 26 0.496261 0.283981 0.5
566 32 0.566676 0.25376 0.5
430 34 0.534086 0.264234 0.5
944 29 0.562427 0.285809 0.5
568 32 0.622422 0.256372 0.5
416 35 0.59504 0.274004 0.5
348 26 0.624892 0.28694 0.5
963 25 0.651637 0.242483 0.5
225 36 0.683829 0.24831 0.5
874 41 0.657266 0.27549 0.5
742 31 0.695682 0.281492 0.5
540 36 0.748387 0.236475 0.5
666 33 0.717273 0.253734 0.5
529 27 0.74577 0.268264 0.5
887 33 0.725852 0.292282 0.5
521 33 0.783539 0.244876 0.5
360 11 0.770224 0.271286 0.5
637 27 0.793849 0.277334 0.5
264 31 0.816809 0.253794 0.5
829 22 0.868408 0.25786 0.5
653 22 0.845118 0.272351 0.5
165 19 0.821304 0.2833 0.5
652 46 0.877999 0.291307 0.5
806 26 0.919551 0.236448 0.5
615 27 0.899968 0.261772 0.5
2 28 0.932089 0.264657 0.5
85 19 0.911419 0.28735 0.5
377 25 0.993332 0.279462 0.5
210 26 0.952966 0.240546 0.5
803 31 0.98442 0.248868 0.5
855 31 0.962705 0.27464 0.5
923 35 0.0113091 0.307911 0.5
614 29 0.0300245 0.335282 0.5
762 33 -0.00206935 0.339873 0.5
545 42 0.0537988 0.308967 0.5
120 30 0.0930438 0.299466 0.5
199 39 0.0836812 0.332932 0.5
345 33 0.118233 0.322966 0.5
87 27 0.149161 0.31276 0.5
881 25 0.170437 0.33558 0.5
405 28 0.143325 0.34415 0.5
564 25 0.178318 0.308658 0.5
427 31 0.210773 0.311856 0.5
586 47 0.204248 0.348598 0.5
837 34 0.248738 0.296725 0.5
651 21 0.265348 0.322807 0.5
756 27 0.240427 0.336082 0.5
130 27 0.284585 0.295999 0.5
555 30 0.294428 0.32823 0.5
785 34 0.318391 0.306198 0.5
96 30 0.328156 0.33884 0.5
54 28 0.350391 0.313855 0.5
841 31 0.385282 0.324254 0.5
403 23 0.358658 0.342213 0.5
325 33 0.410423 0.30281 0.5
753 33 0.416462 0.337741 0.5
690 25 0.441273 0.317729 0.5
368 34 0.468895 0.300901 0.5
621 26 0.469588 0.333323 0.5
73 31 0.445354 0.353638 0.5
645 34 0.498861 0.316352 0.5
734 33 0.526627 0.29747 0.5
977 38 0.530181 0.339548 0.5
674 26 0.554171 0.314251 0.5
457 40 0.567698 0.343317 0.5
402 40 0.588687 0.309686 0.5
4 34 0.623431 0.322924 0.5
581 20 0.599747 0.339971 0.5
988 14 0.644574 0.304887 0.5
103 34 0.67377 0.308715 0.5
821 24 0.652531 0.334609 0.5
329 36 0.683409 0.343383 0.5
476 18 0.702328 0.31422 0.5
952 35 0.739613 0.323002 0.5
426 19 0.714321 0.339714 0.5
980 27 0.739953 0.356633 0.5
44 34 0.764219 0.298587 0.5
100 34 0.804247 0.309349 0.5
679 48 0.776392 0.336518 0.5
611 39 0.842677 0.306144 0.5
418 36 0.869669 0.331268 0.5
265 46 0.826703 0.342406 0.5
27 34 0.907846 0.318507 0.5
6 7 0.918093 0.343516 0.5
662 33 0.938678 0.29793 0.5
548 39 0.970363 0.314668 0.5
41 31 0.939413 0.331229 0.5
781 28 0.96658 0.350813 0.5
618 38 0.0243396 0.370511 0.5
751 22 0.00631873 0.398634 0.5
686 30 0.0553472 0.384539 0.5
428 27 0.0543474 0.352373 0.5
544 27 0.0824129 0.366911 0.5
259 15 0.0812901 0.393298 0.5
897 31 0.108439 0.386841 0.5
244 28 0.112489 0.354175 0.5
534 35 0.141639 0.376687 0.5
787 25 0.131987 0.407248 0.5
967 22 0.167975 0.394056 0.5
812 25 0.171816 0.364503 0.5
917 42 0.202053 0.391666 0.5
750 33 0.236545 0.36874 0.5
84 25 0.234987 0.4017 0.5
888 27 0.265883 0.354749 0.5
293 38 0.265255 0.388781 0.5
720 27 0.301455 0.357243 0.5
458 39 0.331713 0.372812 0.5
303 28 0.298626 0.387895 0.5
728 35 0.322596 0.409709 0.5
885 22 0.394569 0.358509 0.5
232 26 0.36617 0.369862 0.5
201 35 0.391948 0.390159 0.5
361 34 0.356091 0.402454 0.5
848 28 0.421716 0.373666 0.5
794 31 0.450088 0.388961 0.5
357 39 0.422425 0.410417 0.5
331 25 0.471752 0.368135 0.5
333 30 0.495375 0.350426 0.5
664 32 0.518216 0.374597 0.5
949 36 0.491139 0.396615 0.5
607 40 0.554124 0.378806 0.5
761 29 0.627626 0.356699 0.5
500 46 0.595673 0.373934 0.5
21 31 0.634986 0.38759 0.5
72 23 0.611223 0.405497 0.5
424 20 0.655408 0.363106 0.5
94 22 0.679848 0.374811 0.5
910 30 0.702305 0.398726 0.5
421 35 0.667994 0.403951 0.5
166 30 0.711295 0.368409 0.5
278 34 0.740179 0.389075 0.5
91 22 0.765569 0.37056 0.5
283 39 0.797747 0.37081 0.5
176 33 0.774013 0.399525 0.5
136 40 0.813976 0.407396 0.5
879 35 0.858595 0.364595 0.5
39 25 0.829261 0.376916 0.5
363 23 0.852114 0.395905 0.5
191 39 0.8951 0.357739 0.5
519 21 0.880709 0.386063 0.5
438 26 0.909058 0.389038 0.5
141 33 0.931946 0.363974 0.5
606 36 0.988993 0.373678 0.5
177 21 0.957056 0.380004 0.5
901 39 0.940028 0.40803 0.5
375 30 0.976719 0.405909 0.5
575 33 0.0351007 0.410926 0.5
973 18 0.0273092 0.439393 0.5
983 32 0.000249047 0.427754 0.5
729 20 0.0658729 0.411741 0.5
26 43 0.0961926 0.422419 0.5
196 31 0.0559404 0.440657 0.5
792 31 0.106111 0.457736 0.5
951 29 0.160628 0.421459 0.5
929 35 0.133573 0.439618 0.5
631 30 0.16629 0.451539 0.5
786 41 0.195612 0.429923 0.5
636 19 0.219183 0.452428 0.5
925 19 0.231613 0.428013 0.5
902 29 0.259663 0.423105 0.5
972 28 0.279084 0.448533 0.5
628 31 0.247984 0.452834 0.5
702 26 0.291193 0.419295 0.5
709 30 0.310495 0.442337 0.5
556 28 0.34365 0.435834 0.5
616 29 0.334425 0.466905 0.5
707 52 0.384591 0.430854 0.5
668 19 0.362909 0.458065 0.5
875 35 0.390456 0.47017 0.5
36 39 0.458732 0.423179 0.5
77 15 0.459857 0.452692 0.5
384 47 0.425824 0.450206 0.5
730 32 0.493585 0.430946 0.5
491 29 0.51902 0.448943 0.5
740 35 0.487547 0.463634 0.5
665 46 0.529194 0.410514 0.5
175 49 0.576545 0.413663 0.5
497 33 0.552297 0.443749 0.5
626 37 0.584426 0.455185 0.5
587 38 0.637941 0.423024 0.5
864 22 0.606541 0.431696 0.5
771 23 0.616484 0.457614 0.5
309 35 0.646815 0.459363 0.5
531 24 0.668243 0.435253 0.5
383 37 0.699722 0.434059 0.5
478 29 0.680581 0.464718 0.5
892 19 0.725921 0.415628 0.5
217 33 0.752977 0.426849 0.5
289 19 0.728185 0.442715 0.5
101 26 0.711803 0.467284 0.5
277 24 0.740148 0.466502 0.5
590 22 0.765351 0.455154 0.5
46 35 0.787492 0.433856 0.5
625 33 0.821022 0.446754 0.5
157 33 0.794849 0.47008 0.5
364 33 0.846009 0.42722 0.5
156 22 0.874851 0.412066 0.5
343 35 0.876629 0.443471 0.5
578 28 0.849146 0.463174 0.5
822 37 0.905147 0.420913 0.5
698 17 0.930854 0.438939 0.5
553 32 0.907738 0.456841 0.5
313 34 0.991928 0.462081 0.5
557 40 0.964717 0.43842 0.5
585 33 0.938946 0.467989 0.5
962 53 0.0339686 0.474495 0.5
288 38 -0.00128046 0.498431 0.5
807 20 0.027329 0.512589 0.5
336 38 0.0735579 0.471962 0.5
472 25 0.10604 0.48793 0.5
326 48 0.0627971 0.51143 0.5
600 38 0.102379 0.52093 0.5
179 31 0.133384 0.473156 0.5
22 35 0.163907 0.487602 0.5
512 32 0.132561 0.505232 0.5
793 28 0.161571 0.5229 0.5
234 35 0.195513 0.471513 0.5
693 28 0.1905 0.508263 0.5
20 37 0.221105 0.520814 0.5
287 38 0.229888 0.484613 0.5
541 34 0.26777 0.48011 0.5
51 32 0.254787 0.51047 0.5
687 34 0.302026 0.474181 0.5
563 38 0.328425 0.501021 0.5
882 38 0.292682 0.507943 0.5
65 32 0.362038 0.488508 0.5
692 27 0.388262 0.504234 0.5
228 26 0.361702 0.520366 0.5
412 28 0.457135 0.4797 0.5
504 43 0.420497 0.492599 0.5
296 29 0.452343 0.51066 0.5
251 32 0.424758 0.528314 0.5
105 31 0.513469 0.486867 0.5
133 32 0.483048 0.498296 0.5
128 31 0.511708 0.521017 0.5
593 22 0.539152 0.470739 0.5
25 34 0.566339 0.484565 0.5
112 23 0.538635 0.503026 0.5
79 41 0.580703 0.518496 0.5
958 19 0.602417 0.482687 0.5
281 23 0.629768 0.484406 0.5
306 25 0.613375 0.506697 0.5
688 25 0.642573 0.512049 0.5
549 29 0.662491 0.489777 0.5
866 28 0.693314 0.494515 0.5
9 26 0.675174 0.518778 0.5
206 32 0.705431 0.524839 0.5
727 38 0.726743 0.496433 0.5
35 40 0.76445 0.491539 0.5
47 31 0.738061 0.528041 0.5
137 34 0.798412 0.507325 0.5
70 26 0.769148 0.522266 0.5
471 22 0.824738 0.477729 0.5
760 24 0.858714 0.492407 0.5
805 26 0.832262 0.505293 0.5
533 37 0.856858 0.528802 0.5
267 25 0.88203 0.474941 0.5
911 28 0.909489 0.488195 0.5
784 27 0.885115 0.507008 0.5
503 40 0.913418 0.524289 0.5
723 28 0.967828 0.485268 0.5
95 33 0.940964 0.501524 0.5
716 30 0.970989 0.517647 0.5
869 33 0.0056301 0.533347 0.5
713 39 0.0407501 0.54559 0.5
212 22 0.00981817 0.563286 0.5
450 21 0.0337054 0.576487 0.5
135 28 0.0769003 0.545847 0.5
862 22 0.105767 0.552579 0.5
789 27 0.0624328 0.572778 0.5
60 25 0.0913827 0.579344 0.5
441 29 0.131802 0.537554 0.5
826 30 0.159659 0.554957 0.5
129 39 0.127392 0.575831 0.5
579 26 0.161518 0.58648 0.5
532 27 0.188702 0.539362 0.5
111 28 0.216147 0.556313 0.5
830 28 0.18751 0.570448 0.5
783 24 0.277058 0.536764 0.5
928 34 0.246392 0.544177 0.5
154 27 0.273034 0.569456 0.5
10 29 0.240461 0.578044 0.5
275 32 0.331804 0.536609 0.5
594 34 0.303007 0.554394 0.5
300 39 0.338028 0.570811 0.5
7 36 0.390367 0.537992 0.5
765 21 0.360268 0.547803 0.5
126 32 0.379925 0.570535 0.5
62 27 0.451716 0.546943 0.5
349 45 0.417175 0.564671 0.5
446 27 0.455604 0.57956 0.5
893 29 0.481203 0.529566 0.5
406 29 0.479984 0.560188 0.5
266 37 0.514192 0.560342 0.5
324 42 0.545511 0.538218 0.5
691 42 0.577789 0.558845 0.5
678 29 0.54533 0.574634 0.5
767 44 0.613696 0.541989 0.5
17 25 0.631468 0.573293 0.5
432 28 0.603944 0.583416 0.5
42 45 0.653514 0.546574 0.5
431 31 0.689533 0.553887 0.5
83 31 0.704019 0.584518 0.5
347 50 0.666652 0.587964 0.5
118 24 0.722745 0.554513 0.5
522 38 0.738451 0.582643 0.5
772 33 0.760306 0.553058 0.5
110 30 0.79292 0.542664 0.5
999 39 0.807433 0.572813 0.5
338 28 0.774435 0.582313 0.5
282 26 0.824006 0.535465 0.5
725 42 0.844479 0.564931 0.5
971 16 0.886196 0.5398 0.5
632 30 0.880206 0.567161 0.5
960 44 0.917407 0.562709 0.5
188 32 0.947102 0.539218 0.5
641 29 0.97768 0.550848 0.5
916 23 0.952106 0.571852 0.5
764 40 0.984912 0.584857 0.5
696 26 0.0151239 0.597356 0.5
959 25 0.0439156 0.603519 0.5
190 44 0.0217875 0.632279 0.5
480 24 0.0573789 0.630005 0.5
854 27 0.0736203 0.604873 0.5
187 34 0.106515 0.606647 0.5
791 25 0.0884389 0.632861 0.5
833 33 0.142035 0.610673 0.5
398 41 0.121542 0.639639 0.5
790 33 0.158039 0.640872 0.5
985 22 0.205597 0.595286 0.5
359 35 0.179126 0.612542 0.5
550 22 0.207895 0.621621 0.5
465 26 0.233087 0.608858 0.5
40 43 0.267634 0.604159 0.5
205 26 0.244203 0.635795 0.5
965 29 0.300295 0.587868 0.5
506 39 0.329587 0.607485 0.5
92 26 0.299278 0.618649 0.5
796 25 0.398441 0.595778 0.5
948 39 0.364829 0.602716 0.5
29 28 0.385917 0.63064 0.5
423 35 0.351946 0.637047 0.5
758 18 0.429695 0.59423 0.5
620 26 0.451116 0.610593 0.5
399 35 0.418644 0.620383 0.5
604 18 0.519816 0.590991 0.5
11 40 0.487216 0.592691 0.5
870 29 0.511386 0.617821 0.5
956 34 0.478197 0.62725 0.5
311 26 0.57287 0.593048 0.5
820 29 0.542993 0.606964 0.5
323 30 0.567648 0.627619 0.5
404 31 0.536797 0.638966 0.5
125 30 0.629003 0.605461 0.5
619 32 0.598426 0.615147 0.5
23 26 0.623785 0.637686 0.5
297 30 0.594083 0.647495 0.5
850 20 0.692607 0.614305 0.5
1000 38 0.656892 0.626674 0.5
899 19 0.684713 0.638273 0.5
816 33 0.723804 0.615229 0.5
392 30 0.712184 0.64661 0.5
711 36 0.747031 0.646312 0.5
43 37 0.760106 0.613563 0.5
867 40 0.797855 0.609583 0.5
64 32 0.783878 0.643642 0.5
269 32 0.817759 0.639846 0.5
974 24 0.829451 0.598559 0.5
968 41 0.863661 0.600766 0.5
584 23 0.846261 0.629851 0.5
777 25 0.874928 0.634226 0.5
601 31 0.899245 0.593107 0.5
109 47 0.90941 0.629179 0.5
119 28 0.930527 0.596307 0.5
853 14 0.957608 0.601056 0.5
906 42 0.981384 0.622191 0.5
294 29 0.946043 0.62702 0.5
489 17 0.964497 0.649553 0.5
680 29 0.0383387 0.6653 0.5
514 23 0.0154803 0.683926 0.5
918 43 0.0461408 0.69865 0.5
748 37 0.0715067 0.659696 0.5
240 28 0.104555 0.669363 0.5
868 41 0.0843053 0.695946 0.5
477 31 0.138765 0.670072 0.5
872 42 0.122124 0.702452 0.5
186 32 0.17268 0.673883 0.5
684 23 0.156501 0.701647 0.5
714 29 0.190634 0.646428 0.5
475 24 0.219365 0.647465 0.5
552 29 0.204615 0.674875 0.5
617 34 0.18785 0.70445 0.5
422 30 0.222279 0.700588 0.5
410 44 0.277615 0.646535 0.5
447 39 0.241721 0.671105 0.5
127 20 0.272939 0.680014 0.5
610 30 0.25658 0.703098 0.5
524 35 0.317736 0.644954 0.5
226 32 0.302893 0.675649 0.5
151 41 0.339278 0.675631 0.5
543 35 0.375967 0.664315 0.5
152 36 0.40159 0.686904 0.5
804 28 0.369205 0.69755 0.5
246 34 0.446946 0.64217 0.5
722 34 0.409148 0.653404 0.5
286 31 0.43568 0.676016 0.5
732 27 0.506571 0.648902 0.5
883 38 0.476237 0.662277 0.5
198 37 0.501713 0.689513 0.5
470 29 0.529515 0.670679 0.5
595 37 0.562642 0.663896 0.5
479 16 0.543156 0.697048 0.5
481 30 0.570533 0.698593 0.5
978 19 0.592226 0.676206 0.5
560 28 0.619409 0.668341 0.5
334 34 0.637799 0.693873 0.5
411 31 0.604845 0.701529 0.5
454 32 0.651833 0.663899 0.5
908 17 0.68072 0.661544 0.5
496 30 0.67243 0.688247 0.5
683 36 0.705213 0.680404 0.5
981 29 0.739581 0.67945 0.5
635 19 0.761301 0.70287 0.5
142 31 0.771348 0.673637 0.5
381 33 0.804493 0.671716 0.5
318 37 0.7915 0.701954 0.5
861 37 0.844209 0.664764 0.5
254 34 0.862677 0.695073 0.5
997 36 0.828467 0.696592 0.5
633 30 0.877536 0.664371 0.5
341 23 0.909973 0.664003 0.5
818 23 0.928033 0.68589 0.5
271 29 0.89705 0.690345 0.5
675 26 0.937858 0.656057 0.5
295 34 0.992971 0.659912 0.5
726 29 0.959955 0.676303 0.5
495 34 0.986632 0.694918 0.5
946 29 0.0124946 0.715848 0.5
876 31 0.0389112 0.734874 0.5
401 22 0.0103172 0.743749 0.5
204 35 0.0717756 0.73108 0.5
913 28 0.105252 0.737638 0.5
970 19 0.0561707 0.757661 0.5
248 23 0.0863348 0.760318 0.5
74 37 0.139046 0.736783 0.5
48 23 0.207737 0.729511 0.5
989 36 0.176043 0.739271 0.5
647 30 0.220492 0.755237 0.5
8 23 0.288224 0.702269 0.5
907 25 0.235668 0.727939 0.5
942 23 0.273935 0.727217 0.5
460 36 0.253954 0.75404 0.5
1 24 0.317149 0.702602 0.5
449 24 0.344943 0.712622 0.5
344 17 0.300125 0.724341 0.5
627 34 0.325711 0.738906 0.5
316 41 0.29217 0.755379 0.5
634 12 0.390351 0.711494 0.5
576 34 0.371089 0.734624 0.5
116 19 0.40087 0.736295 0.5
739 48 0.426744 0.715137 0.5
13 32 0.457273 0.739014 0.5
486 40 0.464652 0.701139 0.5
220 30 0.42496 0.753773 0.5
572 35 0.492322 0.724754 0.5
507 28 0.51626 0.746649 0.5
371 29 0.524865 0.718357 0.5
814 31 0.55634 0.726507 0.5
394 29 0.544956 0.757014 0.5
209 24 0.573877 0.758872 0.5
840 24 0.588644 0.728651 0.5
185 39 0.624061 0.731528 0.5
321 31 0.604716 0.759861 0.5
354 36 0.694793 0.71552 0.5
904 36 0.660582 0.720111 0.5
123 12 0.680476 0.742162 0.5
49 26 0.657722 0.75261 0.5
276 37 0.731882 0.713477 0.5
463 25 0.745035 0.74413 0.5
195 39 0.711367 0.747739 0.5
573 30 0.772996 0.729796 0.5
474 27 0.81717 0.72656 0.5
599 34 0.801556 0.754233 0.5
878 32 0.768745 0.763494 0.5
319 29 0.84861 0.726139 0.5
612 25 0.835134 0.753787 0.5
778 22 0.864047 0.753683 0.5
435 20 0.916836 0.710703 0.5
93 48 0.885082 0.725991 0.5
200 36 0.921914 0.740091 0.5
236 45 0.950716 0.712667 0.5
231 32 0.984124 0.730016 0.5
134 36 0.955869 0.750099 0.5
827 45 0.0274025 0.773382 0.5
643 26 0.0324039 0.809634 0.5
724 44 0.0663336 0.788661 0.5
624 21 0.0992086 0.783993 0.5
468 26 0.0943433 0.812027 0.5
19 27 0.121051 0.763921 0.5
419 34 0.152074 0.769344 0.5
342 43 0.128938 0.800535 0.5
131 26 0.163582 0.798669 0.5
261 41 0.189497 0.774233 0.5
865 17 0.218482 0.797619 0.5
213 32 0.193211 0.812179 0.5
894 25 0.238003 0.780888 0.5
82 35 0.271144 0.785728 0.5
352 25 0.249601 0.808648 0.5
351 31 0.279859 0.81781 0.5
639 18 0.320128 0.769068 0.5
86 30 0.304712 0.793619 0.5
53 37 0.33948 0.800653 0.5
640 39 0.350968 0.764753 0.5
284 37 0.390609 0.765622 0.5
145 22 0.369852 0.790572 0.5
45 27 0.398833 0.797425 0.5
547 34 0.3749 0.820106 0.5
667 25 0.452076 0.76986 0.5
99 23 0.427261 0.784478 0.5
15 35 0.457059 0.801954 0.5
235 37 0.425247 0.816631 0.5
825 39 0.485542 0.763609 0.5
370 40 0.520701 0.781633 0.5
417 23 0.487973 0.79643 0.5
755 23 0.50821 0.814279 0.5
117 32 0.558714 0.786348 0.5
782 26 0.574719 0.813646 0.5
602 23 0.536264 0.810941 0.5
932 25 0.633195 0.770099 0.5
388 24 0.588931 0.787416 0.5
108 34 0.618636 0.799743 0.5
395 26 0.683627 0.767771 0.5
800 20 0.658189 0.779586 0.5
30 33 0.683069 0.801856 0.5
184 25 0.650636 0.804849 0.5
327 31 0.737048 0.773353 0.5
695 17 0.707858 0.777974 0.5
638 55 0.72154 0.809834 0.5
50 33 0.760673 0.796766 0.5
774 35 0.794355 0.788875 0.5
183 27 0.817584 0.813884 0.5
654 22 0.854404 0.779208 0.5
299 22 0.827622 0.783857 0.5
147 30 0.847529 0.808104 0.5
630 32 0.878591 0.799335 0.5
759 38 0.893848 0.766727 0.5
839 26 0.927948 0.772437 0.5
285 30 0.910373 0.798413 0.5
546 33 0.998988 0.797718 0.5
237 37 0.988948 0.765002 0.5
88 46 0.958774 0.789831 0.5
459 38 0.00720543 0.831246 0.5
642 31 0.0403275 0.842181 0.5
842 27 0.0176055 0.863811 0.5
143 30 0.0476817 0.872996 0.5
801 24 0.06452 0.823665 0.5
747 21 0.0946975 0.840806 0.5
146 22 0.0699154 0.851131 0.5
328 20 0.0774163 0.875504 0.5
697 39 0.109777 0.86918 0.5
992 40 0.162553 0.832796 0.5
207 31 0.124245 0.837025 0.5
238 22 0.142544 0.86171 0.5
224 29 0.17319 0.867249 0.5
194 31 0.222844 0.826644 0.5
518 30 0.196238 0.844745 0.5
947 35 0.204108 0.879486 0.5
387 28 0.229677 0.857854 0.5
462 28 0.255968 0.838074 0.5
721 26 0.285385 0.849146 0.5
731 36 0.259933 0.872463 0.5
884 39 0.313235 0.828721 0.5
304 26 0.345159 0.835472 0.5
954 21 0.335847 0.864251 0.5
433 22 0.309022 0.866397 0.5
386 39 0.402006 0.845718 0.5
909 26 0.369461 0.852457 0.5
32 18 0.387851 0.873021 0.5
78 15 0.452245 0.829603 0.5
291 25 0.435165 0.849181 0.5
218 20 0.464886 0.853354 0.5
523 18 0.448665 0.871486 0.5
890 35 0.418441 0.877706 0.5
230 31 0.480875 0.826651 0.5
808 24 0.491396 0.855818 0.5
69 37 0.52199 0.844236 0.5
915 25 0.552063 0.834352 0.5
526 30 0.554568 0.863221 0.5
292 27 0.579522 0.844767 0.5
3 34 0.587743 0.87813 0.5
163 23 0.602413 0.826569 0.5
520 32 0.632475 0.830227 0.5
362 33 0.613358 0.855777 0.5
335 35 0.666336 0.833056 0.5
773 16 0.69509 0.834259 0.5
139 28 0.687491 0.861034 0.5
817 38 0.652947 0.868834 0.5
153 40 0.751855 0.838775 0.5
337 28 0.717089 0.852272 0.5
681 21 0.736911 0.874144 0.5
340 18 0.708178 0.879071 0.5
322 19 0.761294 0.869954 0.5
570 35 0.785227 0.823107 0.5
221 20 0.811327 0.842424 0.5
56 26 0.785979 0.855828 0.5
501 36 0.817204 0.872092 0.5
955 27 0.838797 0.837735 0.5
149 26 0.869326 0.830445 0.5
843 36 0.854371 0.868357 0.5
605 22 0.902581 0.828347 0.5
396 32 0.885967 0.85815 0.5
613 26 0.917504 0.853161 0.5
757 42 0.936589 0.824091 0.5
858 34 0.907228 0.883242 0.5
539 31 0.972937 0.825575 0.5
98 37 0.983387 0.860112 0.5
969 28 0.948276 0.858956 0.5
223 14 0.026868 0.890131 0.5
889 27 0.00100404 0.889564 0.5
846 35 0.0491577 0.909707 0.5
115 19 0.0173913 0.918265 0.5
922 39 0.0850309 0.905409 0.5
828 28 0.107038 0.931475 0.5
505 34 0.0691928 0.937393 0.5
38 29 0.119933 0.903891 0.5
510 37 0.151227 0.893606 0.5
567 28 0.139002 0.92855 0.5
811 24 0.171636 0.921425 0.5
718 15 0.182016 0.896775 0.5
439 27 0.203235 0.91289 0.5
903 31 0.233141 0.898695 0.5
461 33 0.193801 0.943601 0.5
451 34 0.264475 0.907413 0.5
466 48 0.232458 0.936136 0.5
535 22 0.28975 0.887582 0.5
320 34 0.322593 0.893202 0.5
257 35 0.299438 0.919488 0.5
5 35 0.334982 0.927925 0.5
670 35 0.358911 0.884125 0.5
717 30 0.391473 0.901013 0.5
391 22 0.364658 0.914033 0.5
222 34 0.397494 0.936849 0.5
979 37 0.450219 0.902507 0.5
863 24 0.419537 0.912693 0.5
835 34 0.462815 0.934609 0.5
453 23 0.47303 0.878653 0.5
59 20 0.499263 0.882979 0.5
650 28 0.484643 0.907297 0.5
437 33 0.515173 0.908292 0.5
467 32 0.495914 0.935786 0.5
993 29 0.527808 0.879359 0.5
937 32 0.557307 0.895443 0.5
189 5 0.54141 0.915988 0.5
735 26 0.556616 0.933332 0.5
494 19 0.5247 0.936927 0.5
373 37 0.622271 0.889415 0.5
268 49 0.590331 0.9165 0.5
537 25 0.627417 0.920761 0.5
836 28 0.682402 0.891231 0.5
482 29 0.653077 0.902467 0.5
173 30 0.674387 0.926224 0.5
302 24 0.703119 0.915076 0.5
527 27 0.754321 0.897626 0.5
415 22 0.725583 0.897396 0.5
741 35 0.73911 0.927458 0.5
810 31 0.784648 0.888309 0.5
975 25 0.774447 0.918328 0.5
669 44 0.810842 0.914615 0.5
945 36 0.846952 0.903606 0.5
622 27 0.87151 0.927655 0.5
76 24 0.877344 0.889898 0.5
258 41 0.83983 0.940528 0.5
588 24 0.895659 0.911049 0.5
308 24 0.924716 0.915226 0.5
515 28 0.940271 0.888836 0.5
219 26 0.970666 0.890931 0.5
905 30 0.986767 0.916597 0.5
502 23 0.955042 0.91419 0.5
436 31 0.0196635 0.97188 0.5
33 30 0.0353691 0.941676 0.5
931 29 0.00404738 0.944143 0.5
710 40 0.0560946 0.970567 0.5
262 32 0.0828956 0.995768 0.5
987 36 0.0925184 0.962864 0.5
498 29 0.115499 0.988038 0.5
490 32 0.146391 0.979504 0.5
315 27 0.125191 0.955388 0.5
160 28 0.161137 0.949694 0.5
819 29 0.231703 1.00001 0.5
891 34 0.1818 0.974667 0.5
255 29 0.21491 0.971244 0.5
565 26 0.285859 0.974122 0.5
984 33 0.248593 0.972397 0.5
339 38 0.271365 0.943974 0.5
844 34 0.316244 0.984824 0.5
769 28 0.341507 0.959685 0.5
330 26 0.308404 0.951499 0.5
14 28 0.389275 0.993369 0.5
738 33 0.35606 0.988523 0.5
554 28 0.377727 0.963693 0.5
247 21 0.362831 0.940005 0.5
473 31 0.409224 0.96938 0.5
896 29 0.429678 0.943511 0.5
657 22 0.419444 0.997254 0.5
150 42 0.446378 0.97564 0.5
509 25 0.480341 0.989617 0.5
203 43 0.50956 0.96996 0.5
31 20 0.476907 0.961684 0.5
598 35 0.537173 0.996396 0.5
256 34 0.570632 0.987214 0.5
122 30 0.546791 0.962412 0.5
609 30 0.580268 0.955086 0.5
159 36 0.605589 0.97588 0.5
708 24 0.612749 0.945733 0.5
484 35 0.641877 0.979041 0.5
898 27 0.64451 0.944848 0.5
444 35 0.673256 0.995234 0.5
558 32 0.672318 0.959264 0.5
208 32 0.702536 0.978045 0.5
314 32 0.704553 0.944752 0.5
52 40 0.734681 0.964687 0.5
561 32 0.764255 0.987612 0.5
356 22 0.819254 0.993312 0.5
655 28 0.794423 0.977201 0.5
562 39 0.769765 0.95088 0.5
583 21 0.802964 0.947632 0.5
719 20 0.82042 0.968579 0.5
499 13 0.866813 0.984809 0.5
746 21 0.845384 0.974208 0.5
895 28 0.870059 0.958157 0.5
158 37 0.896144 0.98198 0.5
689 30 0.927782 0.971662 0.5
880 44 0.903618 0.943997 0.5
780 29 0.940269 0.941612 0.5
663 34 0.949301 0.996463 0.5
113 37 0.98519 0.979571 0.5
75 17 0.95608 0.96653 0.5
55 27 0.971427 0.94389 0.5
