ITEM: TIMESTEP
2270000
ITEM: NUMBER OF ATOMS
1000
ITEM: BOX BOUNDS pp pp pp
-1.6549136000000001e+01 1.6549136000000001e+01
-1.6549136000000001e+01 1.6549136000000001e+01
-5.0000000000000000e-01 5.0000000000000000e-01
ITEM: ATOMS id type xs ys zs
656 23 0.0172325 0.00921442 0.5
873 32 0.051116 0.00943621 0.5
685 30 0.0357572 0.0390371 0.5
33 30 0.00483141 0.040689 0.5
712 29 0.0904843 0.00875267 0.5
466 40 0.0720393 0.0388911 0.5
224 30 0.108036 0.0353897 0.5
565 28 0.124822 0.00439108 0.5
197 29 0.126997 0.0633795 0.5
567 29 0.157696 0.00191055 0.5
257 33 0.14085 0.0315764 0.5
513 28 0.174324 0.0300126 0.5
577 35 0.191859 0.0589972 0.5
37 29 0.159236 0.0615783 0.5
380 37 0.210132 0.0292476 0.5
167 27 0.22836 0.0572948 0.5
255 29 0.243664 0.025603 0.5
984 32 0.261546 0.0529202 0.5
884 35 0.277049 0.021651 0.5
852 33 0.312052 0.0196919 0.5
473 31 0.329789 0.0498124 0.5
738 32 0.295714 0.0505348 0.5
180 32 0.345197 0.0168795 0.5
623 35 0.380887 0.0164559 0.5
927 32 0.363176 0.0455439 0.5
592 26 0.399984 0.0431405 0.5
831 29 0.414876 0.0149848 0.5
860 30 0.448019 0.0132871 0.5
996 27 0.433296 0.0420313 0.5
941 29 0.465663 0.0430766 0.5
993 30 0.48067 0.0152198 0.5
148 33 0.514594 0.0157759 0.5
896 30 0.497639 0.0431615 0.5
192 35 0.549395 0.01364 0.5
649 35 0.58379 0.0148381 0.5
699 24 0.534207 0.0435189 0.5
536 28 0.565052 0.0438481 0.5
211 21 0.596894 0.0460607 0.5
102 24 0.615096 0.0138737 0.5
301 35 0.628485 0.0435193 0.5
930 27 0.647859 0.0166502 0.5
243 32 0.662515 0.0479307 0.5
340 23 0.679267 0.0196322 0.5
420 33 0.696136 0.0479218 0.5
877 29 0.71253 0.0205283 0.5
214 33 0.730646 0.0503272 0.5
158 34 0.746751 0.0205752 0.5
919 25 0.781676 0.0195919 0.5
208 31 0.765767 0.0477274 0.5
312 37 0.80058 0.0491856 0.5
561 31 0.817631 0.0197167 0.5
106 22 0.847403 0.0173272 0.5
768 31 0.835301 0.0464503 0.5
569 32 0.868014 0.0465203 0.5
89 30 0.882283 0.0167468 0.5
182 32 0.916793 0.0157647 0.5
502 26 0.899364 0.0450901 0.5
943 42 0.934315 0.0488494 0.5
538 33 0.98631 0.0114153 0.5
113 34 0.9507 0.0148889 0.5
242 35 0.970305 0.0427259 0.5
155 30 0.0233046 0.0688425 0.5
933 29 0.00926941 0.0967462 0.5
998 31 0.0424361 0.0951131 0.5
172 22 0.053055 0.0665705 0.5
987 34 0.0285828 0.126203 0.5
290 31 0.0635917 0.12677 0.5
81 28 0.0939294 0.0669889 0.5
298 37 0.0763846 0.0957193 0.5
67 30 0.110744 0.0942645 0.5
488 27 0.0956351 0.125701 0.5
498 30 0.126631 0.123933 0.5
490 31 0.142611 0.0945689 0.5
28 28 0.164699 0.122161 0.5
511 36 0.176668 0.0909763 0.5
442 34 0.197525 0.118935 0.5
469 35 0.212669 0.0868147 0.5
487 30 0.246074 0.0856672 0.5
181 31 0.232442 0.116935 0.5
168 36 0.279849 0.0821241 0.5
54 29 0.265997 0.112781 0.5
227 31 0.313652 0.0803544 0.5
934 26 0.332494 0.107056 0.5
753 32 0.299825 0.110385 0.5
374 34 0.347317 0.0781792 0.5
280 37 0.382868 0.0733954 0.5
409 30 0.37011 0.105293 0.5
763 33 0.404892 0.103423 0.5
71 33 0.41703 0.0705679 0.5
203 38 0.451089 0.0744218 0.5
31 24 0.439084 0.10576 0.5
390 32 0.516917 0.0682284 0.5
14 29 0.484453 0.0722125 0.5
844 32 0.470236 0.104471 0.5
682 35 0.503531 0.0993889 0.5
715 24 0.533574 0.0944888 0.5
178 24 0.548384 0.0698962 0.5
926 33 0.580966 0.0735043 0.5
107 30 0.562512 0.10172 0.5
798 34 0.598057 0.103719 0.5
16 31 0.528904 0.125605 0.5
845 28 0.577567 0.13015 0.5
250 30 0.616154 0.0750516 0.5
413 27 0.629443 0.103078 0.5
499 21 0.646394 0.0751175 0.5
57 32 0.661934 0.102954 0.5
655 29 0.680146 0.0765423 0.5
591 27 0.694573 0.105076 0.5
749 28 0.711554 0.0788578 0.5
912 37 0.730657 0.106378 0.5
895 29 0.751178 0.0777028 0.5
744 33 0.765676 0.108584 0.5
356 26 0.78476 0.0787213 0.5
994 29 0.800279 0.105922 0.5
838 24 0.817424 0.0776968 0.5
528 33 0.852521 0.0774582 0.5
677 37 0.834916 0.106406 0.5
408 28 0.870233 0.103481 0.5
34 31 0.887236 0.0754436 0.5
350 19 0.926233 0.0800508 0.5
397 32 0.906356 0.102522 0.5
272 35 0.926649 0.12983 0.5
379 27 0.890975 0.132778 0.5
589 25 0.943104 0.102371 0.5
24 30 0.989965 0.0707246 0.5
332 27 0.956859 0.075443 0.5
249 33 0.975941 0.101258 0.5
210 28 0.995062 0.127944 0.5
920 29 0.961583 0.130227 0.5
448 32 0.0119496 0.155235 0.5
80 30 0.047129 0.15651 0.5
766 29 0.0314873 0.187656 0.5
367 28 0.0647658 0.185964 0.5
964 33 0.0807119 0.15766 0.5
215 28 0.113628 0.154933 0.5
886 28 0.0986035 0.184859 0.5
170 33 0.131457 0.183197 0.5
216 40 0.148985 0.152113 0.5
648 26 0.18432 0.149351 0.5
851 31 0.167373 0.181794 0.5
813 30 0.201536 0.176704 0.5
846 33 0.217121 0.147594 0.5
847 36 0.251945 0.144737 0.5
385 31 0.235359 0.176306 0.5
325 32 0.286713 0.142712 0.5
823 29 0.270074 0.173719 0.5
403 26 0.31977 0.136294 0.5
274 28 0.303445 0.170802 0.5
273 28 0.289712 0.198996 0.5
608 30 0.321873 0.197367 0.5
835 32 0.389225 0.13422 0.5
389 38 0.353708 0.134519 0.5
144 33 0.33597 0.165188 0.5
414 34 0.374169 0.164254 0.5
646 28 0.39297 0.191404 0.5
802 34 0.357726 0.193642 0.5
900 26 0.424776 0.132592 0.5
953 29 0.407096 0.161732 0.5
104 26 0.455608 0.132679 0.5
871 29 0.440178 0.160239 0.5
914 26 0.425856 0.188898 0.5
464 30 0.458991 0.187872 0.5
430 33 0.489836 0.131702 0.5
701 36 0.514517 0.157334 0.5
769 29 0.475905 0.160597 0.5
4 32 0.496597 0.187315 0.5
961 30 0.533335 0.188735 0.5
492 38 0.550452 0.156122 0.5
788 33 0.585248 0.160988 0.5
372 27 0.565717 0.19073 0.5
445 34 0.643151 0.132273 0.5
358 28 0.609753 0.135762 0.5
824 31 0.623084 0.162468 0.5
103 32 0.655941 0.164193 0.5
795 35 0.602598 0.192029 0.5
704 34 0.638292 0.193654 0.5
580 28 0.676695 0.132597 0.5
485 34 0.689981 0.163925 0.5
241 33 0.709084 0.134685 0.5
307 32 0.725912 0.164938 0.5
986 29 0.671013 0.19483 0.5
265 39 0.707757 0.196235 0.5
425 32 0.746599 0.13835 0.5
571 41 0.78301 0.142319 0.5
456 31 0.774707 0.179353 0.5
779 36 0.744745 0.198566 0.5
737 33 0.809407 0.169664 0.5
855 31 0.821043 0.138188 0.5
68 31 0.858938 0.134184 0.5
857 38 0.843114 0.164284 0.5
164 33 0.865339 0.192847 0.5
115 24 0.877334 0.160945 0.5
644 30 0.90934 0.157728 0.5
653 25 0.895989 0.185003 0.5
923 33 0.928357 0.189931 0.5
939 36 0.944292 0.160312 0.5
700 27 0.979149 0.158956 0.5
770 39 0.995909 0.190045 0.5
938 24 0.961683 0.187031 0.5
596 28 0.0529751 0.214947 0.5
736 26 0.0205982 0.217898 0.5
705 29 0.0391003 0.242724 0.5
936 26 0.00828385 0.246191 0.5
762 32 0.0843984 0.213533 0.5
260 29 0.120391 0.214702 0.5
917 37 0.0718865 0.245046 0.5
345 32 0.105948 0.246865 0.5
706 32 0.152102 0.211424 0.5
517 35 0.187335 0.209314 0.5
171 33 0.13917 0.243687 0.5
694 31 0.172743 0.241828 0.5
564 27 0.22032 0.205889 0.5
848 29 0.254334 0.202841 0.5
252 34 0.238055 0.235308 0.5
754 31 0.204609 0.239275 0.5
293 35 0.260075 0.262697 0.5
18 39 0.275391 0.23071 0.5
902 30 0.309414 0.228498 0.5
597 25 0.295415 0.259932 0.5
621 28 0.328244 0.254428 0.5
991 32 0.3416 0.223111 0.5
671 26 0.376824 0.220386 0.5
73 31 0.394563 0.248016 0.5
239 34 0.361563 0.248377 0.5
263 29 0.409852 0.217942 0.5
944 29 0.441642 0.215867 0.5
174 31 0.426634 0.246653 0.5
977 35 0.461637 0.247932 0.5
607 36 0.477121 0.215987 0.5
493 26 0.51335 0.213946 0.5
957 35 0.498741 0.244647 0.5
114 26 0.531895 0.250384 0.5
568 31 0.544078 0.220523 0.5
90 38 0.580122 0.221597 0.5
603 29 0.563706 0.250905 0.5
666 32 0.5993 0.250729 0.5
742 31 0.619059 0.224238 0.5
799 28 0.653146 0.222768 0.5
582 29 0.634146 0.251817 0.5
329 33 0.667486 0.252891 0.5
138 31 0.687293 0.225039 0.5
637 28 0.719468 0.228275 0.5
963 27 0.700536 0.255176 0.5
797 31 0.753039 0.231585 0.5
360 20 0.772766 0.209068 0.5
530 29 0.786943 0.234158 0.5
317 36 0.734138 0.258757 0.5
166 30 0.770004 0.26231 0.5
365 28 0.833335 0.200035 0.5
270 31 0.801169 0.201457 0.5
745 34 0.820921 0.23117 0.5
382 36 0.855196 0.226547 0.5
12 34 0.803327 0.263824 0.5
661 30 0.839075 0.260101 0.5
393 37 0.889695 0.217528 0.5
615 28 0.922997 0.222344 0.5
346 29 0.871632 0.255864 0.5
733 36 0.905147 0.250796 0.5
976 24 0.990887 0.222776 0.5
849 34 0.957944 0.219565 0.5
202 37 0.975912 0.252252 0.5
310 33 0.94092 0.250025 0.5
199 35 0.035952 0.276045 0.5
614 29 0.000740533 0.276336 0.5
776 31 0.0176357 0.304696 0.5
2 29 0.0516647 0.305985 0.5
574 23 0.066559 0.279851 0.5
259 22 0.0955931 0.276458 0.5
407 27 0.126409 0.273181 0.5
244 29 0.0829754 0.305792 0.5
66 31 0.116027 0.303502 0.5
369 34 0.135882 0.3323 0.5
130 29 0.159513 0.272216 0.5
672 31 0.19202 0.269105 0.5
245 23 0.149602 0.30264 0.5
812 28 0.168208 0.326807 0.5
429 28 0.180858 0.299022 0.5
720 29 0.199228 0.326511 0.5
132 31 0.225039 0.268037 0.5
376 38 0.245637 0.29492 0.5
124 28 0.210868 0.297136 0.5
87 29 0.234018 0.325815 0.5
785 33 0.28083 0.289846 0.5
888 28 0.312821 0.28404 0.5
427 31 0.268492 0.320687 0.5
120 30 0.302974 0.315246 0.5
995 26 0.346609 0.280253 0.5
834 31 0.377711 0.276998 0.5
664 31 0.334335 0.308849 0.5
581 24 0.394129 0.302221 0.5
169 23 0.366363 0.306804 0.5
434 25 0.408804 0.277698 0.5
440 38 0.442218 0.278279 0.5
368 32 0.424726 0.309269 0.5
497 32 0.459186 0.309425 0.5
645 32 0.479852 0.277818 0.5
734 32 0.51359 0.276996 0.5
587 35 0.495176 0.309124 0.5
491 30 0.527566 0.30924 0.5
674 28 0.545601 0.280967 0.5
305 30 0.581784 0.280888 0.5
457 36 0.563217 0.311022 0.5
508 28 0.597404 0.30881 0.5
950 31 0.614814 0.278806 0.5
874 36 0.64919 0.283244 0.5
566 31 0.628838 0.310561 0.5
988 21 0.658962 0.31452 0.5
91 26 0.682516 0.281425 0.5
443 28 0.713226 0.286018 0.5
832 39 0.69168 0.312247 0.5
416 33 0.72682 0.317809 0.5
100 33 0.7473 0.289473 0.5
859 38 0.782633 0.295408 0.5
165 24 0.759023 0.319054 0.5
377 28 0.824878 0.289933 0.5
806 28 0.858459 0.286506 0.5
611 35 0.808214 0.31984 0.5
879 33 0.843278 0.316601 0.5
27 33 0.92498 0.279692 0.5
283 35 0.890911 0.283781 0.5
803 31 0.877592 0.314804 0.5
698 23 0.912709 0.310873 0.5
97 24 0.957095 0.278078 0.5
618 35 0.980248 0.304182 0.5
652 39 0.945422 0.309976 0.5
313 33 0.0366182 0.336636 0.5
723 29 0.0196027 0.365918 0.5
781 29 0.0378298 0.395297 0.5
512 31 0.00426073 0.39525 0.5
662 32 0.0543141 0.366393 0.5
901 36 0.00106972 0.334403 0.5
233 28 0.0693836 0.337111 0.5
792 31 0.101034 0.334442 0.5
548 35 0.0907871 0.366659 0.5
532 29 0.113996 0.389826 0.5
686 30 0.0716063 0.395265 0.5
729 24 0.122713 0.362244 0.5
542 32 0.158238 0.357848 0.5
751 25 0.143756 0.388412 0.5
935 26 0.189726 0.357581 0.5
837 32 0.176471 0.387796 0.5
881 27 0.221212 0.353962 0.5
179 31 0.254496 0.350402 0.5
140 30 0.211181 0.383552 0.5
966 26 0.242178 0.37972 0.5
856 28 0.287825 0.346062 0.5
756 29 0.322971 0.340737 0.5
673 28 0.275918 0.374946 0.5
400 34 0.308256 0.371708 0.5
105 31 0.356198 0.336593 0.5
707 43 0.395897 0.336168 0.5
841 31 0.344216 0.367524 0.5
794 31 0.377929 0.367237 0.5
201 33 0.361579 0.396246 0.5
36 36 0.397311 0.396923 0.5
175 41 0.436615 0.343749 0.5
232 28 0.412186 0.367905 0.5
620 28 0.461003 0.371169 0.5
665 39 0.435089 0.394076 0.5
384 40 0.476963 0.34039 0.5
251 31 0.513434 0.340457 0.5
72 26 0.493228 0.369022 0.5
424 24 0.522692 0.370327 0.5
348 28 0.505649 0.396681 0.5
476 23 0.544523 0.34097 0.5
112 26 0.573616 0.342239 0.5
821 27 0.553579 0.369407 0.5
740 33 0.538201 0.4002 0.5
121 32 0.585753 0.371783 0.5
531 27 0.570052 0.399801 0.5
452 33 0.605042 0.340312 0.5
44 33 0.639935 0.341883 0.5
21 31 0.619821 0.371456 0.5
225 34 0.657453 0.373252 0.5
761 29 0.67422 0.343716 0.5
540 34 0.708764 0.348508 0.5
176 32 0.693103 0.377371 0.5
6 17 0.726021 0.374947 0.5
892 24 0.743192 0.344643 0.5
353 29 0.773979 0.345744 0.5
363 26 0.753359 0.374862 0.5
418 33 0.78616 0.377473 0.5
217 32 0.735239 0.403495 0.5
829 26 0.803906 0.351195 0.5
177 25 0.833763 0.348227 0.5
156 26 0.862963 0.344689 0.5
141 32 0.819999 0.378319 0.5
39 27 0.851993 0.375211 0.5
375 30 0.895633 0.343112 0.5
983 31 0.929064 0.340107 0.5
544 28 0.881921 0.372748 0.5
557 36 0.914577 0.371639 0.5
716 30 0.965727 0.337896 0.5
545 37 0.938631 0.399622 0.5
288 35 0.985696 0.366808 0.5
41 31 0.950505 0.366957 0.5
480 27 0.972591 0.399037 0.5
428 28 0.0195086 0.423114 0.5
787 27 0.0535422 0.421516 0.5
196 31 0.0369554 0.44962 0.5
188 31 0.00497467 0.453211 0.5
326 41 0.0973037 0.420544 0.5
95 32 0.0718196 0.446452 0.5
84 28 0.133338 0.418676 0.5
971 22 0.122131 0.446267 0.5
555 30 0.163351 0.416554 0.5
967 25 0.151593 0.446345 0.5
628 31 0.195524 0.416026 0.5
616 30 0.182333 0.44442 0.5
815 30 0.228392 0.411262 0.5
458 35 0.261397 0.405796 0.5
636 24 0.216801 0.444589 0.5
361 32 0.246998 0.438729 0.5
96 30 0.326686 0.398577 0.5
885 26 0.293841 0.402114 0.5
556 29 0.282866 0.431258 0.5
651 25 0.313705 0.42715 0.5
668 24 0.302809 0.453667 0.5
690 27 0.332778 0.459032 0.5
728 33 0.346575 0.42948 0.5
357 35 0.380016 0.426861 0.5
92 28 0.363494 0.457847 0.5
506 36 0.398845 0.456953 0.5
133 31 0.415465 0.425841 0.5
333 30 0.449182 0.428023 0.5
296 30 0.432678 0.455554 0.5
949 33 0.465278 0.458742 0.5
658 35 0.471089 0.401323 0.5
349 39 0.517601 0.429669 0.5
864 26 0.483384 0.430787 0.5
626 34 0.498455 0.461267 0.5
309 33 0.533554 0.460887 0.5
101 28 0.552077 0.429737 0.5
426 24 0.582426 0.42733 0.5
324 37 0.567271 0.460744 0.5
128 31 0.601229 0.401234 0.5
402 36 0.63621 0.40272 0.5
500 39 0.615835 0.432887 0.5
887 32 0.652396 0.435346 0.5
383 34 0.601116 0.464912 0.5
17 27 0.634113 0.462276 0.5
952 33 0.671077 0.407626 0.5
478 29 0.702858 0.409955 0.5
94 26 0.686986 0.436662 0.5
157 32 0.66985 0.463873 0.5
277 27 0.716648 0.436605 0.5
529 29 0.767968 0.403562 0.5
521 32 0.748523 0.434525 0.5
679 40 0.785069 0.43467 0.5
578 29 0.805417 0.407184 0.5
519 25 0.835498 0.407343 0.5
974 27 0.819822 0.436174 0.5
294 30 0.852344 0.43487 0.5
364 32 0.836558 0.464699 0.5
438 28 0.867092 0.403147 0.5
632 30 0.901942 0.402136 0.5
911 29 0.868571 0.463277 0.5
606 33 0.886046 0.431696 0.5
191 36 0.920733 0.43018 0.5
533 34 0.903359 0.461957 0.5
807 24 0.989185 0.424587 0.5
959 28 0.958095 0.428398 0.5
343 33 0.939844 0.459375 0.5
818 26 0.973266 0.453582 0.5
135 29 0.0234892 0.480246 0.5
503 36 0.00919566 0.510839 0.5
696 28 0.0449976 0.508378 0.5
187 33 0.0579296 0.477956 0.5
951 30 0.134548 0.474452 0.5
962 43 0.0983475 0.4708 0.5
336 35 0.0806725 0.503658 0.5
929 33 0.119304 0.50453 0.5
750 32 0.168486 0.474623 0.5
111 29 0.153221 0.501926 0.5
8 26 0.187396 0.502886 0.5
405 29 0.236862 0.469776 0.5
897 31 0.200423 0.472665 0.5
882 35 0.22193 0.499459 0.5
534 33 0.256989 0.503744 0.5
786 37 0.272518 0.468579 0.5
51 31 0.292983 0.506549 0.5
331 27 0.311613 0.481392 0.5
709 30 0.327172 0.510319 0.5
77 22 0.346476 0.485649 0.5
702 28 0.378936 0.484043 0.5
563 35 0.362035 0.513445 0.5
7 34 0.397861 0.51451 0.5
875 33 0.418115 0.486095 0.5
765 25 0.451915 0.488095 0.5
275 32 0.432714 0.516047 0.5
412 29 0.464853 0.516573 0.5
228 28 0.482495 0.491121 0.5
893 30 0.516417 0.492504 0.5
303 29 0.499001 0.51937 0.5
688 27 0.530645 0.520107 0.5
692 28 0.549232 0.490258 0.5
306 28 0.583475 0.49338 0.5
730 31 0.564371 0.518858 0.5
206 31 0.598719 0.522773 0.5
278 33 0.617087 0.496167 0.5
125 30 0.635087 0.523725 0.5
727 35 0.652683 0.492148 0.5
85 24 0.699183 0.46971 0.5
289 24 0.684188 0.495179 0.5
83 31 0.668197 0.524243 0.5
9 28 0.701903 0.524945 0.5
267 27 0.715522 0.49712 0.5
590 26 0.733064 0.525055 0.5
421 33 0.731016 0.466087 0.5
136 36 0.765712 0.465461 0.5
431 31 0.748528 0.494437 0.5
264 31 0.783819 0.495327 0.5
282 28 0.766622 0.523305 0.5
625 32 0.803389 0.465988 0.5
471 25 0.817381 0.495184 0.5
980 28 0.803665 0.52431 0.5
553 32 0.851635 0.494165 0.5
760 27 0.835361 0.524179 0.5
784 28 0.868119 0.523035 0.5
968 36 0.885903 0.492769 0.5
47 31 0.923767 0.492015 0.5
999 35 0.90473 0.523841 0.5
822 34 0.987177 0.482483 0.5
973 23 0.954665 0.489679 0.5
585 32 0.973942 0.514137 0.5
381 32 0.940094 0.52143 0.5
869 32 0.0304361 0.539063 0.5
916 26 0.0159094 0.570415 0.5
906 37 0.050308 0.567211 0.5
575 32 0.065323 0.534928 0.5
793 29 0.0337188 0.597547 0.5
748 34 0.070095 0.596376 0.5
713 36 0.101127 0.533721 0.5
600 35 0.0859251 0.564741 0.5
789 28 0.121028 0.56415 0.5
359 33 0.103578 0.595323 0.5
26 38 0.170984 0.532956 0.5
422 30 0.136538 0.533214 0.5
790 32 0.154333 0.563258 0.5
791 27 0.188514 0.565005 0.5
60 27 0.175414 0.594236 0.5
190 38 0.140792 0.594318 0.5
586 40 0.20683 0.534465 0.5
687 32 0.241807 0.536508 0.5
680 29 0.226471 0.565597 0.5
441 30 0.207064 0.593394 0.5
972 29 0.259116 0.565475 0.5
631 30 0.240712 0.593798 0.5
162 31 0.275636 0.535285 0.5
154 29 0.290172 0.568341 0.5
234 33 0.308602 0.537614 0.5
764 36 0.325681 0.569935 0.5
925 24 0.276086 0.595163 0.5
985 26 0.307016 0.596089 0.5
826 30 0.343397 0.540804 0.5
948 35 0.379156 0.54427 0.5
541 32 0.362597 0.572701 0.5
29 29 0.396623 0.574596 0.5
472 27 0.344512 0.599099 0.5
446 29 0.413535 0.545963 0.5
486 36 0.447688 0.546827 0.5
958 24 0.433235 0.575247 0.5
126 31 0.464286 0.577966 0.5
593 26 0.481277 0.54416 0.5
65 31 0.513087 0.548304 0.5
406 30 0.495972 0.576439 0.5
814 31 0.530166 0.580717 0.5
767 38 0.548298 0.550457 0.5
549 30 0.582246 0.552884 0.5
595 34 0.56435 0.581512 0.5
404 31 0.598188 0.583207 0.5
866 29 0.615535 0.553244 0.5
79 36 0.632597 0.58345 0.5
619 32 0.650346 0.553417 0.5
1000 35 0.66786 0.582733 0.5
118 27 0.68422 0.553248 0.5
46 33 0.700814 0.582071 0.5
70 28 0.717783 0.55426 0.5
772 32 0.734655 0.583149 0.5
910 30 0.749772 0.551909 0.5
137 33 0.7845 0.551259 0.5
318 34 0.767541 0.583021 0.5
711 34 0.801907 0.58274 0.5
867 36 0.855312 0.553522 0.5
338 29 0.818432 0.554766 0.5
295 33 0.836217 0.582835 0.5
35 36 0.871743 0.585366 0.5
612 28 0.890238 0.555671 0.5
93 40 0.926288 0.553862 0.5
601 31 0.905753 0.586176 0.5
862 26 0.997914 0.546006 0.5
960 38 0.964245 0.545794 0.5
341 26 0.985223 0.572202 0.5
778 25 0.954017 0.574273 0.5
119 29 1.00138 0.598101 0.5
777 27 0.969673 0.599137 0.5
633 30 0.0183104 0.626218 0.5
725 37 0.0528842 0.625996 0.5
109 40 0.00157874 0.656692 0.5
477 31 0.0376418 0.657037 0.5
450 25 0.0871536 0.625843 0.5
465 28 0.120501 0.624421 0.5
22 33 0.0729362 0.656118 0.5
468 28 0.105508 0.6518 0.5
854 28 0.157576 0.622269 0.5
641 30 0.18981 0.622644 0.5
460 34 0.139308 0.650222 0.5
913 29 0.171085 0.651362 0.5
872 37 0.225618 0.624283 0.5
186 31 0.259263 0.623117 0.5
447 36 0.205318 0.652711 0.5
127 24 0.2443 0.651601 0.5
524 33 0.291909 0.625698 0.5
965 30 0.324547 0.622896 0.5
804 29 0.275653 0.652981 0.5
410 38 0.312195 0.656564 0.5
693 29 0.377457 0.602288 0.5
40 38 0.357297 0.632277 0.5
526 30 0.394106 0.634698 0.5
942 26 0.344745 0.663888 0.5
783 27 0.376479 0.661896 0.5
20 34 0.412177 0.602366 0.5
62 29 0.445558 0.605043 0.5
266 34 0.427683 0.634649 0.5
470 30 0.460924 0.63639 0.5
504 37 0.47964 0.608013 0.5
411 31 0.512779 0.609625 0.5
394 30 0.494541 0.638887 0.5
25 32 0.528825 0.638312 0.5
481 30 0.547438 0.610568 0.5
915 27 0.580593 0.612244 0.5
432 29 0.562273 0.641134 0.5
323 30 0.595738 0.639487 0.5
771 26 0.579404 0.670049 0.5
479 22 0.613118 0.613743 0.5
805 28 0.628764 0.639512 0.5
522 35 0.649705 0.612822 0.5
43 34 0.684988 0.613382 0.5
691 37 0.666567 0.646216 0.5
281 26 0.701216 0.642704 0.5
23 28 0.718949 0.61517 0.5
322 24 0.734665 0.641647 0.5
981 30 0.751481 0.615327 0.5
683 33 0.785528 0.613405 0.5
816 32 0.768218 0.64314 0.5
49 28 0.80062 0.642111 0.5
474 28 0.818609 0.613586 0.5
319 30 0.851292 0.614468 0.5
584 26 0.831089 0.640746 0.5
918 38 0.866306 0.645852 0.5
276 34 0.887988 0.617523 0.5
271 30 0.919098 0.626965 0.5
142 31 0.90093 0.656579 0.5
759 35 0.934955 0.659439 0.5
726 30 0.93707 0.598978 0.5
269 31 0.985869 0.626283 0.5
861 34 0.952621 0.629234 0.5
675 28 0.968969 0.661043 0.5
868 37 0.0199465 0.687689 0.5
212 26 0.0563492 0.685585 0.5
546 32 0.00380979 0.717582 0.5
398 36 0.0391647 0.717595 0.5
401 26 0.0874311 0.684985 0.5
151 36 0.12199 0.680602 0.5
827 39 0.106031 0.713085 0.5
495 32 0.0725207 0.716482 0.5
550 26 0.155868 0.681021 0.5
617 33 0.173715 0.707339 0.5
344 23 0.189747 0.681254 0.5
439 28 0.141251 0.710584 0.5
833 32 0.225023 0.68027 0.5
543 33 0.259021 0.681491 0.5
475 27 0.207712 0.70667 0.5
205 28 0.241453 0.709093 0.5
423 33 0.291763 0.684761 0.5
796 27 0.324981 0.688929 0.5
10 29 0.274443 0.711165 0.5
956 33 0.3077 0.715935 0.5
883 35 0.358875 0.691435 0.5
11 36 0.394222 0.693509 0.5
300 35 0.341419 0.721956 0.5
86 30 0.377507 0.723356 0.5
732 29 0.410717 0.664032 0.5
117 31 0.44362 0.665179 0.5
246 33 0.429633 0.696405 0.5
45 29 0.463325 0.696177 0.5
220 30 0.410134 0.724623 0.5
286 31 0.446555 0.725481 0.5
388 27 0.510349 0.665457 0.5
371 29 0.476248 0.666818 0.5
152 33 0.497458 0.695134 0.5
800 24 0.529051 0.693067 0.5
755 26 0.513937 0.722026 0.5
235 34 0.480184 0.726645 0.5
184 27 0.543326 0.666339 0.5
198 34 0.560321 0.695335 0.5
209 27 0.593576 0.698483 0.5
507 29 0.544007 0.723953 0.5
226 31 0.575462 0.725932 0.5
42 39 0.612894 0.669804 0.5
560 29 0.629028 0.700314 0.5
311 28 0.647732 0.675907 0.5
678 30 0.660823 0.705208 0.5
108 33 0.607855 0.727099 0.5
899 24 0.638768 0.727481 0.5
297 30 0.683959 0.676308 0.5
904 33 0.717276 0.670833 0.5
908 23 0.705341 0.700429 0.5
64 31 0.734861 0.701159 0.5
602 26 0.687008 0.724452 0.5
163 26 0.716599 0.728543 0.5
573 30 0.751232 0.671442 0.5
870 30 0.786451 0.672277 0.5
195 36 0.769192 0.700754 0.5
774 33 0.749181 0.73116 0.5
254 32 0.783296 0.732368 0.5
110 30 0.817874 0.670015 0.5
599 33 0.804799 0.704229 0.5
635 24 0.847541 0.67351 0.5
200 34 0.839818 0.706347 0.5
878 32 0.878603 0.68188 0.5
669 38 0.914319 0.689516 0.5
285 30 0.875109 0.716316 0.5
695 23 0.904906 0.722805 0.5
463 27 0.93517 0.719782 0.5
240 29 0.951759 0.688887 0.5
514 26 0.985045 0.686982 0.5
98 34 0.967868 0.718863 0.5
351 31 0.0210074 0.748847 0.5
969 29 0.0551663 0.746563 0.5
579 28 0.0403056 0.775866 0.5
489 23 0.00863688 0.777649 0.5
684 26 0.0887593 0.746513 0.5
342 38 0.123112 0.744495 0.5
946 30 0.0730162 0.77301 0.5
19 29 0.105153 0.773917 0.5
204 33 0.157176 0.73969 0.5
714 29 0.190033 0.736742 0.5
1 27 0.140645 0.773754 0.5
624 25 0.170551 0.770269 0.5
74 34 0.191294 0.795934 0.5
610 30 0.221555 0.735037 0.5
722 33 0.203736 0.76461 0.5
594 33 0.255794 0.738266 0.5
970 24 0.235938 0.762543 0.5
449 27 0.222876 0.789731 0.5
145 26 0.251583 0.787579 0.5
116 24 0.288823 0.741336 0.5
129 35 0.319488 0.750133 0.5
928 32 0.273535 0.766723 0.5
287 35 0.304788 0.782013 0.5
865 23 0.278045 0.797823 0.5
82 33 0.359802 0.751385 0.5
32 23 0.391896 0.75063 0.5
640 36 0.340095 0.78122 0.5
15 33 0.375344 0.782596 0.5
13 31 0.425692 0.752331 0.5
291 27 0.459191 0.754369 0.5
386 35 0.410576 0.783735 0.5
370 36 0.444772 0.783533 0.5
890 33 0.52829 0.752188 0.5
604 23 0.49576 0.752707 0.5
572 33 0.479088 0.780615 0.5
932 28 0.51208 0.781402 0.5
321 31 0.561399 0.755437 0.5
758 24 0.592562 0.754132 0.5
978 24 0.543599 0.782011 0.5
773 22 0.574945 0.783944 0.5
454 31 0.625045 0.75538 0.5
347 42 0.663393 0.749568 0.5
437 32 0.607927 0.783068 0.5
820 30 0.642465 0.783177 0.5
415 25 0.699663 0.753423 0.5
810 31 0.730965 0.760264 0.5
327 31 0.68018 0.780247 0.5
562 36 0.712561 0.788341 0.5
997 34 0.766017 0.76149 0.5
853 21 0.798712 0.761562 0.5
76 27 0.745841 0.790379 0.5
843 34 0.779781 0.791848 0.5
392 30 0.816882 0.734035 0.5
153 36 0.851586 0.741109 0.5
654 26 0.827679 0.76281 0.5
496 30 0.812024 0.789974 0.5
299 26 0.841527 0.78972 0.5
435 25 0.889211 0.746248 0.5
839 28 0.920731 0.747651 0.5
88 39 0.869429 0.774159 0.5
605 25 0.903157 0.77316 0.5
842 28 0.987815 0.746045 0.5
630 31 0.953242 0.749052 0.5
236 39 0.936381 0.779823 0.5
757 37 0.974886 0.77667 0.5
643 28 0.0251764 0.803225 0.5
237 34 0.0591296 0.803691 0.5
146 26 0.012299 0.831615 0.5
223 21 0.0423927 0.829706 0.5
724 38 0.032866 0.85953 0.5
131 28 0.0915724 0.805645 0.5
194 31 0.124154 0.801395 0.5
207 31 0.0751544 0.835305 0.5
160 29 0.108604 0.832888 0.5
747 25 0.0969201 0.861602 0.5
718 22 0.13062 0.856126 0.5
830 29 0.158704 0.800451 0.5
399 33 0.144143 0.828676 0.5
261 36 0.163217 0.857084 0.5
433 26 0.179413 0.827316 0.5
48 26 0.196792 0.852513 0.5
989 34 0.255118 0.819555 0.5
739 40 0.216437 0.823018 0.5
352 28 0.23993 0.85099 0.5
554 29 0.323099 0.811251 0.5
387 29 0.276161 0.848847 0.5
909 28 0.293192 0.822772 0.5
634 20 0.306063 0.848252 0.5
576 32 0.356112 0.811033 0.5
417 26 0.393068 0.811762 0.5
627 32 0.338363 0.842326 0.5
222 32 0.37315 0.840141 0.5
667 27 0.427166 0.813839 0.5
69 34 0.462887 0.814576 0.5
99 26 0.410517 0.837408 0.5
840 27 0.444992 0.840892 0.5
494 24 0.49465 0.809771 0.5
3 33 0.527084 0.810289 0.5
937 32 0.507456 0.838272 0.5
189 16 0.475747 0.84326 0.5
808 27 0.559485 0.810989 0.5
292 29 0.590262 0.810561 0.5
735 28 0.544084 0.838717 0.5
395 28 0.576716 0.839097 0.5
185 35 0.624491 0.812865 0.5
638 44 0.663527 0.813249 0.5
337 29 0.607741 0.841413 0.5
30 32 0.641064 0.843783 0.5
453 26 0.698058 0.817704 0.5
850 25 0.727964 0.818314 0.5
681 25 0.682379 0.843568 0.5
302 27 0.711599 0.847503 0.5
354 34 0.760804 0.819401 0.5
123 20 0.799611 0.817625 0.5
782 28 0.742226 0.844862 0.5
975 28 0.782995 0.842769 0.5
221 24 0.827885 0.816969 0.5
50 32 0.860632 0.813098 0.5
746 25 0.814519 0.842791 0.5
314 31 0.84627 0.843007 0.5
880 38 0.895678 0.806214 0.5
622 29 0.928983 0.812292 0.5
583 25 0.879862 0.840443 0.5
613 28 0.911569 0.838625 0.5
231 31 0.992659 0.80618 0.5
889 28 0.960596 0.809731 0.5
149 28 0.94447 0.839939 0.5
876 31 0.977898 0.836841 0.5
697 35 0.997328 0.863964 0.5
922 35 0.0160098 0.893888 0.5
642 31 0.0498824 0.892854 0.5
539 31 0.0333708 0.923422 0.5
801 27 0.0677908 0.865933 0.5
891 33 0.0672352 0.921072 0.5
328 24 0.0824206 0.89166 0.5
992 36 0.100659 0.918686 0.5
894 28 0.116466 0.88679 0.5
213 31 0.136253 0.917445 0.5
552 30 0.14735 0.887507 0.5
947 33 0.171917 0.914246 0.5
518 30 0.184702 0.883053 0.5
53 34 0.218911 0.877227 0.5
316 37 0.258803 0.878227 0.5
315 29 0.205439 0.909393 0.5
659 34 0.240062 0.906818 0.5
954 25 0.29238 0.877461 0.5
721 28 0.323767 0.871096 0.5
903 31 0.277482 0.905147 0.5
462 29 0.310143 0.903621 0.5
247 25 0.294082 0.932989 0.5
218 24 0.326816 0.930465 0.5
670 33 0.357638 0.870525 0.5
825 35 0.392108 0.868172 0.5
284 34 0.342012 0.901497 0.5
535 26 0.377682 0.898573 0.5
391 26 0.358854 0.930851 0.5
731 34 0.391649 0.927633 0.5
362 32 0.427703 0.868079 0.5
907 28 0.461306 0.868655 0.5
419 33 0.410387 0.898577 0.5
717 30 0.444606 0.896439 0.5
547 33 0.429068 0.926456 0.5
657 26 0.461814 0.92601 0.5
863 27 0.492515 0.867702 0.5
598 33 0.525161 0.866791 0.5
304 28 0.477561 0.896541 0.5
523 23 0.508068 0.893778 0.5
78 22 0.489884 0.923245 0.5
268 41 0.522134 0.924642 0.5
159 33 0.560892 0.86698 0.5
173 30 0.593283 0.870701 0.5
525 27 0.575981 0.897801 0.5
230 31 0.542107 0.89569 0.5
982 32 0.559099 0.925751 0.5
150 37 0.593534 0.928217 0.5
537 28 0.625531 0.870869 0.5
817 35 0.662533 0.870765 0.5
366 29 0.610098 0.899681 0.5
355 31 0.628769 0.92917 0.5
979 34 0.644611 0.898764 0.5
836 29 0.660904 0.929203 0.5
703 30 0.696424 0.874325 0.5
527 29 0.729096 0.874724 0.5
741 33 0.67916 0.901314 0.5
708 27 0.712865 0.904325 0.5
52 36 0.696717 0.932681 0.5
335 33 0.762726 0.871823 0.5
570 33 0.796425 0.872041 0.5
373 34 0.745282 0.904798 0.5
56 28 0.779189 0.90338 0.5
334 33 0.830187 0.872176 0.5
183 28 0.863775 0.869478 0.5
945 34 0.812628 0.903554 0.5
75 23 0.844587 0.899843 0.5
258 37 0.862209 0.926685 0.5
483 28 0.828851 0.930208 0.5
501 34 0.896765 0.867426 0.5
55 28 0.929821 0.868343 0.5
588 27 0.879323 0.897312 0.5
134 33 0.914896 0.898125 0.5
436 31 0.897557 0.927962 0.5
396 31 0.932025 0.926827 0.5
219 28 0.962141 0.867521 0.5
710 36 0.998463 0.924911 0.5
238 26 0.981189 0.894289 0.5
308 27 0.948242 0.895619 0.5
38 29 0.964694 0.92309 0.5
193 28 0.0350556 0.979585 0.5
143 30 0.017854 0.953787 0.5
262 32 0.0517522 0.951779 0.5
161 28 0.00302306 0.982627 0.5
516 38 0.0711535 0.98024 0.5
811 27 0.105459 0.977707 0.5
505 32 0.0862227 0.949905 0.5
647 30 0.11986 0.947162 0.5
828 29 0.190663 0.940373 0.5
510 34 0.138697 0.9751 0.5
248 26 0.154265 0.943115 0.5
459 35 0.173113 0.968276 0.5
339 35 0.191251 0.999518 0.5
455 31 0.224259 0.936692 0.5
320 33 0.261497 0.933714 0.5
279 32 0.226938 0.997272 0.5
775 33 0.210311 0.968143 0.5
809 27 0.259639 0.994797 0.5
461 32 0.244468 0.965895 0.5
819 30 0.279538 0.966546 0.5
639 23 0.294616 0.993317 0.5
559 32 0.326446 0.987481 0.5
330 28 0.310245 0.959263 0.5
61 32 0.344829 0.959357 0.5
743 32 0.361992 0.986707 0.5
58 28 0.395242 0.984759 0.5
509 27 0.378657 0.956759 0.5
650 29 0.411729 0.955474 0.5
451 32 0.427645 0.985231 0.5
921 36 0.463409 0.98409 0.5
467 31 0.445142 0.955261 0.5
256 33 0.497272 0.987145 0.5
122 30 0.513099 0.958952 0.5
5 33 0.480381 0.952874 0.5
59 25 0.529526 0.986218 0.5
629 26 0.564445 0.984456 0.5
444 33 0.545379 0.958328 0.5
752 27 0.577773 0.957909 0.5
609 30 0.597335 0.985273 0.5
551 30 0.63017 0.986872 0.5
253 30 0.612504 0.956962 0.5
484 33 0.665152 0.990109 0.5
520 31 0.645601 0.95934 0.5
482 30 0.730434 0.934713 0.5
558 31 0.697918 0.992074 0.5
898 28 0.682404 0.96297 0.5
924 26 0.731047 0.99073 0.5
660 28 0.713221 0.963057 0.5
147 30 0.763384 0.932754 0.5
858 32 0.796556 0.933671 0.5
229 32 0.748447 0.962811 0.5
676 31 0.797929 0.991035 0.5
139 29 0.763816 0.991749 0.5
719 24 0.780816 0.963059 0.5
955 28 0.813508 0.962235 0.5
63 29 0.865856 0.98877 0.5
940 28 0.831008 0.99024 0.5
990 38 0.847581 0.958974 0.5
378 31 0.899723 0.985873 0.5
663 32 0.882185 0.958541 0.5
689 30 0.916367 0.955552 0.5
931 30 0.9325 0.985103 0.5
905 30 0.96582 0.982422 0.5
780 29 0.951105 0.95463 0.5
515 29 0.984065 0.956661 0.5
