ITEM: TIMESTEP
250000
ITEM: NUMBER OF ATOMS
1000
ITEM: BOX BOUNDS pp pp pp
-1.6549136000000001e+01 1.6549136000000001e+01
-1.6549136000000001e+01 1.6549136000000001e+01
-5.0000000000000000e-01 5.0000000000000000e-01
ITEM: ATOMS id type xs ys zs
407 27 0.0218281 0.0181969 0.5
245 23 0.0461421 0.0483401 0.5
130 29 0.0540311 0.0182409 0.5
66 31 0.0158317 0.0495785 0.5
429 28 0.0775667 0.0468302 0.5
672 31 0.0913963 0.0160851 0.5
124 28 0.109217 0.0428121 0.5
132 31 0.123994 0.0146079 0.5
376 38 0.143453 0.0427197 0.5
785 33 0.18046 0.0388903 0.5
293 35 0.157149 0.0105543 0.5
888 28 0.21394 0.0320941 0.5
995 26 0.243352 0.0303073 0.5
597 25 0.193749 0.00772001 0.5
621 28 0.225699 0.0015942 0.5
834 31 0.274471 0.0274011 0.5
169 23 0.264564 0.0561262 0.5
581 24 0.292704 0.0484781 0.5
434 25 0.306224 0.0245953 0.5
440 38 0.337751 0.0245135 0.5
645 32 0.371929 0.0256966 0.5
734 32 0.406614 0.0248511 0.5
957 35 0.390806 -0.00579401 0.5
674 28 0.441805 0.0254321 0.5
305 30 0.473753 0.0275478 0.5
114 26 0.423264 -0.00368893 0.5
603 29 0.454977 -0.00312166 0.5
950 31 0.507129 0.029834 0.5
666 32 0.490113 -0.000728877 0.5
582 29 0.524646 -0.00113576 0.5
874 36 0.542119 0.0288014 0.5
91 26 0.576817 0.0267936 0.5
329 33 0.561184 -0.000443948 0.5
963 27 0.596166 0.00347867 0.5
443 28 0.608776 0.031927 0.5
100 33 0.641767 0.038146 0.5
317 36 0.630255 0.00662026 0.5
166 30 0.663503 0.0128565 0.5
859 38 0.678824 0.0464974 0.5
12 34 0.700871 0.0168768 0.5
377 28 0.720835 0.0411493 0.5
806 28 0.754967 0.038118 0.5
661 30 0.736043 0.0114215 0.5
346 29 0.769914 0.0075862 0.5
283 35 0.787858 0.0357141 0.5
27 33 0.822998 0.0305344 0.5
733 36 0.805034 0.00383139 0.5
97 24 0.856715 0.0296021 0.5
618 35 0.877293 0.0541367 0.5
310 33 0.840465 0.00302731 0.5
202 37 0.876777 0.000672493 0.5
614 29 0.898215 0.0278751 0.5
776 31 0.913422 0.0553616 0.5
199 35 0.932321 0.0232654 0.5
2 29 0.949048 0.0538014 0.5
259 22 0.994316 0.0210345 0.5
574 23 0.964951 0.0260136 0.5
244 29 0.984687 0.0506574 0.5
369 34 0.0340637 0.0783151 0.5
729 24 0.0215269 0.1087 0.5
542 32 0.0538807 0.106408 0.5
812 28 0.0690728 0.0771619 0.5
720 29 0.0983912 0.0719761 0.5
935 26 0.0850659 0.103553 0.5
881 27 0.116384 0.103445 0.5
87 29 0.128586 0.0746305 0.5
427 31 0.164829 0.0705407 0.5
179 31 0.151163 0.101311 0.5
664 31 0.231424 0.0603418 0.5
856 28 0.187669 0.0940476 0.5
120 30 0.197946 0.0651489 0.5
756 29 0.220288 0.0894373 0.5
105 31 0.254799 0.08569 0.5
794 31 0.275274 0.114562 0.5
707 43 0.294307 0.0828877 0.5
368 32 0.321633 0.0580464 0.5
497 32 0.35498 0.0576087 0.5
175 41 0.33604 0.0900724 0.5
587 35 0.388994 0.0551288 0.5
384 40 0.374066 0.0873706 0.5
251 31 0.408213 0.0843634 0.5
491 30 0.422174 0.0531628 0.5
457 36 0.45415 0.0571951 0.5
476 23 0.437559 0.0881277 0.5
112 26 0.468383 0.0858597 0.5
508 28 0.486947 0.0570014 0.5
566 31 0.523116 0.0578669 0.5
452 33 0.5037 0.085396 0.5
832 39 0.588656 0.0610017 0.5
988 21 0.555292 0.0626757 0.5
44 33 0.53855 0.0876914 0.5
761 29 0.570628 0.0913311 0.5
416 33 0.623528 0.0698856 0.5
540 34 0.606058 0.0968077 0.5
892 24 0.641142 0.0978131 0.5
165 24 0.655233 0.0676939 0.5
611 35 0.705403 0.0716189 0.5
353 29 0.670981 0.0929206 0.5
829 26 0.700262 0.103159 0.5
879 33 0.74209 0.0671906 0.5
177 25 0.729524 0.100758 0.5
156 26 0.760544 0.0975395 0.5
803 31 0.775928 0.0688076 0.5
698 23 0.80572 0.0660099 0.5
375 30 0.794394 0.0934848 0.5
983 31 0.828354 0.0900724 0.5
652 39 0.840924 0.0576023 0.5
716 30 0.863072 0.0869842 0.5
901 36 0.897091 0.0848531 0.5
313 33 0.932654 0.0831261 0.5
723 29 0.916541 0.112116 0.5
662 32 0.95269 0.112897 0.5
792 31 1.00294 0.0793445 0.5
233 28 0.968536 0.0819961 0.5
548 35 0.987449 0.109241 0.5
751 25 0.0415271 0.1367 0.5
84 28 0.0269595 0.163654 0.5
555 30 0.062332 0.16414 0.5
532 29 0.0101649 0.136157 0.5
837 32 0.0734884 0.133191 0.5
140 30 0.10548 0.133158 0.5
628 31 0.0941934 0.162465 0.5
815 30 0.12627 0.158873 0.5
673 28 0.176059 0.12272 0.5
966 26 0.136127 0.128547 0.5
458 35 0.159059 0.151651 0.5
400 34 0.207995 0.119401 0.5
841 31 0.240707 0.11515 0.5
885 26 0.193415 0.147911 0.5
96 30 0.228804 0.145835 0.5
651 25 0.209672 0.172445 0.5
201 33 0.25997 0.145199 0.5
357 35 0.276847 0.173982 0.5
36 36 0.294263 0.142869 0.5
232 28 0.313184 0.116994 0.5
620 28 0.353905 0.118692 0.5
665 39 0.331852 0.144856 0.5
72 26 0.38395 0.118756 0.5
658 35 0.368254 0.147632 0.5
348 28 0.401654 0.143101 0.5
424 24 0.419963 0.114214 0.5
821 27 0.450128 0.113986 0.5
740 33 0.433785 0.143137 0.5
531 27 0.466705 0.14477 0.5
121 32 0.481749 0.115154 0.5
21 31 0.515915 0.116937 0.5
128 31 0.498238 0.145975 0.5
402 36 0.533671 0.146347 0.5
225 34 0.552799 0.119256 0.5
176 32 0.586802 0.12377 0.5
952 33 0.567907 0.151599 0.5
363 26 0.651131 0.124472 0.5
6 17 0.62329 0.122376 0.5
478 29 0.602084 0.153254 0.5
217 32 0.633025 0.153055 0.5
529 29 0.664876 0.154581 0.5
418 33 0.683346 0.126403 0.5
578 29 0.697202 0.156695 0.5
141 32 0.716276 0.129823 0.5
39 27 0.747565 0.12525 0.5
519 25 0.735281 0.156839 0.5
438 28 0.764946 0.153623 0.5
544 28 0.777717 0.124021 0.5
557 36 0.812692 0.121323 0.5
632 30 0.795233 0.153195 0.5
41 31 0.847062 0.118578 0.5
288 35 0.883248 0.115117 0.5
545 37 0.833715 0.149783 0.5
480 27 0.868604 0.147185 0.5
512 31 0.902354 0.142371 0.5
781 29 0.935199 0.140846 0.5
428 28 0.917729 0.172304 0.5
787 27 0.952135 0.16593 0.5
686 30 0.971863 0.139412 0.5
326 41 0.993659 0.167837 0.5
967 25 0.045702 0.192227 0.5
951 30 0.0289884 0.217826 0.5
750 32 0.0631138 0.221728 0.5
971 22 0.0170095 0.191414 0.5
616 30 0.0784403 0.193615 0.5
636 24 0.111586 0.193002 0.5
897 31 0.0972452 0.220117 0.5
556 29 0.178358 0.178863 0.5
361 32 0.147225 0.184675 0.5
405 29 0.133925 0.214474 0.5
786 37 0.168588 0.21422 0.5
728 33 0.243747 0.174682 0.5
668 24 0.199145 0.199031 0.5
331 27 0.210139 0.227114 0.5
690 27 0.227562 0.202538 0.5
92 28 0.257798 0.206526 0.5
702 28 0.273281 0.232285 0.5
506 36 0.292729 0.204668 0.5
133 31 0.310947 0.174501 0.5
333 30 0.34734 0.176032 0.5
296 30 0.326861 0.201459 0.5
949 33 0.358835 0.20571 0.5
864 26 0.378673 0.180483 0.5
349 39 0.411568 0.17536 0.5
626 34 0.393072 0.208758 0.5
101 28 0.449779 0.171046 0.5
309 33 0.426018 0.208568 0.5
324 37 0.460492 0.203348 0.5
426 24 0.481678 0.177278 0.5
500 39 0.516415 0.176599 0.5
383 34 0.49676 0.206334 0.5
17 27 0.533133 0.20869 0.5
887 32 0.549666 0.178744 0.5
94 26 0.584123 0.181083 0.5
157 32 0.563593 0.209541 0.5
521 32 0.646515 0.183876 0.5
85 24 0.5937 0.212514 0.5
277 27 0.614584 0.182646 0.5
421 33 0.626811 0.212684 0.5
136 36 0.662395 0.217228 0.5
679 40 0.68175 0.187903 0.5
625 32 0.697942 0.219501 0.5
974 27 0.716662 0.182278 0.5
294 30 0.748906 0.184608 0.5
364 32 0.733501 0.215538 0.5
911 29 0.765847 0.213274 0.5
191 36 0.817024 0.181291 0.5
606 33 0.781238 0.181864 0.5
533 34 0.801468 0.210331 0.5
959 28 0.851936 0.177219 0.5
807 24 0.885447 0.171175 0.5
343 33 0.838116 0.208739 0.5
818 26 0.869634 0.202307 0.5
188 31 0.900626 0.20092 0.5
196 31 0.935242 0.1985 0.5
135 29 0.918766 0.229608 0.5
187 33 0.954535 0.225067 0.5
962 43 0.992421 0.219889 0.5
95 32 0.966611 0.191398 0.5
111 29 0.0473748 0.251965 0.5
422 30 0.0291162 0.284691 0.5
26 38 0.0643394 0.279156 0.5
929 33 0.0127104 0.252877 0.5
8 26 0.0847127 0.246615 0.5
882 35 0.122837 0.246078 0.5
586 40 0.101593 0.279617 0.5
534 33 0.155762 0.252743 0.5
687 32 0.137312 0.278499 0.5
162 31 0.171101 0.282653 0.5
77 22 0.239236 0.229303 0.5
51 31 0.190665 0.252906 0.5
709 30 0.223725 0.25625 0.5
234 33 0.204821 0.283817 0.5
826 30 0.239526 0.285434 0.5
563 35 0.256836 0.256013 0.5
7 34 0.292697 0.259333 0.5
875 33 0.315363 0.232171 0.5
765 25 0.345496 0.237637 0.5
275 32 0.326668 0.263842 0.5
228 28 0.374977 0.236816 0.5
893 30 0.407164 0.237303 0.5
412 29 0.359408 0.265893 0.5
303 29 0.391568 0.266877 0.5
692 28 0.446245 0.235587 0.5
688 27 0.422624 0.265339 0.5
730 31 0.46166 0.265604 0.5
306 28 0.477913 0.23638 0.5
278 33 0.511379 0.236523 0.5
206 31 0.494802 0.264704 0.5
125 30 0.528097 0.266523 0.5
289 24 0.579171 0.240711 0.5
727 35 0.54756 0.237973 0.5
83 31 0.563496 0.2689 0.5
9 28 0.595115 0.271049 0.5
267 27 0.609084 0.239376 0.5
431 31 0.640475 0.245726 0.5
590 26 0.628394 0.272521 0.5
282 28 0.661722 0.270432 0.5
264 31 0.68054 0.245711 0.5
980 28 0.699577 0.270832 0.5
471 25 0.716614 0.246355 0.5
553 32 0.748915 0.244982 0.5
760 27 0.730001 0.272033 0.5
784 28 0.767937 0.271937 0.5
968 36 0.784775 0.241375 0.5
47 31 0.820174 0.238025 0.5
999 35 0.803074 0.273522 0.5
973 23 0.854445 0.237041 0.5
822 34 0.884972 0.231064 0.5
381 32 0.83751 0.265581 0.5
585 32 0.872182 0.263021 0.5
503 36 0.907484 0.261442 0.5
869 32 0.929116 0.286996 0.5
696 28 0.939043 0.254148 0.5
713 36 0.995622 0.283114 0.5
336 35 0.973882 0.253934 0.5
575 32 0.961315 0.286416 0.5
190 38 0.033857 0.346504 0.5
790 32 0.0478231 0.311206 0.5
60 27 0.0656573 0.337562 0.5
789 28 0.0151152 0.315606 0.5
791 27 0.0838885 0.30904 0.5
441 30 0.100936 0.335208 0.5
680 29 0.121689 0.308315 0.5
631 30 0.135598 0.336727 0.5
972 29 0.152931 0.310433 0.5
925 24 0.168668 0.337478 0.5
154 29 0.185434 0.311328 0.5
764 36 0.222807 0.315421 0.5
985 26 0.199903 0.339796 0.5
472 27 0.241074 0.346057 0.5
948 35 0.274183 0.287482 0.5
541 32 0.259319 0.318353 0.5
693 29 0.272519 0.34956 0.5
29 29 0.291546 0.320992 0.5
446 29 0.306819 0.291546 0.5
486 36 0.342105 0.29554 0.5
958 24 0.326409 0.324321 0.5
126 31 0.357922 0.323221 0.5
593 26 0.375856 0.293671 0.5
65 31 0.407793 0.294991 0.5
406 30 0.39075 0.324811 0.5
767 38 0.440866 0.293565 0.5
549 30 0.477994 0.293348 0.5
814 31 0.42369 0.324636 0.5
595 34 0.458542 0.323519 0.5
866 29 0.509091 0.29432 0.5
404 31 0.492022 0.325163 0.5
79 36 0.524779 0.327012 0.5
619 32 0.542957 0.295304 0.5
118 27 0.579334 0.29792 0.5
1000 35 0.560648 0.325594 0.5
46 33 0.595699 0.326672 0.5
70 28 0.610854 0.2987 0.5
910 30 0.644668 0.298773 0.5
772 32 0.629167 0.329279 0.5
318 34 0.662168 0.328566 0.5
137 33 0.680323 0.29772 0.5
711 34 0.696083 0.328584 0.5
338 29 0.714041 0.300052 0.5
867 36 0.748529 0.300981 0.5
295 33 0.730396 0.331975 0.5
35 36 0.765262 0.33283 0.5
612 28 0.782092 0.303146 0.5
93 40 0.820534 0.307351 0.5
601 31 0.800628 0.339273 0.5
960 38 0.857593 0.294678 0.5
778 25 0.850369 0.325177 0.5
341 26 0.881355 0.321023 0.5
862 26 0.895749 0.292543 0.5
916 26 0.912203 0.320709 0.5
793 29 0.927454 0.346273 0.5
906 37 0.945145 0.317879 0.5
359 33 0.998837 0.34464 0.5
600 35 0.98104 0.316396 0.5
748 34 0.964829 0.347113 0.5
460 34 0.0297314 0.403621 0.5
854 28 0.0503811 0.375764 0.5
913 29 0.0628886 0.404549 0.5
465 28 0.00880775 0.376497 0.5
872 37 0.115252 0.365573 0.5
641 30 0.081856 0.365199 0.5
447 36 0.0952883 0.395739 0.5
127 24 0.128827 0.398659 0.5
186 31 0.149802 0.367049 0.5
804 29 0.167948 0.396548 0.5
524 33 0.184003 0.367216 0.5
965 30 0.218231 0.366676 0.5
410 38 0.20132 0.397077 0.5
942 26 0.235939 0.404436 0.5
40 38 0.255318 0.37898 0.5
783 27 0.272403 0.408543 0.5
526 30 0.289571 0.381679 0.5
20 34 0.307972 0.351793 0.5
62 29 0.341258 0.353012 0.5
266 34 0.323196 0.381939 0.5
470 30 0.3558 0.383544 0.5
504 37 0.374397 0.356023 0.5
411 31 0.409111 0.354698 0.5
394 30 0.391845 0.384529 0.5
25 32 0.426122 0.383497 0.5
481 30 0.442239 0.353175 0.5
915 27 0.474371 0.35357 0.5
432 29 0.458091 0.381827 0.5
479 22 0.504694 0.357201 0.5
323 30 0.490343 0.382783 0.5
805 28 0.521389 0.382148 0.5
522 35 0.542088 0.35741 0.5
43 34 0.578017 0.356624 0.5
691 37 0.558926 0.388025 0.5
281 26 0.59439 0.384974 0.5
23 28 0.612671 0.356862 0.5
981 30 0.645424 0.359468 0.5
322 24 0.622919 0.384772 0.5
816 32 0.659227 0.388414 0.5
683 33 0.677285 0.358875 0.5
474 28 0.711214 0.359459 0.5
49 28 0.692587 0.38988 0.5
319 30 0.743112 0.362534 0.5
584 26 0.724538 0.389032 0.5
918 38 0.75885 0.396697 0.5
726 30 0.831773 0.347478 0.5
276 34 0.777243 0.365368 0.5
271 30 0.810113 0.373601 0.5
142 31 0.792196 0.404016 0.5
777 27 0.86411 0.350747 0.5
861 34 0.845402 0.378938 0.5
269 31 0.880579 0.378568 0.5
119 29 0.896857 0.350586 0.5
633 30 0.913966 0.377325 0.5
477 31 0.92919 0.408431 0.5
725 37 0.946415 0.377855 0.5
450 25 0.979966 0.380462 0.5
550 26 0.0487366 0.431014 0.5
439 28 0.0338044 0.460943 0.5
617 33 0.067471 0.45633 0.5
151 36 0.0148094 0.434563 0.5
344 23 0.0833464 0.428046 0.5
475 27 0.101552 0.455026 0.5
833 32 0.115523 0.42567 0.5
205 28 0.131556 0.452867 0.5
543 33 0.148601 0.424686 0.5
10 29 0.163088 0.455548 0.5
423 33 0.182613 0.426591 0.5
796 27 0.216162 0.427683 0.5
956 33 0.200128 0.456029 0.5
300 35 0.231372 0.46531 0.5
883 35 0.24986 0.434324 0.5
11 36 0.28609 0.439855 0.5
732 29 0.304854 0.410905 0.5
117 31 0.340064 0.412429 0.5
246 33 0.320817 0.440072 0.5
45 29 0.354942 0.440863 0.5
371 29 0.373624 0.411984 0.5
388 27 0.404654 0.412405 0.5
152 33 0.387904 0.4409 0.5
184 27 0.435079 0.413003 0.5
771 26 0.466348 0.412316 0.5
800 24 0.419191 0.439396 0.5
198 34 0.44969 0.440612 0.5
42 39 0.505412 0.413223 0.5
209 27 0.482416 0.440127 0.5
560 29 0.524533 0.441693 0.5
311 28 0.539738 0.415916 0.5
297 30 0.570291 0.417716 0.5
678 30 0.556489 0.447421 0.5
908 23 0.588898 0.443798 0.5
904 33 0.60356 0.415645 0.5
573 30 0.638873 0.414161 0.5
64 31 0.621509 0.444918 0.5
870 30 0.678894 0.416766 0.5
110 30 0.710063 0.419783 0.5
195 36 0.657475 0.444579 0.5
599 33 0.691507 0.44817 0.5
635 24 0.740854 0.424972 0.5
200 34 0.727872 0.454055 0.5
878 32 0.773126 0.431967 0.5
759 35 0.826147 0.407215 0.5
669 38 0.807097 0.437489 0.5
675 28 0.859685 0.410042 0.5
240 29 0.842946 0.437923 0.5
514 26 0.877088 0.437968 0.5
109 40 0.893901 0.40862 0.5
868 37 0.910178 0.440134 0.5
468 28 0.996809 0.406833 0.5
22 33 0.964073 0.409397 0.5
212 26 0.942509 0.437581 0.5
401 26 0.976535 0.43807 0.5
342 38 0.0185243 0.495123 0.5
1 27 0.0404591 0.52085 0.5
204 33 0.0524652 0.488615 0.5
624 25 0.0712928 0.513465 0.5
610 30 0.118956 0.481646 0.5
714 29 0.0855747 0.484687 0.5
722 33 0.103655 0.512959 0.5
594 33 0.149682 0.484803 0.5
970 24 0.137012 0.514039 0.5
928 32 0.172191 0.508248 0.5
116 24 0.182096 0.480163 0.5
129 35 0.209343 0.499347 0.5
640 36 0.230791 0.526638 0.5
86 30 0.26623 0.468691 0.5
220 30 0.302969 0.469973 0.5
82 33 0.245949 0.49569 0.5
32 23 0.28367 0.494864 0.5
286 31 0.33809 0.469957 0.5
13 31 0.320959 0.498693 0.5
291 27 0.354658 0.501848 0.5
235 34 0.370647 0.472167 0.5
755 26 0.404112 0.468703 0.5
604 23 0.384165 0.504161 0.5
932 28 0.39965 0.530043 0.5
890 33 0.414329 0.498834 0.5
507 29 0.434464 0.472425 0.5
226 31 0.468788 0.470998 0.5
321 31 0.449897 0.50181 0.5
108 33 0.502656 0.465845 0.5
758 24 0.481251 0.500336 0.5
899 24 0.535534 0.470969 0.5
454 31 0.512659 0.499058 0.5
602 26 0.575372 0.47023 0.5
347 42 0.552291 0.49823 0.5
415 25 0.589607 0.50096 0.5
163 26 0.605055 0.473831 0.5
774 33 0.638824 0.47299 0.5
810 31 0.61994 0.501645 0.5
997 34 0.654602 0.503459 0.5
254 32 0.674082 0.477543 0.5
392 30 0.708282 0.480786 0.5
853 21 0.68516 0.506287 0.5
285 30 0.759524 0.463889 0.5
654 26 0.714551 0.513093 0.5
153 36 0.742152 0.49389 0.5
463 27 0.823768 0.468617 0.5
695 23 0.79218 0.469968 0.5
435 25 0.774292 0.492517 0.5
839 28 0.804528 0.498202 0.5
98 34 0.857684 0.467318 0.5
630 31 0.841243 0.494845 0.5
842 28 0.873879 0.499955 0.5
546 32 0.892003 0.469993 0.5
398 36 0.925993 0.474363 0.5
351 31 0.905921 0.502116 0.5
969 29 0.94747 0.50119 0.5
827 39 0.994483 0.46723 0.5
495 32 0.96065 0.471364 0.5
684 26 0.980648 0.498879 0.5
194 31 0.0189088 0.549172 0.5
399 33 0.0391286 0.577359 0.5
830 29 0.0552404 0.548281 0.5
433 26 0.0739083 0.574056 0.5
74 34 0.0868463 0.541836 0.5
739 40 0.107625 0.573673 0.5
449 27 0.122374 0.541826 0.5
145 26 0.156491 0.536835 0.5
989 34 0.143819 0.567537 0.5
865 23 0.176293 0.562658 0.5
287 35 0.194336 0.533323 0.5
554 29 0.214067 0.558703 0.5
15 33 0.266484 0.523493 0.5
386 35 0.300868 0.52698 0.5
576 32 0.248171 0.557154 0.5
417 26 0.281491 0.553594 0.5
222 32 0.266775 0.585375 0.5
99 26 0.30069 0.583043 0.5
370 36 0.334292 0.531675 0.5
667 27 0.319598 0.561009 0.5
69 34 0.354917 0.564243 0.5
572 33 0.367716 0.530634 0.5
494 24 0.38374 0.5553 0.5
937 32 0.390762 0.583624 0.5
3 33 0.414232 0.557622 0.5
978 24 0.429875 0.527649 0.5
773 22 0.462437 0.528275 0.5
808 27 0.445955 0.555667 0.5
437 32 0.495067 0.528861 0.5
820 30 0.529793 0.526565 0.5
292 29 0.477025 0.555245 0.5
185 35 0.512027 0.557101 0.5
337 29 0.495531 0.584987 0.5
327 31 0.570337 0.529266 0.5
638 44 0.548902 0.558319 0.5
453 26 0.586354 0.557526 0.5
562 36 0.603866 0.53111 0.5
76 27 0.636957 0.532339 0.5
850 25 0.619165 0.561768 0.5
354 34 0.65172 0.563064 0.5
843 34 0.669361 0.534515 0.5
496 30 0.702037 0.541615 0.5
123 20 0.682783 0.562941 0.5
88 39 0.762248 0.526786 0.5
299 26 0.732037 0.53692 0.5
221 24 0.720386 0.565591 0.5
50 32 0.751856 0.561434 0.5
605 25 0.796226 0.527379 0.5
236 39 0.829923 0.526247 0.5
880 38 0.785988 0.557808 0.5
622 29 0.819687 0.56059 0.5
757 37 0.864641 0.530459 0.5
889 28 0.850322 0.562693 0.5
231 31 0.882942 0.559291 0.5
489 23 0.898333 0.530998 0.5
579 28 0.928856 0.527987 0.5
643 28 0.915279 0.555409 0.5
19 29 0.996482 0.524563 0.5
946 30 0.965079 0.528069 0.5
237 34 0.952644 0.557979 0.5
131 28 0.98669 0.556191 0.5
718 22 0.0236301 0.605338 0.5
552 30 0.044568 0.632733 0.5
261 36 0.0618885 0.604688 0.5
894 28 0.0131607 0.635419 0.5
48 26 0.0964854 0.603965 0.5
518 30 0.081278 0.632593 0.5
53 34 0.115807 0.629259 0.5
352 28 0.130898 0.600288 0.5
387 29 0.165796 0.592057 0.5
316 37 0.155563 0.624289 0.5
627 32 0.231636 0.586123 0.5
909 28 0.196335 0.586262 0.5
634 20 0.185345 0.613258 0.5
721 28 0.215573 0.613138 0.5
954 25 0.199675 0.637086 0.5
284 34 0.23062 0.642861 0.5
670 33 0.24808 0.614133 0.5
825 35 0.281778 0.614462 0.5
535 26 0.265101 0.642866 0.5
840 27 0.332528 0.588288 0.5
419 33 0.296696 0.644915 0.5
362 32 0.316033 0.616977 0.5
717 30 0.332413 0.646644 0.5
907 28 0.347707 0.616306 0.5
189 16 0.360566 0.592979 0.5
304 28 0.365874 0.64303 0.5
863 27 0.37928 0.614322 0.5
598 33 0.412543 0.611603 0.5
735 28 0.432643 0.584471 0.5
395 28 0.464131 0.583019 0.5
159 33 0.448255 0.613579 0.5
230 31 0.430745 0.639379 0.5
525 27 0.463874 0.643358 0.5
30 32 0.527315 0.589135 0.5
173 30 0.480412 0.616908 0.5
537 28 0.511269 0.617908 0.5
681 25 0.570411 0.585268 0.5
817 35 0.549339 0.613776 0.5
703 30 0.585231 0.612992 0.5
302 27 0.599833 0.585925 0.5
782 28 0.630921 0.589414 0.5
527 29 0.615923 0.618086 0.5
335 33 0.649722 0.615958 0.5
975 28 0.674123 0.58778 0.5
746 25 0.705081 0.590009 0.5
570 33 0.686749 0.618377 0.5
583 25 0.768567 0.588284 0.5
314 31 0.737974 0.592475 0.5
334 33 0.720736 0.620961 0.5
183 28 0.756371 0.618155 0.5
613 28 0.802106 0.587507 0.5
501 34 0.787256 0.61745 0.5
55 28 0.820522 0.619055 0.5
149 28 0.83349 0.591352 0.5
876 31 0.868259 0.590152 0.5
219 28 0.851066 0.618304 0.5
697 35 0.888144 0.618126 0.5
146 26 0.90263 0.586784 0.5
223 21 0.931062 0.57949 0.5
724 38 0.927675 0.611114 0.5
642 31 0.948065 0.646472 0.5
160 29 1.00618 0.58145 0.5
207 31 0.972992 0.586426 0.5
747 25 0.992026 0.609968 0.5
801 27 0.960311 0.616703 0.5
328 24 0.981481 0.638438 0.5
213 31 0.0335678 0.664988 0.5
248 26 0.050791 0.693307 0.5
947 33 0.0659056 0.662083 0.5
647 30 0.019336 0.693408 0.5
315 29 0.102165 0.658939 0.5
828 29 0.0900535 0.688665 0.5
455 31 0.122653 0.68699 0.5
659 34 0.137513 0.657183 0.5
903 31 0.172212 0.655138 0.5
320 33 0.15548 0.686319 0.5
247 25 0.188459 0.688772 0.5
462 29 0.212358 0.66985 0.5
218 24 0.230521 0.699165 0.5
391 26 0.244571 0.672098 0.5
731 34 0.276953 0.672629 0.5
61 32 0.260129 0.699749 0.5
547 33 0.313016 0.675565 0.5
657 26 0.346733 0.674795 0.5
523 23 0.395294 0.639834 0.5
78 22 0.375956 0.675435 0.5
268 41 0.408844 0.669395 0.5
982 32 0.4437 0.67028 0.5
366 29 0.495332 0.646122 0.5
979 34 0.530082 0.645059 0.5
150 37 0.478772 0.67608 0.5
355 31 0.513068 0.6744 0.5
752 27 0.494759 0.705805 0.5
741 33 0.567566 0.641531 0.5
836 29 0.544801 0.673718 0.5
52 36 0.579827 0.672622 0.5
708 27 0.599933 0.645429 0.5
373 34 0.633173 0.645161 0.5
482 30 0.612921 0.675866 0.5
147 30 0.646015 0.675246 0.5
56 28 0.666802 0.644923 0.5
945 34 0.706308 0.651199 0.5
858 32 0.68114 0.673065 0.5
588 27 0.77099 0.647539 0.5
75 23 0.741476 0.644439 0.5
483 28 0.72174 0.679736 0.5
258 37 0.75558 0.677038 0.5
134 33 0.805599 0.647611 0.5
436 31 0.79119 0.677684 0.5
396 31 0.824585 0.675657 0.5
308 27 0.838735 0.646198 0.5
238 26 0.87859 0.648575 0.5
38 29 0.856621 0.672391 0.5
710 36 0.890624 0.678074 0.5
922 35 0.910892 0.644227 0.5
539 31 0.926746 0.675195 0.5
262 32 0.944786 0.703627 0.5
992 36 0.99878 0.665785 0.5
891 33 0.962303 0.677104 0.5
505 32 0.987241 0.700173 0.5
510 34 0.0361451 0.723416 0.5
567 29 0.0545715 0.748521 0.5
565 28 0.0211992 0.752525 0.5
459 35 0.0707417 0.71759 0.5
775 33 0.106223 0.717109 0.5
339 35 0.0890968 0.748061 0.5
279 32 0.12465 0.74599 0.5
461 32 0.140986 0.716842 0.5
819 30 0.173346 0.714676 0.5
809 27 0.156542 0.743232 0.5
639 23 0.188744 0.739662 0.5
330 28 0.207619 0.716838 0.5
852 33 0.214552 0.7587 0.5
559 32 0.235919 0.730194 0.5
509 27 0.292085 0.703841 0.5
180 32 0.250816 0.760489 0.5
743 32 0.271729 0.731028 0.5
650 29 0.323892 0.70712 0.5
467 31 0.356614 0.70452 0.5
58 28 0.308044 0.734334 0.5
451 32 0.339379 0.734274 0.5
5 33 0.391277 0.701189 0.5
921 36 0.37536 0.732433 0.5
993 30 0.393036 0.761565 0.5
256 33 0.411335 0.730071 0.5
122 30 0.427816 0.69853 0.5
444 33 0.461773 0.708205 0.5
59 25 0.443419 0.731759 0.5
253 30 0.529555 0.702131 0.5
629 26 0.482018 0.734062 0.5
609 30 0.513613 0.731207 0.5
102 24 0.531252 0.756794 0.5
520 31 0.56128 0.702029 0.5
898 28 0.597349 0.704217 0.5
551 30 0.547456 0.730932 0.5
484 33 0.578788 0.735338 0.5
660 28 0.629734 0.703599 0.5
558 31 0.614091 0.732668 0.5
924 26 0.647472 0.728756 0.5
229 32 0.663281 0.702399 0.5
955 28 0.697387 0.70015 0.5
139 29 0.67909 0.730721 0.5
719 24 0.709248 0.727447 0.5
990 38 0.738962 0.711901 0.5
940 28 0.73102 0.746619 0.5
63 29 0.763251 0.739284 0.5
663 32 0.775831 0.709056 0.5
689 30 0.808838 0.705912 0.5
378 31 0.796878 0.735599 0.5
931 30 0.82998 0.735333 0.5
780 29 0.841692 0.703798 0.5
515 29 0.876119 0.709708 0.5
905 30 0.861047 0.738173 0.5
143 30 0.911557 0.703593 0.5
161 28 0.899641 0.733607 0.5
193 28 0.930307 0.732231 0.5
656 23 0.916225 0.759834 0.5
811 27 1.00339 0.727553 0.5
516 38 0.966996 0.731324 0.5
712 29 0.990182 0.755477 0.5
257 33 0.0432487 0.779535 0.5
197 29 0.0281264 0.810725 0.5
37 29 0.0604444 0.806714 0.5
513 28 0.0760807 0.777213 0.5
577 35 0.0934354 0.805546 0.5
380 37 0.111705 0.775504 0.5
884 35 0.178919 0.769271 0.5
167 27 0.131089 0.80305 0.5
255 29 0.144707 0.772552 0.5
984 32 0.163915 0.799864 0.5
738 32 0.199877 0.795046 0.5
473 31 0.231617 0.791005 0.5
623 35 0.288029 0.76103 0.5
927 32 0.268334 0.788789 0.5
831 29 0.324996 0.761674 0.5
860 30 0.361028 0.762078 0.5
592 26 0.308229 0.788736 0.5
996 27 0.342086 0.788873 0.5
203 38 0.358132 0.819313 0.5
941 29 0.377671 0.790956 0.5
14 29 0.393694 0.818406 0.5
896 30 0.412582 0.79201 0.5
148 33 0.426634 0.762206 0.5
192 35 0.461424 0.760554 0.5
390 32 0.429762 0.818689 0.5
699 24 0.44614 0.788456 0.5
649 35 0.498892 0.762415 0.5
536 28 0.476858 0.792543 0.5
211 21 0.510904 0.791024 0.5
930 27 0.565807 0.765335 0.5
340 23 0.594841 0.764463 0.5
301 35 0.542726 0.790854 0.5
243 32 0.576807 0.794812 0.5
877 29 0.625724 0.762106 0.5
420 33 0.610509 0.791741 0.5
214 33 0.646432 0.791905 0.5
158 34 0.657921 0.759383 0.5
676 31 0.701217 0.758699 0.5
208 31 0.667502 0.815331 0.5
919 25 0.678789 0.783756 0.5
312 37 0.701645 0.80656 0.5
561 31 0.727244 0.779779 0.5
106 22 0.752734 0.766806 0.5
768 31 0.735195 0.811538 0.5
569 32 0.76453 0.793916 0.5
89 30 0.781812 0.764118 0.5
182 32 0.81424 0.765201 0.5
502 26 0.796444 0.792771 0.5
943 42 0.830467 0.801975 0.5
113 34 0.84899 0.767171 0.5
538 33 0.884242 0.762423 0.5
242 35 0.870332 0.795156 0.5
873 32 0.948566 0.759829 0.5
33 30 0.904694 0.792328 0.5
685 30 0.938476 0.790491 0.5
224 30 1.00711 0.78147 0.5
81 28 0.996793 0.811787 0.5
466 40 0.972742 0.785475 0.5
490 31 0.0448558 0.837594 0.5
498 30 0.0291746 0.867084 0.5
28 28 0.0611697 0.86662 0.5
67 30 0.0124849 0.84028 0.5
511 36 0.0778001 0.839173 0.5
469 35 0.114877 0.832509 0.5
442 34 0.101666 0.865309 0.5
181 31 0.134308 0.860278 0.5
487 30 0.149477 0.830843 0.5
54 29 0.16761 0.85804 0.5
168 36 0.183879 0.82692 0.5
227 31 0.219663 0.822342 0.5
753 32 0.205272 0.853678 0.5
934 26 0.239119 0.849883 0.5
374 34 0.253467 0.818091 0.5
280 37 0.290586 0.817634 0.5
409 30 0.275859 0.848331 0.5
71 33 0.324488 0.816978 0.5
763 33 0.310863 0.846649 0.5
31 24 0.340672 0.850321 0.5
900 26 0.326304 0.875148 0.5
104 26 0.35688 0.876093 0.5
844 32 0.376007 0.848965 0.5
430 33 0.392792 0.878232 0.5
682 35 0.410188 0.84646 0.5
178 24 0.461164 0.818377 0.5
715 24 0.443357 0.850946 0.5
16 31 0.427744 0.876487 0.5
845 28 0.460502 0.876167 0.5
107 30 0.47578 0.845694 0.5
926 33 0.496315 0.818218 0.5
250 30 0.53082 0.820656 0.5
798 34 0.512076 0.851025 0.5
445 34 0.52965 0.881762 0.5
499 21 0.562701 0.821575 0.5
655 29 0.593511 0.820558 0.5
413 27 0.546318 0.854885 0.5
57 32 0.57799 0.849045 0.5
749 28 0.625486 0.820445 0.5
241 33 0.595323 0.878209 0.5
591 27 0.611393 0.846421 0.5
912 37 0.630372 0.872164 0.5
895 29 0.648012 0.841182 0.5
356 26 0.686267 0.839892 0.5
744 33 0.667179 0.866869 0.5
994 29 0.704333 0.863746 0.5
838 24 0.718265 0.837029 0.5
528 33 0.764152 0.829383 0.5
677 37 0.741859 0.859388 0.5
34 31 0.79746 0.823368 0.5
408 28 0.775163 0.86161 0.5
350 19 0.826039 0.833958 0.5
397 32 0.806165 0.857406 0.5
332 27 0.858022 0.827247 0.5
249 33 0.878976 0.852931 0.5
589 25 0.846522 0.855665 0.5
24 30 0.889883 0.822345 0.5
155 30 0.924661 0.82046 0.5
933 29 0.911483 0.851363 0.5
987 34 0.931976 0.877408 0.5
998 31 0.944051 0.845988 0.5
172 22 0.955447 0.815775 0.5
290 31 0.965655 0.873024 0.5
488 27 0.997526 0.868779 0.5
298 37 0.978988 0.840345 0.5
216 40 0.0486263 0.898612 0.5
170 33 0.029248 0.929884 0.5
215 28 0.0127723 0.897407 0.5
851 31 0.0707298 0.924769 0.5
648 26 0.0835428 0.89501 0.5
846 33 0.117692 0.897431 0.5
813 30 0.102601 0.924581 0.5
847 36 0.15207 0.888776 0.5
385 31 0.141663 0.921945 0.5
823 29 0.17499 0.921327 0.5
325 32 0.187823 0.884045 0.5
403 26 0.219327 0.88243 0.5
274 28 0.205187 0.91047 0.5
144 33 0.237321 0.909053 0.5
389 38 0.257542 0.879195 0.5
835 32 0.294535 0.875625 0.5
414 34 0.272943 0.909447 0.5
953 29 0.307014 0.908601 0.5
871 29 0.338444 0.905163 0.5
914 26 0.324004 0.933979 0.5
464 30 0.357565 0.931505 0.5
769 29 0.370751 0.903472 0.5
4 32 0.389653 0.937205 0.5
701 36 0.406419 0.90974 0.5
492 38 0.443771 0.907474 0.5
788 33 0.480878 0.90787 0.5
358 28 0.492754 0.877831 0.5
824 31 0.514066 0.913335 0.5
580 28 0.562965 0.882163 0.5
103 32 0.547655 0.912444 0.5
485 34 0.584018 0.911383 0.5
307 32 0.617895 0.905056 0.5
425 32 0.653592 0.900923 0.5
571 41 0.690183 0.893992 0.5
456 31 0.673291 0.928777 0.5
737 33 0.709834 0.923713 0.5
68 31 0.760753 0.890263 0.5
855 31 0.726107 0.890001 0.5
857 38 0.743752 0.919109 0.5
379 27 0.794144 0.887296 0.5
272 35 0.82951 0.882477 0.5
115 24 0.779146 0.915019 0.5
644 30 0.813377 0.912395 0.5
920 29 0.864233 0.883121 0.5
939 36 0.84795 0.914032 0.5
700 27 0.882629 0.908314 0.5
210 28 0.899637 0.880188 0.5
770 39 0.897318 0.938714 0.5
448 32 0.914861 0.908887 0.5
80 30 0.946634 0.905756 0.5
886 28 0.995214 0.932145 0.5
964 33 0.982138 0.902447 0.5
367 28 0.964945 0.932819 0.5
171 33 0.0401891 0.986607 0.5
260 29 0.0190924 0.959825 0.5
706 32 0.0539882 0.953421 0.5
694 31 0.0752814 0.988884 0.5
564 27 0.121275 0.949584 0.5
754 31 0.106832 0.983858 0.5
517 35 0.0878462 0.956175 0.5
848 29 0.15852 0.948288 0.5
252 34 0.141656 0.978454 0.5
18 39 0.177213 0.978601 0.5
273 28 0.193482 0.946564 0.5
608 30 0.224395 0.942229 0.5
902 30 0.210368 0.973207 0.5
991 32 0.244353 0.972254 0.5
802 34 0.257047 0.940413 0.5
646 28 0.291827 0.935954 0.5
239 34 0.258889 0.999592 0.5
671 26 0.276477 0.968606 0.5
73 31 0.292051 0.996626 0.5
263 29 0.307079 0.961918 0.5
174 31 0.323355 0.989279 0.5
944 29 0.337036 0.959817 0.5
977 35 0.35781 0.993084 0.5
607 36 0.372616 0.962925 0.5
493 26 0.406775 0.965416 0.5
961 30 0.425793 0.938541 0.5
372 27 0.460373 0.937988 0.5
568 31 0.438386 0.968721 0.5
90 38 0.474632 0.968537 0.5
795 35 0.494828 0.939799 0.5
704 34 0.531908 0.942285 0.5
742 31 0.510436 0.971012 0.5
986 29 0.566157 0.941857 0.5
799 28 0.550105 0.968889 0.5
138 31 0.582741 0.972489 0.5
265 39 0.604096 0.940957 0.5
779 36 0.640612 0.944523 0.5
637 28 0.614426 0.974664 0.5
797 31 0.647963 0.978313 0.5
360 20 0.670271 0.958227 0.5
270 31 0.699305 0.955802 0.5
530 29 0.681114 0.986495 0.5
745 34 0.715528 0.986048 0.5
164 33 0.763848 0.949424 0.5
365 28 0.730525 0.950399 0.5
382 36 0.750187 0.979779 0.5
653 25 0.794145 0.940145 0.5
393 37 0.788673 0.972214 0.5
615 28 0.822769 0.974395 0.5
923 33 0.830501 0.944083 0.5
938 24 0.864988 0.940166 0.5
849 34 0.857157 0.969669 0.5
976 24 0.891129 0.971014 0.5
766 29 0.932882 0.934712 0.5
936 26 0.910778 0.998613 0.5
736 26 0.921273 0.966682 0.5
705 29 0.939144 0.991513 0.5
596 28 0.953449 0.963501 0.5
345 32 1.00659 0.990526 0.5
917 37 0.973544 0.995208 0.5
762 32 0.985051 0.961979 0.5
