ITEM: TIMESTEP
2250000
ITEM: NUMBER OF ATOMS
1000
ITEM: BOX BOUNDS pp pp pp
-1.6508578000000000e+01 1.6508578000000000e+01
-1.6508578000000000e+01 1.6508578000000000e+01
-5.0000000000000000e-01 5.0000000000000000e-01
ITEM: ATOMS id type xs ys zs
987 32 0.0234973 0.00661213 0.5
998 31 0.0478045 0.028258 0.5
846 32 0.0143308 0.0381372 0.5
328 27 0.0542022 -0.00365312 0.5
461 31 0.0799127 0.0196464 0.5
197 30 0.103555 0.0445777 0.5
505 31 0.110247 0.00926711 0.5
67 30 0.0720163 0.0521489 0.5
565 29 0.145051 0.00152611 0.5
466 35 0.134957 0.0338484 0.5
721 29 0.16803 0.0252655 0.5
279 31 0.201417 0.0188952 0.5
215 29 0.195285 0.050234 0.5
80 30 0.22702 0.0398161 0.5
490 31 0.23363 0.0065301 0.5
255 30 0.259431 0.0294311 0.5
180 31 0.285098 0.0521288 0.5
577 33 0.291632 0.0185039 0.5
218 27 0.325086 0.00664156 0.5
168 33 0.320472 0.0376479 0.5
852 32 0.352163 0.0274777 0.5
122 30 0.358973 -0.00547177 0.5
835 31 0.383421 0.016403 0.5
58 29 0.411059 0.0400613 0.5
592 28 0.377737 0.0485347 0.5
921 33 0.415357 0.00757644 0.5
808 29 0.447734 -0.00311638 0.5
409 30 0.441404 0.027925 0.5
844 31 0.469448 0.0515062 0.5
451 31 0.506121 0.0111217 0.5
934 28 0.474085 0.0180824 0.5
682 33 0.500865 0.044166 0.5
824 31 0.539615 0.000578961 0.5
752 29 0.566504 0.0229937 0.5
31 27 0.532627 0.0359492 0.5
430 32 0.558023 0.0563817 0.5
655 30 0.629514 0.00201614 0.5
445 32 0.597696 0.0126523 0.5
704 32 0.622426 0.0358802 0.5
898 29 0.590261 0.0470049 0.5
420 32 0.684931 0.0160393 0.5
75 27 0.653709 0.026467 0.5
749 29 0.679315 0.0462705 0.5
301 33 0.646566 0.0582334 0.5
76 29 0.718954 0.00385571 0.5
926 32 0.743985 0.0272824 0.5
250 30 0.712213 0.0365234 0.5
591 29 0.80879 0.00677484 0.5
243 31 0.776585 0.017795 0.5
484 32 0.804052 0.0399708 0.5
241 32 0.771513 0.0501277 0.5
483 29 0.835746 0.031326 0.5
182 31 0.86869 0.0197874 0.5
990 34 0.860645 0.0532645 0.5
397 31 0.90082 0.0118672 0.5
895 30 0.92629 0.0335218 0.5
502 28 0.932147 0.000654212 0.5
660 29 0.892588 0.0442381 0.5
33 30 0.987468 0.0172516 0.5
656 27 0.956225 0.0239982 0.5
378 31 0.98284 0.0494818 0.5
332 29 0.949158 0.0564042 0.5
920 30 0.0405401 0.0614101 0.5
242 33 0.00863497 0.0732084 0.5
685 30 0.0313157 0.0968299 0.5
298 34 0.0631877 0.0858491 0.5
498 30 0.0957337 0.0747425 0.5
448 31 0.0865296 0.111241 0.5
891 32 0.130615 0.0689654 0.5
516 34 0.163023 0.0586842 0.5
694 31 0.155664 0.0929271 0.5
754 31 0.119197 0.102405 0.5
455 31 0.220202 0.0722332 0.5
37 30 0.188795 0.0831822 0.5
903 31 0.214201 0.104505 0.5
819 30 0.251196 0.0630357 0.5
811 29 0.27788 0.0844729 0.5
247 28 0.248568 0.0942254 0.5
738 31 0.309519 0.0733218 0.5
227 31 0.337707 0.0923578 0.5
996 29 0.302279 0.105273 0.5
374 32 0.345454 0.0596649 0.5
71 32 0.403151 0.0712835 0.5
673 29 0.371854 0.0796052 0.5
559 31 0.397547 0.103408 0.5
473 31 0.436233 0.0606342 0.5
953 30 0.46097 0.0848279 0.5
203 34 0.428944 0.0942194 0.5
649 33 0.49277 0.0763348 0.5
896 30 0.486547 0.108208 0.5
467 31 0.526887 0.0673062 0.5
961 30 0.518501 0.100315 0.5
788 32 0.551211 0.0898221 0.5
178 27 0.582851 0.0783289 0.5
551 30 0.57764 0.109334 0.5
107 30 0.614945 0.0693077 0.5
930 29 0.639711 0.0906817 0.5
699 27 0.609061 0.100626 0.5
305 30 0.670958 0.0797002 0.5
312 34 0.69697 0.102758 0.5
737 32 0.665328 0.11203 0.5
744 32 0.70436 0.0687477 0.5
715 27 0.736224 0.0574283 0.5
485 32 0.729541 0.0891048 0.5
499 26 0.753278 0.110414 0.5
986 30 0.762697 0.081814 0.5
158 32 0.794926 0.0737638 0.5
528 32 0.819484 0.0951952 0.5
408 29 0.786608 0.106332 0.5
703 30 0.826962 0.0643168 0.5
63 30 0.852787 0.0872431 0.5
356 28 0.876942 0.112225 0.5
857 34 0.884632 0.0774293 0.5
940 29 0.919244 0.0662974 0.5
208 31 0.909623 0.100846 0.5
676 31 0.997943 0.104433 0.5
229 31 0.942334 0.0919581 0.5
663 31 0.972821 0.0819507 0.5
379 29 0.965063 0.114769 0.5
155 30 0.0222874 0.128084 0.5
712 30 0.0460883 0.147521 0.5
766 30 0.0151578 0.159804 0.5
976 27 0.0551775 0.119132 0.5
614 30 0.0776539 0.143769 0.5
770 35 0.112013 0.135341 0.5
513 29 0.102433 0.166317 0.5
97 27 0.0651098 0.173909 0.5
290 31 0.146542 0.125545 0.5
216 35 0.139456 0.159084 0.5
517 33 0.173134 0.14642 0.5
813 30 0.181015 0.114665 0.5
442 32 0.205993 0.137013 0.5
706 31 0.230188 0.160319 0.5
367 29 0.196878 0.169145 0.5
81 29 0.238164 0.12666 0.5
193 29 0.27033 0.116132 0.5
511 33 0.261891 0.149033 0.5
325 31 0.329188 0.123473 0.5
487 30 0.294519 0.136388 0.5
847 33 0.321245 0.157599 0.5
927 31 0.363678 0.113491 0.5
991 31 0.386876 0.136814 0.5
802 32 0.353735 0.146449 0.5
274 29 0.380584 0.168801 0.5
871 30 0.453872 0.118795 0.5
493 28 0.419939 0.126946 0.5
763 32 0.44696 0.150521 0.5
181 31 0.41191 0.15988 0.5
607 33 0.512502 0.131907 0.5
14 30 0.480045 0.143363 0.5
900 28 0.503885 0.163395 0.5
104 28 0.544546 0.120694 0.5
795 33 0.568207 0.14311 0.5
492 34 0.535887 0.155822 0.5
425 31 0.633621 0.122492 0.5
16 31 0.600662 0.133952 0.5
413 29 0.625513 0.156309 0.5
799 29 0.592403 0.167619 0.5
317 33 0.688854 0.135641 0.5
307 31 0.657216 0.147556 0.5
103 31 0.682809 0.168608 0.5
779 33 0.72347 0.122366 0.5
211 26 0.748669 0.147245 0.5
677 34 0.716703 0.15534 0.5
138 31 0.811262 0.127527 0.5
994 30 0.780194 0.138069 0.5
653 28 0.805104 0.160106 0.5
644 30 0.775174 0.171457 0.5
561 31 0.844596 0.118343 0.5
838 27 0.869257 0.142409 0.5
270 31 0.836165 0.150945 0.5
68 31 0.861779 0.171285 0.5
569 31 0.90122 0.134081 0.5
939 33 0.927551 0.157205 0.5
365 29 0.932949 0.125676 0.5
933 30 0.895057 0.167716 0.5
964 32 0.988633 0.136351 0.5
589 28 0.957647 0.146714 0.5
170 32 0.982213 0.169749 0.5
143 30 0.0364209 0.186138 0.5
350 25 0.00721474 0.189827 0.5
705 30 0.010636 0.218204 0.5
936 28 0.0407403 0.229785 0.5
662 31 0.0635761 0.207456 0.5
252 32 0.0969532 0.211513 0.5
18 35 0.125079 0.191072 0.5
488 29 0.155619 0.204972 0.5
245 27 0.166658 0.17719 0.5
66 31 0.129023 0.224919 0.5
564 29 0.219159 0.19391 0.5
385 31 0.188055 0.207139 0.5
403 28 0.214427 0.226206 0.5
389 34 0.252413 0.185949 0.5
169 27 0.280378 0.203054 0.5
469 33 0.247905 0.221295 0.5
280 34 0.288568 0.172832 0.5
809 29 0.316413 0.191678 0.5
608 30 0.341034 0.211719 0.5
132 31 0.305744 0.222904 0.5
239 32 0.34747 0.178801 0.5
414 32 0.374023 0.201205 0.5
464 30 0.405443 0.192714 0.5
671 28 0.398105 0.225039 0.5
372 29 0.435882 0.182769 0.5
73 31 0.430255 0.215146 0.5
957 33 0.464724 0.207975 0.5
845 29 0.471242 0.1741 0.5
769 30 0.495287 0.19711 0.5
402 33 0.518562 0.220531 0.5
646 29 0.486985 0.232976 0.5
174 31 0.52905 0.188571 0.5
944 30 0.561998 0.176769 0.5
457 33 0.552845 0.212741 0.5
834 31 0.580307 0.23313 0.5
568 31 0.586701 0.199719 0.5
358 29 0.619748 0.18646 0.5
950 31 0.609773 0.221754 0.5
582 30 0.642945 0.212977 0.5
57 31 0.651005 0.18085 0.5
761 30 0.676439 0.202341 0.5
508 29 0.702846 0.220264 0.5
100 32 0.742219 0.181044 0.5
603 30 0.708722 0.189145 0.5
217 31 0.733857 0.214526 0.5
768 31 0.801633 0.194025 0.5
530 30 0.770133 0.20281 0.5
938 27 0.831909 0.18384 0.5
574 27 0.85757 0.20197 0.5
571 36 0.828713 0.217023 0.5
249 32 0.920184 0.190826 0.5
382 33 0.889349 0.207178 0.5
115 27 0.917968 0.224009 0.5
700 29 0.95227 0.18277 0.5
272 33 0.979879 0.203922 0.5
733 33 0.949978 0.220602 0.5
648 28 0.0166803 0.249395 0.5
210 29 0.0472013 0.259738 0.5
346 30 0.0212712 0.281702 0.5
199 33 0.0734264 0.239477 0.5
787 29 0.105648 0.246002 0.5
24 30 0.0785112 0.271323 0.5
120 30 0.109668 0.279715 0.5
596 29 0.159501 0.236205 0.5
130 30 0.135158 0.258129 0.5
124 29 0.165503 0.269047 0.5
54 30 0.190048 0.246972 0.5
597 28 0.220471 0.258554 0.5
815 30 0.196074 0.278642 0.5
837 31 0.228717 0.289723 0.5
966 28 0.276226 0.2386 0.5
171 32 0.252158 0.263144 0.5
823 30 0.28232 0.276413 0.5
995 28 0.334794 0.24278 0.5
28 29 0.306399 0.255011 0.5
427 31 0.32374 0.281528 0.5
856 29 0.36624 0.232102 0.5
621 29 0.388291 0.257684 0.5
273 29 0.357154 0.265063 0.5
440 34 0.453898 0.240951 0.5
753 31 0.420036 0.246949 0.5
90 34 0.450472 0.286795 0.5
701 33 0.416526 0.279053 0.5
114 28 0.511112 0.252664 0.5
728 32 0.477812 0.266947 0.5
434 28 0.507495 0.282954 0.5
914 28 0.543012 0.244143 0.5
497 31 0.568021 0.26347 0.5
263 30 0.538553 0.276695 0.5
225 32 0.623606 0.251411 0.5
91 28 0.597888 0.271088 0.5
424 27 0.627999 0.285306 0.5
121 31 0.67407 0.237443 0.5
112 28 0.65322 0.263664 0.5
666 31 0.681967 0.276518 0.5
94 28 0.703456 0.250937 0.5
580 29 0.73478 0.251588 0.5
887 31 0.715444 0.279786 0.5
265 35 0.748369 0.289572 0.5
742 31 0.761421 0.233051 0.5
912 34 0.797971 0.237081 0.5
393 34 0.773505 0.264883 0.5
832 35 0.807708 0.273233 0.5
855 31 0.863916 0.232439 0.5
329 32 0.835309 0.252191 0.5
529 30 0.865732 0.265648 0.5
456 31 0.839813 0.287525 0.5
106 26 0.893216 0.240152 0.5
661 30 0.921942 0.255315 0.5
377 29 0.894617 0.278015 0.5
803 31 0.928956 0.286447 0.5
849 32 0.983149 0.237739 0.5
310 32 0.956049 0.259861 0.5
2 30 0.987719 0.271049 0.5
545 34 0.0263922 0.315326 0.5
729 27 0.0533617 0.291264 0.5
244 30 -0.00214785 0.335949 0.5
557 33 0.0334855 0.350351 0.5
618 33 0.0580948 0.327765 0.5
202 34 0.0834334 0.304437 0.5
652 35 0.0919745 0.339192 0.5
429 29 0.115873 0.31245 0.5
140 30 0.140118 0.290813 0.5
881 29 0.149285 0.32185 0.5
369 32 0.125331 0.344401 0.5
736 28 0.172411 0.299914 0.5
260 30 0.20377 0.310937 0.5
720 30 0.179077 0.332997 0.5
293 33 0.213278 0.34562 0.5
902 30 0.260955 0.299882 0.5
967 28 0.238641 0.323635 0.5
794 31 0.274395 0.330411 0.5
756 30 0.296659 0.305088 0.5
376 34 0.328752 0.315082 0.5
87 30 0.304991 0.340407 0.5
96 30 0.357024 0.296002 0.5
651 28 0.360612 0.327015 0.5
664 31 0.38894 0.297842 0.5
144 32 0.393447 0.33416 0.5
841 31 0.42029 0.312815 0.5
296 30 0.456723 0.322026 0.5
357 33 0.430684 0.343948 0.5
232 29 0.480687 0.301853 0.5
888 29 0.510471 0.313309 0.5
77 26 0.484911 0.333176 0.5
949 32 0.519613 0.343274 0.5
645 31 0.566632 0.295985 0.5
452 32 0.542941 0.320535 0.5
278 32 0.57508 0.328984 0.5
368 31 0.602009 0.303366 0.5
251 31 0.633573 0.316635 0.5
587 33 0.607698 0.337662 0.5
988 26 0.657639 0.294864 0.5
637 29 0.689496 0.306809 0.5
72 28 0.663733 0.326271 0.5
384 35 0.698634 0.339624 0.5
963 29 0.720642 0.313648 0.5
44 32 0.753578 0.324445 0.5
674 29 0.730505 0.349469 0.5
797 31 0.782215 0.298762 0.5
745 32 0.786783 0.332851 0.5
521 31 0.813995 0.308322 0.5
806 29 0.820739 0.34167 0.5
615 29 0.846412 0.321021 0.5
611 33 0.871028 0.298617 0.5
606 32 0.878409 0.33059 0.5
353 30 0.903798 0.309013 0.5
418 32 0.910363 0.342562 0.5
776 31 0.936275 0.318733 0.5
762 31 0.995173 0.302706 0.5
886 29 0.961999 0.292168 0.5
345 31 0.969419 0.323821 0.5
283 33 0.00600821 0.369289 0.5
259 26 0.0388 0.382685 0.5
548 33 0.0143394 0.40158 0.5
751 28 0.0634077 0.362476 0.5
407 29 0.094434 0.371673 0.5
542 31 0.0701232 0.393878 0.5
686 30 0.102195 0.401831 0.5
84 29 0.156843 0.356897 0.5
326 36 0.128229 0.3801 0.5
851 31 0.160965 0.38964 0.5
672 31 0.187963 0.366428 0.5
196 31 0.222969 0.378855 0.5
586 35 0.194967 0.399803 0.5
897 31 0.25104 0.355249 0.5
935 28 0.282382 0.363375 0.5
631 30 0.254938 0.389061 0.5
532 30 0.286681 0.395188 0.5
668 27 0.337285 0.349831 0.5
167 29 0.313188 0.371703 0.5
885 28 0.341904 0.383301 0.5
785 32 0.320199 0.406588 0.5
400 32 0.369593 0.358453 0.5
333 30 0.37637 0.392166 0.5
707 37 0.402793 0.367508 0.5
36 33 0.410268 0.40371 0.5
458 33 0.437215 0.378696 0.5
581 27 0.463577 0.356722 0.5
201 32 0.469631 0.388771 0.5
491 30 0.49424 0.365394 0.5
977 33 0.50197 0.397476 0.5
4 31 0.528746 0.373465 0.5
348 29 0.551869 0.351326 0.5
626 32 0.559558 0.385821 0.5
893 30 0.533787 0.407884 0.5
500 35 0.584343 0.362962 0.5
593 28 0.615422 0.375734 0.5
125 30 0.591965 0.396558 0.5
866 30 0.621367 0.40699 0.5
309 32 0.639045 0.351661 0.5
874 33 0.672152 0.362083 0.5
206 31 0.646299 0.385319 0.5
531 29 0.680095 0.393593 0.5
21 31 0.707881 0.374239 0.5
360 25 0.737069 0.378901 0.5
892 27 0.714532 0.405082 0.5
980 29 0.76226 0.355138 0.5
12 32 0.794227 0.364255 0.5
416 32 0.768689 0.386442 0.5
166 30 0.801968 0.396652 0.5
363 28 0.853412 0.351414 0.5
859 34 0.827841 0.374611 0.5
901 33 0.860797 0.385822 0.5
156 28 0.835609 0.407155 0.5
6 24 0.88094 0.362425 0.5
923 32 0.917752 0.375445 0.5
85 27 0.892895 0.395732 0.5
375 30 0.924696 0.408247 0.5
27 32 0.941898 0.352997 0.5
177 28 0.974468 0.358801 0.5
544 29 0.950725 0.38475 0.5
141 31 0.982152 0.39233 0.5
962 37 0.0215859 0.438128 0.5
233 29 0.0482123 0.416015 0.5
911 30 -0.00306321 0.462298 0.5
512 31 0.0561093 0.44851 0.5
781 30 0.0792394 0.425454 0.5
428 29 0.0889765 0.459071 0.5
336 33 0.111586 0.434659 0.5
405 30 0.138998 0.414013 0.5
917 34 0.146064 0.446456 0.5
8 28 0.171925 0.424191 0.5
750 31 0.17866 0.457661 0.5
687 31 0.204882 0.43212 0.5
234 32 0.231105 0.411821 0.5
22 32 0.212232 0.465161 0.5
541 31 0.237998 0.444331 0.5
882 33 0.264674 0.42059 0.5
616 30 0.270039 0.453534 0.5
331 29 0.297201 0.430803 0.5
786 34 0.327788 0.440163 0.5
848 30 0.303567 0.464512 0.5
563 33 0.354097 0.417731 0.5
162 31 0.386559 0.427171 0.5
965 30 0.361838 0.452239 0.5
690 29 0.393394 0.460228 0.5
734 31 0.443944 0.411861 0.5
228 29 0.417612 0.436503 0.5
665 35 0.450165 0.445774 0.5
658 33 0.476045 0.421687 0.5
692 29 0.509178 0.43157 0.5
133 31 0.483729 0.453939 0.5
421 32 0.515632 0.464196 0.5
549 30 0.5665 0.41863 0.5
504 34 0.542317 0.442053 0.5
730 31 0.574153 0.452719 0.5
870 30 0.59776 0.428978 0.5
727 33 0.630984 0.439143 0.5
899 27 0.607669 0.461351 0.5
404 31 0.657716 0.41601 0.5
431 31 0.68937 0.426111 0.5
157 31 0.664617 0.448525 0.5
176 31 0.697638 0.458875 0.5
426 27 0.745126 0.413101 0.5
821 29 0.721852 0.436818 0.5
952 32 0.753918 0.443769 0.5
383 32 0.730405 0.469285 0.5
443 29 0.775996 0.419481 0.5
165 27 0.786061 0.453738 0.5
540 32 0.807782 0.429228 0.5
829 28 0.818148 0.462937 0.5
879 32 0.867003 0.418252 0.5
566 31 0.842675 0.439587 0.5
343 32 0.876378 0.450119 0.5
438 29 0.899887 0.427358 0.5
973 27 0.929972 0.440384 0.5
519 28 0.907491 0.46214 0.5
698 27 0.99047 0.426512 0.5
288 33 0.956009 0.418571 0.5
553 31 0.964719 0.451457 0.5
713 33 0.0294426 0.47277 0.5
191 33 0.00309826 0.495146 0.5
716 30 0.0374243 0.505844 0.5
791 29 0.0628515 0.481487 0.5
555 30 0.0941161 0.490587 0.5
600 33 0.0700012 0.512929 0.5
959 29 0.104525 0.525248 0.5
792 31 0.121245 0.468538 0.5
179 31 0.154696 0.480527 0.5
764 33 0.128291 0.503113 0.5
812 29 0.161058 0.514438 0.5
985 28 0.187001 0.49085 0.5
111 30 0.22137 0.497675 0.5
872 34 0.196046 0.522685 0.5
929 32 0.246259 0.476966 0.5
534 32 0.279084 0.485176 0.5
7 32 0.256928 0.509951 0.5
550 28 0.287011 0.517476 0.5
783 29 0.335993 0.47384 0.5
51 31 0.31084 0.49688 0.5
556 30 0.342795 0.504204 0.5
620 29 0.366962 0.483282 0.5
709 30 0.398186 0.491868 0.5
105 31 0.374483 0.514938 0.5
875 32 0.424124 0.470783 0.5
476 27 0.457782 0.479169 0.5
740 32 0.433025 0.502486 0.5
412 30 0.405433 0.524322 0.5
126 31 0.466838 0.510718 0.5
175 36 0.491147 0.487348 0.5
446 30 0.498939 0.519234 0.5
394 30 0.525224 0.495801 0.5
306 29 0.551028 0.475346 0.5
65 31 0.559821 0.509 0.5
23 29 0.583029 0.48443 0.5
688 29 0.590775 0.517476 0.5
1000 33 0.61574 0.494235 0.5
17 29 0.641711 0.472575 0.5
324 34 0.623524 0.526896 0.5
83 31 0.648264 0.5033 0.5
101 29 0.673111 0.483599 0.5
590 28 0.678814 0.513706 0.5
478 30 0.704664 0.494638 0.5
70 29 0.734612 0.503849 0.5
136 33 0.712049 0.528879 0.5
277 29 0.761894 0.477808 0.5
679 35 0.793978 0.485865 0.5
999 33 0.768083 0.511269 0.5
364 31 0.801589 0.51879 0.5
47 31 0.852539 0.474142 0.5
968 33 0.827676 0.495798 0.5
822 32 0.859693 0.50775 0.5
39 29 0.883269 0.48437 0.5
533 32 0.915812 0.494967 0.5
633 30 0.890984 0.51942 0.5
983 31 0.940147 0.472595 0.5
723 30 0.971344 0.486291 0.5
471 28 0.947703 0.507123 0.5
313 32 0.978842 0.5184 0.5
575 31 0.0101757 0.526771 0.5
807 27 0.046427 0.536642 0.5
918 34 0.0222453 0.558746 0.5
725 34 -0.00239192 0.583205 0.5
951 30 0.0549882 0.569536 0.5
503 33 0.0792082 0.546531 0.5
422 30 0.0881816 0.580427 0.5
793 30 0.111357 0.556559 0.5
971 26 0.136785 0.534732 0.5
748 32 0.142551 0.566737 0.5
628 31 0.169968 0.545949 0.5
524 32 0.176326 0.578346 0.5
60 29 0.202332 0.555801 0.5
26 34 0.231334 0.531621 0.5
826 30 0.235318 0.564725 0.5
154 30 0.26142 0.542098 0.5
410 34 0.269498 0.573715 0.5
594 32 0.295106 0.552252 0.5
693 30 0.319443 0.52817 0.5
702 29 0.327265 0.562441 0.5
636 27 0.350098 0.537522 0.5
361 31 0.381975 0.545607 0.5
506 33 0.359035 0.569127 0.5
486 33 0.392047 0.581107 0.5
423 32 0.440006 0.535702 0.5
92 29 0.417103 0.558379 0.5
765 28 0.451575 0.565566 0.5
303 30 0.474875 0.542953 0.5
11 33 0.507774 0.552811 0.5
40 34 0.483235 0.577741 0.5
349 35 0.533786 0.529015 0.5
771 28 0.566103 0.541389 0.5
595 32 0.541657 0.563301 0.5
128 31 0.573412 0.573595 0.5
691 34 0.598 0.549919 0.5
347 36 0.631155 0.56185 0.5
281 28 0.604447 0.583045 0.5
9 29 0.655145 0.536833 0.5
267 29 0.684459 0.546949 0.5
760 29 0.663549 0.570868 0.5
772 31 0.695878 0.578515 0.5
110 30 0.744559 0.537318 0.5
289 27 0.721419 0.559254 0.5
578 30 0.755392 0.568079 0.5
264 31 0.778319 0.542659 0.5
282 29 0.809262 0.555119 0.5
974 29 0.785367 0.576481 0.5
867 33 0.832708 0.53079 0.5
632 30 0.866287 0.540057 0.5
906 34 0.841587 0.564154 0.5
135 30 0.873559 0.573539 0.5
41 31 0.923661 0.527149 0.5
784 29 0.900346 0.551237 0.5
579 29 0.93074 0.560643 0.5
585 31 0.904791 0.583564 0.5
188 31 0.988453 0.550734 0.5
480 29 0.95404 0.538629 0.5
960 34 0.961851 0.570882 0.5
212 28 0.0312097 0.590838 0.5
95 31 0.0331516 0.623465 0.5
916 28 0.00169265 0.61581 0.5
190 34 0.0624061 0.600554 0.5
641 30 0.0938423 0.611105 0.5
854 29 0.0678649 0.634228 0.5
472 29 0.119269 0.588366 0.5
450 28 0.149183 0.599068 0.5
680 30 0.126398 0.622319 0.5
1 29 0.159419 0.629722 0.5
972 30 0.209081 0.586693 0.5
925 27 0.184987 0.609218 0.5
833 31 0.216677 0.618114 0.5
129 33 0.242374 0.596906 0.5
948 33 0.275034 0.60934 0.5
942 28 0.245112 0.628527 0.5
804 30 0.286676 0.641344 0.5
29 30 0.300465 0.583788 0.5
928 31 0.333192 0.593592 0.5
287 33 0.308996 0.616597 0.5
275 31 0.343709 0.626057 0.5
956 32 0.366578 0.601833 0.5
25 31 0.400583 0.61375 0.5
796 29 0.376186 0.634599 0.5
266 32 0.425957 0.588211 0.5
300 33 0.458036 0.598893 0.5
20 32 0.432721 0.623665 0.5
814 31 0.466965 0.630384 0.5
560 30 0.517101 0.586239 0.5
619 31 0.491801 0.60924 0.5
411 31 0.502303 0.642267 0.5
767 34 0.525566 0.618435 0.5
864 28 0.550066 0.596181 0.5
432 30 0.558625 0.626224 0.5
908 27 0.582289 0.605294 0.5
470 30 0.589623 0.638058 0.5
311 29 0.613266 0.616179 0.5
805 29 0.641642 0.593939 0.5
195 33 0.645067 0.626853 0.5
981 30 0.673408 0.602639 0.5
904 32 0.677325 0.636033 0.5
137 32 0.705525 0.610045 0.5
910 30 0.731049 0.589936 0.5
118 29 0.737903 0.622079 0.5
42 35 0.713001 0.643532 0.5
35 33 0.762721 0.600852 0.5
341 28 0.795406 0.612495 0.5
338 30 0.771375 0.632641 0.5
625 31 0.817866 0.588473 0.5
853 26 0.800675 0.643934 0.5
381 31 0.825271 0.620672 0.5
584 28 0.848039 0.597478 0.5
295 32 0.856734 0.631332 0.5
601 31 0.880973 0.605954 0.5
862 28 0.913143 0.617302 0.5
134 32 0.889112 0.638374 0.5
294 30 0.938679 0.594112 0.5
187 32 0.972227 0.605321 0.5
818 28 0.947493 0.626525 0.5
495 31 0.976569 0.638117 0.5
868 34 0.00832939 0.647219 0.5
109 35 0.0428179 0.656079 0.5
546 31 0.0178862 0.68185 0.5
790 31 0.0493309 0.689153 0.5
789 29 0.10166 0.64386 0.5
441 30 0.074508 0.666592 0.5
447 33 0.108275 0.676002 0.5
359 32 0.0820438 0.699281 0.5
145 28 0.132072 0.653119 0.5
830 30 0.162536 0.664825 0.5
869 31 0.13921 0.687246 0.5
151 33 0.171196 0.69827 0.5
465 29 0.190111 0.639782 0.5
205 29 0.19379 0.6731 0.5
204 32 0.221691 0.654381 0.5
714 30 0.235552 0.684003 0.5
624 28 0.25748 0.656641 0.5
954 28 0.267259 0.687199 0.5
634 25 0.292524 0.671937 0.5
722 32 0.319115 0.649929 0.5
32 27 0.324893 0.680318 0.5
117 31 0.300345 0.703117 0.5
13 31 0.353505 0.658215 0.5
62 30 0.384687 0.67279 0.5
543 32 0.356678 0.690114 0.5
186 31 0.394215 0.705226 0.5
732 30 0.410721 0.647716 0.5
246 32 0.443669 0.65554 0.5
958 27 0.420393 0.678977 0.5
406 30 0.454924 0.689452 0.5
79 33 0.477234 0.663463 0.5
840 29 0.509644 0.674615 0.5
370 33 0.486813 0.700447 0.5
209 29 0.533798 0.650805 0.5
481 30 0.565258 0.658508 0.5
825 33 0.543178 0.684135 0.5
820 30 0.574182 0.700136 0.5
321 31 0.621435 0.650261 0.5
638 37 0.596398 0.673597 0.5
915 29 0.629013 0.685393 0.5
297 30 0.652491 0.660267 0.5
323 30 0.684444 0.668502 0.5
816 31 0.660331 0.692205 0.5
454 31 0.693325 0.700635 0.5
711 32 0.744572 0.652984 0.5
43 32 0.718662 0.677879 0.5
997 32 0.750622 0.689386 0.5
119 30 0.776494 0.665785 0.5
46 32 0.807898 0.676215 0.5
163 28 0.783957 0.699002 0.5
778 28 0.832526 0.653937 0.5
392 30 0.862863 0.664306 0.5
322 27 0.838928 0.684818 0.5
318 32 0.871202 0.697302 0.5
861 32 0.921905 0.648745 0.5
276 32 0.895626 0.672616 0.5
675 29 0.925884 0.683916 0.5
271 30 0.951869 0.661093 0.5
684 28 0.9831 0.669404 0.5
946 30 0.957116 0.693106 0.5
401 28 0.0247413 0.7139 0.5
237 32 0.0324006 0.745456 0.5
757 34 -0.0010863 0.734644 0.5
231 31 -0.00939821 0.700506 0.5
398 33 0.0568619 0.722105 0.5
777 29 0.0894061 0.731244 0.5
477 31 0.0655049 0.753856 0.5
696 29 0.113176 0.707799 0.5
718 26 0.146794 0.72045 0.5
913 30 0.119449 0.739007 0.5
344 27 0.15053 0.751412 0.5
970 27 0.177283 0.733647 0.5
475 29 0.207877 0.700342 0.5
116 27 0.209128 0.735136 0.5
86 30 0.239466 0.724363 0.5
48 28 0.270195 0.717682 0.5
284 32 0.263426 0.748598 0.5
152 32 0.333879 0.713828 0.5
909 29 0.301829 0.734832 0.5
883 33 0.347929 0.750032 0.5
388 29 0.366457 0.722336 0.5
286 31 0.381694 0.748976 0.5
45 30 0.410548 0.734437 0.5
371 30 0.429695 0.709436 0.5
758 27 0.458528 0.723357 0.5
386 33 0.440601 0.756501 0.5
479 26 0.471692 0.75101 0.5
526 30 0.495407 0.733301 0.5
572 32 0.519414 0.710563 0.5
69 32 0.528826 0.743643 0.5
604 27 0.551013 0.721077 0.5
773 26 0.559657 0.752793 0.5
800 27 0.584381 0.730981 0.5
3 32 0.589575 0.762616 0.5
437 31 0.606093 0.707979 0.5
850 28 0.637714 0.715303 0.5
978 27 0.615125 0.738707 0.5
335 32 0.647384 0.748113 0.5
932 29 0.66889 0.723865 0.5
522 33 0.701547 0.73353 0.5
184 29 0.677646 0.760848 0.5
573 30 0.726725 0.71195 0.5
108 32 0.733494 0.745247 0.5
635 27 0.756978 0.722201 0.5
463 29 0.765121 0.756846 0.5
683 32 0.787947 0.731302 0.5
654 28 0.813784 0.708792 0.5
64 31 0.818467 0.740327 0.5
599 32 0.844649 0.71605 0.5
678 30 0.852301 0.749585 0.5
695 27 0.87695 0.729388 0.5
514 28 0.901767 0.705776 0.5
605 28 0.910559 0.73742 0.5
612 29 0.885835 0.760304 0.5
489 27 0.933296 0.714394 0.5
269 31 0.94129 0.748142 0.5
630 31 0.96634 0.725088 0.5
643 29 0.973329 0.758153 0.5
876 31 0.00527199 0.766922 0.5
969 30 0.0366558 0.778126 0.5
308 29 0.0103434 0.799411 0.5
726 30 0.0983256 0.764299 0.5
146 28 0.0700304 0.784363 0.5
827 35 0.098943 0.79989 0.5
435 28 0.0694214 0.814226 0.5
724 34 0.129914 0.778284 0.5
19 30 0.162932 0.779035 0.5
160 30 0.155075 0.81353 0.5
460 32 0.194237 0.763599 0.5
10 30 0.218399 0.790918 0.5
989 32 0.231164 0.757512 0.5
82 32 0.187157 0.801608 0.5
74 32 0.254037 0.781112 0.5
639 27 0.279918 0.803317 0.5
399 32 0.28678 0.772003 0.5
15 32 0.2453 0.813784 0.5
352 29 0.319235 0.764298 0.5
576 31 0.313239 0.79555 0.5
717 30 0.345259 0.784557 0.5
640 33 0.336961 0.818652 0.5
602 28 0.377369 0.781092 0.5
99 28 0.402456 0.8001 0.5
417 28 0.369174 0.811549 0.5
226 31 0.408989 0.769015 0.5
667 29 0.43277 0.790067 0.5
735 29 0.45515 0.813274 0.5
863 29 0.464918 0.780681 0.5
547 32 0.499273 0.768079 0.5
189 23 0.516345 0.795292 0.5
198 32 0.487767 0.805967 0.5
755 28 0.5372 0.774734 0.5
979 32 0.567813 0.785961 0.5
304 29 0.544808 0.811489 0.5
520 31 0.62151 0.773155 0.5
337 30 0.598808 0.797117 0.5
562 33 0.631241 0.807111 0.5
327 31 0.653556 0.781734 0.5
49 29 0.685771 0.791954 0.5
482 30 0.663437 0.814094 0.5
50 31 0.709537 0.768455 0.5
354 32 0.741016 0.778485 0.5
373 32 0.716304 0.800117 0.5
185 33 0.749206 0.812388 0.5
878 31 0.795749 0.764617 0.5
142 31 0.774783 0.789807 0.5
496 30 0.805737 0.797122 0.5
123 25 0.781747 0.820948 0.5
319 30 0.827548 0.772579 0.5
93 35 0.860082 0.782598 0.5
955 29 0.836459 0.805645 0.5
200 32 0.91816 0.771011 0.5
474 29 0.89222 0.796023 0.5
88 35 0.923876 0.806315 0.5
98 32 0.950286 0.780126 0.5
149 29 0.980387 0.788669 0.5
240 30 0.958102 0.812814 0.5
539 31 0.0375555 0.816733 0.5
223 26 0.0300408 0.854921 0.5
839 29 0.00776586 0.832311 0.5
515 30 -0.00185012 0.86367 0.5
224 30 0.060051 0.844978 0.5
801 29 0.0935675 0.833784 0.5
747 28 0.083787 0.867635 0.5
194 31 0.0548019 0.87753 0.5
351 31 0.115848 0.857261 0.5
468 29 0.12342 0.822384 0.5
342 34 0.149132 0.846932 0.5
554 30 0.174339 0.87011 0.5
320 32 0.213319 0.824433 0.5
617 32 0.180676 0.835273 0.5
439 29 0.205277 0.859915 0.5
552 30 0.23808 0.846102 0.5
739 35 0.269871 0.836817 0.5
127 27 0.263343 0.868873 0.5
419 32 0.295068 0.862307 0.5
53 32 0.303166 0.829181 0.5
220 30 0.327926 0.851768 0.5
627 31 0.392841 0.831979 0.5
235 32 0.361167 0.842727 0.5
670 32 0.385161 0.86436 0.5
449 29 0.352196 0.873706 0.5
222 31 0.424823 0.822451 0.5
391 28 0.450301 0.845158 0.5
507 30 0.418163 0.85344 0.5
941 30 0.443487 0.876349 0.5
59 28 0.51333 0.825896 0.5
535 28 0.480972 0.837937 0.5
291 29 0.47481 0.870019 0.5
390 31 0.505499 0.85847 0.5
292 30 0.570663 0.831367 0.5
268 36 0.53952 0.844876 0.5
877 30 0.567131 0.86773 0.5
817 33 0.533628 0.879188 0.5
993 30 0.604769 0.829831 0.5
153 33 0.635043 0.848984 0.5
139 30 0.599715 0.861373 0.5
30 31 0.669174 0.845451 0.5
782 29 0.69446 0.822946 0.5
669 34 0.699115 0.86103 0.5
774 32 0.656495 0.877189 0.5
570 32 0.726157 0.838661 0.5
843 32 0.746306 0.876394 0.5
302 29 0.761641 0.845192 0.5
221 27 0.780822 0.869029 0.5
697 33 0.812817 0.828914 0.5
759 33 0.812015 0.861809 0.5
285 30 0.842656 0.848546 0.5
810 31 0.863541 0.822302 0.5
880 34 0.870745 0.865874 0.5
299 28 0.838439 0.881322 0.5
254 31 0.896751 0.828138 0.5
56 29 0.907316 0.858366 0.5
236 35 0.938415 0.841287 0.5
889 29 0.97637 0.83814 0.5
510 32 0.96286 0.871013 0.5
161 29 0.0235899 0.887096 0.5
518 30 0.0456302 0.910436 0.5
873 31 0.0140588 0.917624 0.5
433 28 0.078734 0.899229 0.5
992 33 0.108294 0.889912 0.5
207 31 0.104189 0.923032 0.5
894 29 0.070366 0.933234 0.5
610 30 0.14211 0.879815 0.5
865 27 0.134172 0.910763 0.5
647 30 0.166455 0.901658 0.5
315 30 0.19967 0.891271 0.5
775 32 0.224683 0.911862 0.5
213 31 0.191019 0.924255 0.5
567 30 0.231951 0.878951 0.5
387 30 0.255564 0.903616 0.5
316 34 0.280562 0.927942 0.5
257 32 0.287517 0.894284 0.5
5 32 0.319879 0.884945 0.5
330 29 0.313187 0.917399 0.5
860 30 0.346073 0.905364 0.5
731 32 0.379275 0.896938 0.5
150 34 0.404881 0.920125 0.5
230 31 0.372184 0.928095 0.5
657 28 0.410227 0.885677 0.5
525 29 0.436984 0.910735 0.5
890 32 0.462153 0.932872 0.5
937 31 0.46973 0.90073 0.5
362 31 0.502374 0.891456 0.5
523 27 0.492984 0.921965 0.5
537 29 0.527105 0.913037 0.5
192 33 0.560252 0.901559 0.5
102 27 0.584338 0.92557 0.5
444 32 0.553004 0.934183 0.5
366 30 0.593337 0.89341 0.5
609 30 0.625218 0.882476 0.5
395 29 0.618292 0.914753 0.5
741 32 0.683926 0.897424 0.5
708 29 0.649025 0.90962 0.5
453 28 0.673929 0.929594 0.5
147 30 0.715332 0.890228 0.5
681 28 0.74166 0.908856 0.5
746 28 0.708377 0.922588 0.5
314 31 0.774413 0.899751 0.5
558 31 0.806421 0.893386 0.5
975 29 0.797753 0.923708 0.5
945 32 0.766751 0.93157 0.5
334 32 0.833215 0.912535 0.5
219 29 0.86437 0.899539 0.5
183 29 0.858612 0.934196 0.5
501 32 0.895516 0.887942 0.5
689 30 0.922235 0.912009 0.5
613 29 0.928567 0.879947 0.5
931 30 0.889959 0.92191 0.5
396 31 0.988985 0.895297 0.5
238 28 0.954504 0.902781 0.5
905 30 0.979436 0.926692 0.5
113 32 0.947841 0.934177 0.5
262 31 0.0302251 0.975266 0.5
248 28 0.0380408 0.942385 0.5
943 36 0.00553468 0.951256 0.5
172 26 0.0867663 0.987619 0.5
38 30 0.0621668 0.964804 0.5
642 31 0.0939033 0.95543 0.5
538 32 0.117395 0.977966 0.5
710 33 0.150948 0.969688 0.5
828 30 0.127305 0.946025 0.5
261 33 0.158576 0.935479 0.5
947 32 0.178609 0.993185 0.5
339 33 0.210825 0.981995 0.5
61 31 0.18361 0.959324 0.5
459 33 0.2164 0.948293 0.5
380 34 0.265654 0.996243 0.5
462 30 0.243846 0.971015 0.5
907 29 0.274902 0.962298 0.5
131 29 0.248328 0.939233 0.5
743 31 0.298239 0.984826 0.5
884 33 0.331403 0.974922 0.5
659 32 0.305874 0.950416 0.5
984 31 0.337375 0.939839 0.5
536 29 0.389474 0.985698 0.5
623 33 0.364875 0.961757 0.5
148 32 0.397832 0.954654 0.5
650 30 0.424732 0.975033 0.5
494 27 0.458031 0.963562 0.5
831 30 0.429222 0.942882 0.5
256 32 0.481684 0.986813 0.5
982 31 0.513318 0.978142 0.5
798 32 0.489973 0.953977 0.5
78 26 0.51889 0.942628 0.5
629 28 0.571625 0.990323 0.5
598 32 0.544216 0.967071 0.5
355 31 0.577639 0.957019 0.5
214 32 0.603451 0.97916 0.5
509 29 0.635072 0.97155 0.5
159 32 0.610265 0.946986 0.5
253 30 0.641889 0.939399 0.5
173 30 0.660948 0.991107 0.5
583 28 0.692005 0.984266 0.5
340 27 0.665625 0.960412 0.5
836 30 0.696838 0.951543 0.5
924 28 0.751752 0.995275 0.5
858 31 0.726844 0.972617 0.5
415 28 0.735439 0.940299 0.5
527 30 0.758831 0.964207 0.5
719 27 0.782665 0.984536 0.5
55 29 0.789558 0.954612 0.5
588 29 0.81528 0.97559 0.5
52 33 0.841774 0.999241 0.5
258 34 0.876794 0.987192 0.5
842 29 0.822769 0.944127 0.5
919 28 0.846895 0.966186 0.5
780 30 0.882736 0.955928 0.5
622 30 0.907496 0.976238 0.5
436 31 0.914637 0.944177 0.5
89 30 0.964261 0.991585 0.5
922 33 0.941363 0.966573 0.5
164 32 0.997789 0.985964 0.5
34 31 0.972844 0.958798 0.5
