ITEM: TIMESTEP
2270000
ITEM: NUMBER OF ATOMS
1000
ITEM: BOX BOUNDS pp pp pp
-1.6549136000000001e+01 1.6549136000000001e+01
-1.6549136000000001e+01 1.6549136000000001e+01
-5.0000000000000000e-01 5.0000000000000000e-01
ITEM: ATOMS id type xs ys zs
656 23 0.0175542 0.00977623 0.5
873 32 0.0502954 0.00891648 0.5
685 30 0.036028 0.0396588 0.5
33 30 0.00505126 0.0420652 0.5
712 29 0.0915209 0.00912965 0.5
466 40 0.0717623 0.0380473 0.5
224 30 0.109621 0.0345649 0.5
567 29 0.158189 0.00267988 0.5
565 28 0.124397 0.00533154 0.5
257 33 0.143041 0.0334622 0.5
513 28 0.174446 0.0287936 0.5
380 37 0.210535 0.0294659 0.5
339 35 0.190226 0.000249545 0.5
255 29 0.244966 0.0263495 0.5
884 35 0.277342 0.0244271 0.5
984 32 0.259397 0.056106 0.5
852 33 0.310789 0.0179587 0.5
180 32 0.345995 0.015753 0.5
473 31 0.329095 0.0454849 0.5
738 32 0.295985 0.0522516 0.5
623 35 0.381279 0.0156119 0.5
927 32 0.363188 0.0441011 0.5
592 26 0.396453 0.0436125 0.5
831 29 0.414754 0.0186302 0.5
860 30 0.447697 0.0141432 0.5
996 27 0.435619 0.0423098 0.5
941 29 0.467487 0.0436593 0.5
993 30 0.481131 0.0140036 0.5
148 33 0.515079 0.0149106 0.5
896 30 0.499376 0.0443291 0.5
192 35 0.549803 0.01327 0.5
649 35 0.584296 0.0176609 0.5
699 24 0.533661 0.0427174 0.5
536 28 0.565286 0.0440023 0.5
102 24 0.615918 0.0117345 0.5
211 21 0.597288 0.0470215 0.5
301 35 0.627631 0.0426257 0.5
930 27 0.646982 0.0155725 0.5
340 23 0.678811 0.0173403 0.5
243 32 0.662679 0.0436811 0.5
420 33 0.696954 0.0466408 0.5
877 29 0.714054 0.0194932 0.5
158 34 0.746502 0.0197504 0.5
214 33 0.732496 0.0512596 0.5
208 31 0.765997 0.0477 0.5
919 25 0.780357 0.0190556 0.5
561 31 0.817667 0.0203209 0.5
312 37 0.80069 0.0501742 0.5
106 22 0.852415 0.0162138 0.5
768 31 0.836348 0.0482475 0.5
569 32 0.869758 0.0457618 0.5
89 30 0.882645 0.015806 0.5
182 32 0.918355 0.014232 0.5
502 26 0.900158 0.0420701 0.5
943 42 0.933814 0.0484689 0.5
538 33 0.987646 0.0124847 0.5
113 34 0.95225 0.0149429 0.5
242 35 0.971448 0.0446724 0.5
155 30 0.0227721 0.0693079 0.5
933 29 0.00681925 0.100906 0.5
998 31 0.0395118 0.0962011 0.5
172 22 0.053432 0.0688716 0.5
81 28 0.0960419 0.0625541 0.5
298 37 0.0756198 0.0918595 0.5
67 30 0.109864 0.0956189 0.5
197 29 0.127186 0.0641773 0.5
37 29 0.159792 0.0622882 0.5
490 31 0.142218 0.0967519 0.5
167 27 0.227311 0.0598383 0.5
577 35 0.192219 0.0590761 0.5
511 36 0.176487 0.0916777 0.5
469 35 0.211407 0.0887317 0.5
487 30 0.246056 0.0879477 0.5
168 36 0.280772 0.0848022 0.5
54 29 0.264946 0.114859 0.5
227 31 0.31424 0.0791204 0.5
374 34 0.347259 0.0747849 0.5
934 26 0.334147 0.105026 0.5
753 32 0.303192 0.113141 0.5
280 37 0.382564 0.0737022 0.5
409 30 0.373504 0.105707 0.5
763 33 0.406447 0.102197 0.5
71 33 0.416342 0.0684956 0.5
203 38 0.450525 0.0737569 0.5
31 24 0.437785 0.10603 0.5
844 32 0.469921 0.10377 0.5
390 32 0.517621 0.0708898 0.5
14 29 0.484472 0.0738853 0.5
682 35 0.504617 0.102299 0.5
178 24 0.550546 0.0705549 0.5
926 33 0.583207 0.0724826 0.5
715 24 0.535243 0.0951403 0.5
107 30 0.564662 0.101191 0.5
250 30 0.617533 0.0758052 0.5
798 34 0.598166 0.102913 0.5
413 27 0.629857 0.104491 0.5
499 21 0.646011 0.0762165 0.5
655 29 0.676195 0.074234 0.5
57 32 0.661931 0.103892 0.5
591 27 0.698891 0.105191 0.5
749 28 0.71123 0.0765603 0.5
895 29 0.755236 0.0770821 0.5
912 37 0.732938 0.104053 0.5
744 33 0.767545 0.10702 0.5
356 26 0.786597 0.0802475 0.5
994 29 0.80366 0.106317 0.5
838 24 0.820664 0.0787554 0.5
528 33 0.85519 0.0760737 0.5
677 37 0.838186 0.107827 0.5
408 28 0.873118 0.104532 0.5
34 31 0.889548 0.0722776 0.5
350 19 0.924688 0.0794462 0.5
397 32 0.906341 0.101697 0.5
589 25 0.941684 0.101555 0.5
24 30 0.989145 0.0727232 0.5
332 27 0.957558 0.0760686 0.5
249 33 0.973987 0.102168 0.5
987 34 0.0257812 0.127396 0.5
448 32 0.0123908 0.158867 0.5
80 30 0.0453333 0.15631 0.5
488 27 0.0936619 0.124196 0.5
290 31 0.0610897 0.126526 0.5
964 33 0.0800711 0.154839 0.5
215 28 0.112781 0.155434 0.5
28 28 0.163247 0.121619 0.5
498 30 0.125332 0.125504 0.5
216 40 0.148289 0.153382 0.5
181 31 0.232107 0.11682 0.5
442 34 0.197448 0.119301 0.5
648 26 0.182522 0.147701 0.5
846 33 0.21625 0.14765 0.5
325 32 0.284467 0.141873 0.5
847 36 0.251226 0.14607 0.5
823 29 0.270779 0.174832 0.5
403 26 0.317997 0.141633 0.5
144 33 0.337902 0.165642 0.5
274 28 0.302927 0.167987 0.5
389 38 0.352605 0.133177 0.5
835 32 0.392909 0.132937 0.5
414 34 0.373135 0.16226 0.5
953 29 0.407815 0.161414 0.5
900 26 0.425023 0.132478 0.5
104 26 0.454913 0.131692 0.5
871 29 0.439389 0.160024 0.5
430 33 0.48822 0.13304 0.5
701 36 0.51687 0.153872 0.5
769 29 0.472146 0.160893 0.5
16 31 0.540221 0.126964 0.5
845 28 0.57559 0.131302 0.5
492 38 0.553922 0.159145 0.5
788 33 0.589552 0.160472 0.5
358 28 0.612775 0.133905 0.5
445 34 0.645388 0.134506 0.5
824 31 0.624762 0.16448 0.5
580 28 0.67929 0.13254 0.5
103 32 0.658435 0.169622 0.5
485 34 0.693171 0.162881 0.5
241 33 0.711995 0.134019 0.5
425 32 0.747706 0.136562 0.5
307 32 0.72683 0.165495 0.5
571 41 0.78585 0.138638 0.5
456 31 0.773758 0.173245 0.5
737 33 0.807453 0.168559 0.5
855 31 0.822915 0.137554 0.5
68 31 0.860295 0.135148 0.5
857 38 0.84403 0.165389 0.5
115 24 0.879141 0.161647 0.5
272 35 0.926562 0.129742 0.5
379 27 0.890503 0.129364 0.5
644 30 0.909953 0.159439 0.5
210 28 0.993117 0.129673 0.5
920 29 0.961322 0.133459 0.5
939 36 0.944766 0.160819 0.5
700 27 0.978147 0.158561 0.5
766 29 0.0339889 0.186832 0.5
596 28 0.051448 0.213891 0.5
736 26 0.0204685 0.215869 0.5
886 28 0.0974794 0.182653 0.5
367 28 0.0648723 0.182903 0.5
762 32 0.0825833 0.211669 0.5
170 33 0.132528 0.185836 0.5
851 31 0.169481 0.182041 0.5
706 32 0.155044 0.213029 0.5
260 29 0.115866 0.213466 0.5
813 30 0.201982 0.178925 0.5
517 35 0.190311 0.210072 0.5
564 27 0.223491 0.205647 0.5
385 31 0.23643 0.177058 0.5
848 29 0.255273 0.202739 0.5
273 28 0.29039 0.197996 0.5
252 34 0.240596 0.233331 0.5
18 39 0.275737 0.229092 0.5
608 30 0.322883 0.193723 0.5
991 32 0.340755 0.221952 0.5
902 30 0.309426 0.225229 0.5
646 28 0.390725 0.191967 0.5
802 34 0.357877 0.193859 0.5
671 26 0.375874 0.220117 0.5
263 29 0.407285 0.218956 0.5
914 26 0.425336 0.19205 0.5
464 30 0.456077 0.188407 0.5
944 29 0.443129 0.217238 0.5
4 32 0.495847 0.182905 0.5
607 36 0.477889 0.213894 0.5
493 26 0.515267 0.213891 0.5
961 30 0.530928 0.183705 0.5
372 27 0.563051 0.191241 0.5
568 31 0.545276 0.216988 0.5
90 38 0.580073 0.221073 0.5
795 35 0.601951 0.192601 0.5
704 34 0.637804 0.196648 0.5
742 31 0.615932 0.224477 0.5
986 29 0.670955 0.200782 0.5
799 28 0.648392 0.229222 0.5
138 31 0.687503 0.228439 0.5
265 39 0.706226 0.197467 0.5
779 36 0.743107 0.197537 0.5
637 28 0.722146 0.229277 0.5
797 31 0.754926 0.231411 0.5
360 20 0.773798 0.202938 0.5
270 31 0.802712 0.20206 0.5
745 34 0.819462 0.230751 0.5
164 33 0.866492 0.192786 0.5
365 28 0.835071 0.197777 0.5
382 36 0.854757 0.22667 0.5
653 25 0.896654 0.185964 0.5
923 33 0.928529 0.193211 0.5
393 37 0.889708 0.219763 0.5
615 28 0.922609 0.224723 0.5
770 39 0.998723 0.189684 0.5
938 24 0.965289 0.185771 0.5
976 24 0.989784 0.221598 0.5
849 34 0.954543 0.217608 0.5
705 29 0.0382281 0.24307 0.5
936 26 0.00706264 0.245204 0.5
199 35 0.0304146 0.27474 0.5
614 29 -0.00398928 0.276842 0.5
917 37 0.0721825 0.246039 0.5
345 32 0.107292 0.243842 0.5
574 23 0.0618644 0.278084 0.5
259 22 0.0961594 0.271727 0.5
171 33 0.140176 0.242819 0.5
130 29 0.159403 0.270895 0.5
694 31 0.173128 0.240939 0.5
407 27 0.126189 0.271643 0.5
754 31 0.20728 0.238241 0.5
672 31 0.193349 0.267494 0.5
132 31 0.2276 0.264408 0.5
293 35 0.261676 0.261053 0.5
785 33 0.283494 0.28793 0.5
376 38 0.247467 0.292805 0.5
597 25 0.297741 0.259077 0.5
621 28 0.326181 0.254794 0.5
888 28 0.315069 0.284717 0.5
995 26 0.345302 0.280318 0.5
73 31 0.392217 0.248439 0.5
239 34 0.358981 0.249608 0.5
834 31 0.376641 0.277222 0.5
434 25 0.407888 0.275487 0.5
174 31 0.424722 0.246254 0.5
977 35 0.460103 0.245129 0.5
440 38 0.441147 0.276497 0.5
957 35 0.496514 0.244794 0.5
645 32 0.476571 0.275015 0.5
734 32 0.511145 0.275253 0.5
114 26 0.529391 0.247272 0.5
603 29 0.559309 0.250841 0.5
674 28 0.543736 0.277773 0.5
305 30 0.577637 0.278842 0.5
666 32 0.597438 0.252742 0.5
582 29 0.634185 0.257215 0.5
950 31 0.612703 0.283783 0.5
329 33 0.668499 0.254766 0.5
963 27 0.703205 0.25609 0.5
91 26 0.685369 0.283403 0.5
874 36 0.652028 0.286653 0.5
317 36 0.737092 0.260896 0.5
443 28 0.714506 0.285821 0.5
100 33 0.748028 0.295429 0.5
530 29 0.786914 0.233203 0.5
166 30 0.769815 0.260511 0.5
12 34 0.804378 0.262206 0.5
377 28 0.819756 0.291564 0.5
661 30 0.836189 0.260388 0.5
346 29 0.868007 0.257159 0.5
806 28 0.854708 0.287707 0.5
733 36 0.903323 0.253284 0.5
27 33 0.921573 0.283531 0.5
283 35 0.886947 0.284243 0.5
310 33 0.938313 0.253462 0.5
202 37 0.973836 0.249841 0.5
97 24 0.959063 0.281135 0.5
776 31 0.0137272 0.304671 0.5
2 29 0.0479091 0.305631 0.5
313 33 0.0344085 0.336794 0.5
901 36 -0.000934474 0.336684 0.5
244 29 0.0812488 0.299957 0.5
233 28 0.0682261 0.331711 0.5
792 31 0.0991552 0.328969 0.5
66 31 0.113 0.300625 0.5
245 23 0.152329 0.301311 0.5
369 34 0.135916 0.327539 0.5
812 28 0.170291 0.326289 0.5
429 28 0.180949 0.295241 0.5
124 28 0.21186 0.292857 0.5
720 29 0.201785 0.322391 0.5
87 29 0.233848 0.323501 0.5
427 31 0.268077 0.320856 0.5
856 28 0.287268 0.3465 0.5
664 31 0.333904 0.309627 0.5
120 30 0.300534 0.316537 0.5
756 29 0.320808 0.340712 0.5
581 24 0.391102 0.303531 0.5
169 23 0.362865 0.304999 0.5
105 31 0.356085 0.336872 0.5
707 43 0.397012 0.33645 0.5
368 32 0.421004 0.305344 0.5
497 32 0.45593 0.306755 0.5
175 41 0.43647 0.33802 0.5
587 35 0.492815 0.305831 0.5
384 40 0.475033 0.338223 0.5
251 31 0.515014 0.33548 0.5
491 30 0.526887 0.304638 0.5
457 36 0.559764 0.309289 0.5
476 23 0.545182 0.33892 0.5
112 26 0.576261 0.338901 0.5
508 28 0.59389 0.310311 0.5
566 31 0.629382 0.313506 0.5
452 33 0.608552 0.340365 0.5
44 33 0.642899 0.34453 0.5
832 39 0.695054 0.314828 0.5
988 21 0.662228 0.320191 0.5
761 29 0.675467 0.347493 0.5
416 33 0.731892 0.323905 0.5
540 34 0.709118 0.348842 0.5
892 24 0.741195 0.353236 0.5
859 38 0.78409 0.292676 0.5
165 24 0.768793 0.320335 0.5
611 35 0.806355 0.322276 0.5
353 29 0.770728 0.351214 0.5
879 33 0.841111 0.320651 0.5
156 26 0.861647 0.344949 0.5
803 31 0.875734 0.315817 0.5
698 23 0.909326 0.312423 0.5
375 30 0.892521 0.345762 0.5
983 31 0.923848 0.340101 0.5
618 35 0.979984 0.306016 0.5
652 39 0.944299 0.310499 0.5
716 30 0.964769 0.338711 0.5
723 29 0.01593 0.365265 0.5
781 29 0.0368069 0.390335 0.5
512 31 0.0044537 0.394881 0.5
662 32 0.0573966 0.362162 0.5
548 35 0.0921205 0.361548 0.5
532 29 0.113783 0.388206 0.5
686 30 0.0694125 0.392631 0.5
729 24 0.124419 0.359402 0.5
542 32 0.156421 0.356932 0.5
751 25 0.144738 0.38593 0.5
837 32 0.177466 0.38351 0.5
881 27 0.223657 0.353605 0.5
935 26 0.190633 0.353261 0.5
140 30 0.210392 0.382088 0.5
179 31 0.254959 0.350345 0.5
966 26 0.243226 0.380558 0.5
673 28 0.274572 0.374981 0.5
458 35 0.26229 0.406557 0.5
841 31 0.340637 0.369188 0.5
400 34 0.307081 0.373238 0.5
885 26 0.294424 0.40311 0.5
96 30 0.325631 0.400729 0.5
794 31 0.373572 0.364712 0.5
201 33 0.359064 0.396814 0.5
36 36 0.395897 0.393334 0.5
232 28 0.415017 0.36624 0.5
620 28 0.455002 0.368847 0.5
665 39 0.434278 0.394682 0.5
658 35 0.472126 0.397629 0.5
72 26 0.49881 0.36292 0.5
424 24 0.528143 0.363382 0.5
348 28 0.504845 0.39529 0.5
821 27 0.556694 0.365802 0.5
740 33 0.537711 0.394335 0.5
531 27 0.57036 0.395224 0.5
121 32 0.588598 0.368248 0.5
21 31 0.621881 0.37207 0.5
128 31 0.602304 0.398755 0.5
402 36 0.637977 0.40293 0.5
225 34 0.659396 0.375843 0.5
176 32 0.694294 0.381103 0.5
952 33 0.672152 0.408642 0.5
363 26 0.750794 0.380937 0.5
6 17 0.723376 0.382073 0.5
217 32 0.737261 0.408447 0.5
829 26 0.80333 0.353895 0.5
418 33 0.784551 0.380864 0.5
529 29 0.769766 0.410311 0.5
578 29 0.802551 0.40961 0.5
141 32 0.819199 0.381121 0.5
177 25 0.832146 0.350324 0.5
39 27 0.850835 0.377653 0.5
519 25 0.8346 0.40765 0.5
438 28 0.865254 0.40485 0.5
544 28 0.881638 0.377782 0.5
557 36 0.913372 0.372351 0.5
632 30 0.90019 0.403644 0.5
545 37 0.938199 0.400046 0.5
288 35 0.979954 0.369274 0.5
41 31 0.946602 0.365257 0.5
480 27 0.971901 0.400488 0.5
428 28 0.0200603 0.421723 0.5
787 27 0.0519599 0.419114 0.5
196 31 0.0355052 0.449305 0.5
188 31 0.00347739 0.451433 0.5
326 41 0.0946961 0.418396 0.5
95 32 0.0707454 0.443796 0.5
84 28 0.130892 0.414901 0.5
555 30 0.162694 0.413337 0.5
971 22 0.121275 0.442966 0.5
967 25 0.150565 0.442445 0.5
815 30 0.22795 0.408909 0.5
628 31 0.195432 0.411914 0.5
616 30 0.181623 0.440575 0.5
636 24 0.213812 0.437041 0.5
405 29 0.23145 0.467176 0.5
361 32 0.246955 0.437172 0.5
556 29 0.282118 0.433791 0.5
786 37 0.265975 0.466522 0.5
651 25 0.313852 0.433851 0.5
728 33 0.34545 0.427988 0.5
668 24 0.299107 0.46154 0.5
690 27 0.331245 0.458173 0.5
357 35 0.378881 0.424825 0.5
92 28 0.362333 0.456979 0.5
506 36 0.396586 0.454646 0.5
133 31 0.413925 0.42504 0.5
333 30 0.447925 0.42753 0.5
296 30 0.430004 0.454035 0.5
949 33 0.463065 0.458582 0.5
349 39 0.518969 0.426189 0.5
864 26 0.47876 0.428249 0.5
626 34 0.497745 0.458338 0.5
101 28 0.554388 0.423558 0.5
426 24 0.586908 0.425756 0.5
309 33 0.532211 0.459896 0.5
324 37 0.567281 0.453677 0.5
500 39 0.618721 0.432801 0.5
383 34 0.601368 0.463682 0.5
17 27 0.634509 0.465211 0.5
478 29 0.704808 0.412298 0.5
887 32 0.652604 0.438111 0.5
94 26 0.685528 0.438793 0.5
157 32 0.67014 0.468309 0.5
277 27 0.717591 0.440644 0.5
521 32 0.749347 0.439951 0.5
421 33 0.732646 0.469729 0.5
679 40 0.785221 0.440953 0.5
974 27 0.820763 0.436845 0.5
136 36 0.766413 0.471445 0.5
625 32 0.803951 0.471018 0.5
294 30 0.852408 0.4344 0.5
364 32 0.83885 0.466863 0.5
911 29 0.870647 0.463248 0.5
606 33 0.885174 0.433373 0.5
191 36 0.920713 0.431176 0.5
533 34 0.905173 0.462353 0.5
343 33 0.941698 0.459178 0.5
807 24 0.987388 0.425677 0.5
959 28 0.955861 0.428403 0.5
818 26 0.973096 0.4543 0.5
135 29 0.0233503 0.480319 0.5
503 36 0.0101982 0.513637 0.5
696 28 0.0453114 0.509364 0.5
187 33 0.058732 0.47512 0.5
962 43 0.095566 0.470348 0.5
336 35 0.0792847 0.504521 0.5
929 33 0.113751 0.502167 0.5
951 30 0.13203 0.470234 0.5
750 32 0.164542 0.469967 0.5
111 29 0.148797 0.499038 0.5
897 31 0.198569 0.467343 0.5
8 26 0.182833 0.495689 0.5
882 35 0.216384 0.498685 0.5
534 33 0.252193 0.500487 0.5
51 31 0.286107 0.495657 0.5
331 27 0.317855 0.487324 0.5
77 22 0.347249 0.483011 0.5
709 30 0.329866 0.51668 0.5
702 28 0.383912 0.484758 0.5
563 35 0.363124 0.511585 0.5
7 34 0.398356 0.513332 0.5
875 33 0.417695 0.48551 0.5
765 25 0.450266 0.489335 0.5
275 32 0.434004 0.515878 0.5
412 29 0.466222 0.51607 0.5
228 28 0.480925 0.486409 0.5
893 30 0.513589 0.488997 0.5
303 29 0.498348 0.516852 0.5
692 28 0.54625 0.488325 0.5
306 28 0.57924 0.488766 0.5
688 27 0.53182 0.516571 0.5
730 31 0.564823 0.51552 0.5
278 33 0.613142 0.49523 0.5
206 31 0.596343 0.523631 0.5
125 30 0.630762 0.525403 0.5
85 24 0.700854 0.470387 0.5
727 35 0.648331 0.494971 0.5
289 24 0.682962 0.497228 0.5
83 31 0.665797 0.523953 0.5
9 28 0.697682 0.523911 0.5
267 27 0.714573 0.496229 0.5
431 31 0.747012 0.499499 0.5
590 26 0.730119 0.526049 0.5
264 31 0.787005 0.499415 0.5
471 25 0.822262 0.496988 0.5
282 28 0.767811 0.525816 0.5
980 28 0.807517 0.523671 0.5
553 32 0.854317 0.495527 0.5
760 27 0.837422 0.524133 0.5
784 28 0.87027 0.522776 0.5
968 36 0.891097 0.494776 0.5
47 31 0.925654 0.490681 0.5
999 35 0.905517 0.52612 0.5
381 32 0.940515 0.521379 0.5
822 34 0.989543 0.483769 0.5
973 23 0.955755 0.48939 0.5
585 32 0.974634 0.513467 0.5
869 32 0.0308791 0.540529 0.5
916 26 0.0164871 0.570348 0.5
906 37 0.0505092 0.568956 0.5
575 32 0.0647372 0.536985 0.5
713 36 0.101085 0.533869 0.5
600 35 0.0860769 0.565325 0.5
26 38 0.170345 0.527055 0.5
422 30 0.13536 0.531183 0.5
789 28 0.119607 0.561884 0.5
790 32 0.153241 0.559796 0.5
586 40 0.208715 0.533628 0.5
791 27 0.184938 0.560094 0.5
680 29 0.228534 0.562414 0.5
441 30 0.20717 0.586453 0.5
687 32 0.246056 0.533191 0.5
162 31 0.278027 0.529968 0.5
972 29 0.259879 0.562181 0.5
154 29 0.293563 0.570844 0.5
234 33 0.309694 0.542996 0.5
826 30 0.347373 0.543123 0.5
764 36 0.327069 0.572524 0.5
948 35 0.381631 0.543148 0.5
541 32 0.362833 0.573639 0.5
29 29 0.396479 0.574832 0.5
446 29 0.415264 0.542635 0.5
486 36 0.449575 0.546757 0.5
958 24 0.428837 0.579152 0.5
126 31 0.459647 0.579779 0.5
593 26 0.482097 0.548348 0.5
65 31 0.514867 0.546864 0.5
406 30 0.495916 0.578318 0.5
814 31 0.529453 0.577618 0.5
767 38 0.548628 0.547182 0.5
549 30 0.582807 0.552557 0.5
595 34 0.564998 0.579922 0.5
866 29 0.616425 0.554903 0.5
404 31 0.597529 0.581044 0.5
79 36 0.630657 0.584896 0.5
118 27 0.68162 0.550589 0.5
619 32 0.649433 0.552694 0.5
1000 35 0.666461 0.583285 0.5
46 33 0.69941 0.581428 0.5
70 28 0.713357 0.550792 0.5
910 30 0.750075 0.552318 0.5
772 32 0.73334 0.582465 0.5
137 33 0.788286 0.551386 0.5
318 34 0.76844 0.581552 0.5
711 34 0.804512 0.581798 0.5
338 29 0.820597 0.552834 0.5
867 36 0.855179 0.552642 0.5
295 33 0.837893 0.584675 0.5
35 36 0.873354 0.584872 0.5
612 28 0.88815 0.55372 0.5
93 40 0.92633 0.555546 0.5
601 31 0.907348 0.591055 0.5
862 26 0.999053 0.544558 0.5
960 38 0.965719 0.5469 0.5
341 26 0.983072 0.576754 0.5
778 25 0.953457 0.576733 0.5
793 29 0.0346826 0.598624 0.5
633 30 0.0201737 0.628137 0.5
725 37 0.0540977 0.626592 0.5
119 29 0.00222281 0.599852 0.5
748 34 0.0716263 0.598108 0.5
359 33 0.105658 0.595731 0.5
450 25 0.0887264 0.625528 0.5
465 28 0.12416 0.621983 0.5
60 27 0.174371 0.588733 0.5
190 38 0.140762 0.592077 0.5
854 28 0.155168 0.622983 0.5
641 30 0.186771 0.617494 0.5
872 37 0.221499 0.616729 0.5
631 30 0.244602 0.590261 0.5
925 24 0.274734 0.596707 0.5
186 31 0.257334 0.623897 0.5
524 33 0.291597 0.624654 0.5
985 26 0.308023 0.598221 0.5
472 27 0.346391 0.599938 0.5
965 30 0.325741 0.623358 0.5
693 29 0.379164 0.602827 0.5
40 38 0.358595 0.630789 0.5
526 30 0.395674 0.638068 0.5
20 34 0.411859 0.608053 0.5
62 29 0.444878 0.608219 0.5
266 34 0.429674 0.638406 0.5
470 30 0.463663 0.641715 0.5
504 37 0.47916 0.609673 0.5
411 31 0.513445 0.607249 0.5
394 30 0.496503 0.641245 0.5
481 30 0.546125 0.608457 0.5
915 27 0.577166 0.610054 0.5
25 32 0.529266 0.638112 0.5
432 29 0.562165 0.638222 0.5
479 22 0.610571 0.610166 0.5
323 30 0.594861 0.635802 0.5
805 28 0.637033 0.644141 0.5
43 34 0.685877 0.613402 0.5
522 35 0.649408 0.614535 0.5
281 26 0.703851 0.640405 0.5
23 28 0.718194 0.611945 0.5
981 30 0.750204 0.610666 0.5
322 24 0.733697 0.637594 0.5
683 33 0.785377 0.610741 0.5
474 28 0.818959 0.612585 0.5
816 32 0.76566 0.639733 0.5
49 28 0.799814 0.639922 0.5
319 30 0.852176 0.615361 0.5
584 26 0.830756 0.640964 0.5
276 34 0.885851 0.618948 0.5
726 30 0.938365 0.60139 0.5
271 30 0.9186 0.627373 0.5
777 27 0.969868 0.603145 0.5
269 31 0.987003 0.629276 0.5
861 34 0.953457 0.633697 0.5
109 40 0.00363767 0.660108 0.5
477 31 0.0403963 0.659282 0.5
868 37 0.0267703 0.690321 0.5
212 26 0.0597581 0.685786 0.5
22 33 0.0735616 0.655157 0.5
468 28 0.106553 0.651286 0.5
401 26 0.0900479 0.683727 0.5
460 34 0.139405 0.650877 0.5
151 36 0.123509 0.681449 0.5
550 26 0.158437 0.68085 0.5
913 29 0.17378 0.649585 0.5
447 36 0.207861 0.650517 0.5
344 23 0.188977 0.677737 0.5
833 32 0.222626 0.680613 0.5
127 24 0.241355 0.64998 0.5
804 29 0.272336 0.652872 0.5
543 33 0.256159 0.680974 0.5
423 33 0.288299 0.681086 0.5
410 38 0.311858 0.654684 0.5
942 26 0.344985 0.661141 0.5
796 27 0.327072 0.686757 0.5
783 27 0.37791 0.663953 0.5
883 35 0.359531 0.691552 0.5
11 36 0.393679 0.696924 0.5
732 29 0.409905 0.667113 0.5
117 31 0.447891 0.669592 0.5
246 33 0.429022 0.695699 0.5
45 29 0.46606 0.698375 0.5
371 29 0.481037 0.669165 0.5
388 27 0.512957 0.667059 0.5
152 33 0.499249 0.697372 0.5
800 24 0.531336 0.690785 0.5
184 27 0.545851 0.665495 0.5
771 26 0.576501 0.66549 0.5
198 34 0.561238 0.693109 0.5
42 39 0.612123 0.666598 0.5
209 27 0.59477 0.696931 0.5
560 29 0.628212 0.697257 0.5
311 28 0.649391 0.673365 0.5
691 37 0.670265 0.645216 0.5
297 30 0.682911 0.677027 0.5
678 30 0.662763 0.703484 0.5
908 23 0.703323 0.698379 0.5
904 33 0.716398 0.669595 0.5
573 30 0.7504 0.668967 0.5
64 31 0.73317 0.697971 0.5
870 30 0.784683 0.667814 0.5
110 30 0.815888 0.666591 0.5
195 36 0.767554 0.6984 0.5
599 33 0.805126 0.698028 0.5
918 38 0.86428 0.647289 0.5
635 24 0.848266 0.675315 0.5
878 32 0.878644 0.682028 0.5
142 31 0.897313 0.652421 0.5
759 35 0.931728 0.660509 0.5
669 38 0.912984 0.692575 0.5
675 28 0.96782 0.66357 0.5
240 29 0.946988 0.690661 0.5
514 26 0.985319 0.688982 0.5
546 32 0.00377572 0.715722 0.5
398 36 0.0351511 0.727964 0.5
351 31 0.0167065 0.755933 0.5
969 29 0.0579219 0.751492 0.5
827 39 0.105061 0.713392 0.5
495 32 0.0699317 0.716676 0.5
684 26 0.0897178 0.747002 0.5
617 33 0.178502 0.707576 0.5
439 28 0.142089 0.711216 0.5
204 33 0.160406 0.738788 0.5
342 38 0.124325 0.744817 0.5
475 27 0.209269 0.710201 0.5
714 29 0.193209 0.737313 0.5
610 30 0.225833 0.736887 0.5
205 28 0.239957 0.709184 0.5
10 29 0.271224 0.708658 0.5
594 33 0.257737 0.737797 0.5
116 24 0.289908 0.740125 0.5
970 24 0.239821 0.76442 0.5
956 33 0.305331 0.711514 0.5
300 35 0.338655 0.720151 0.5
129 35 0.317341 0.753512 0.5
86 30 0.374066 0.726088 0.5
82 33 0.352336 0.75195 0.5
32 23 0.392893 0.750701 0.5
220 30 0.412274 0.726144 0.5
286 31 0.446288 0.723837 0.5
13 31 0.422651 0.758747 0.5
291 27 0.457765 0.754366 0.5
755 26 0.511074 0.726552 0.5
235 34 0.479356 0.729195 0.5
890 33 0.53028 0.752084 0.5
604 23 0.499024 0.755869 0.5
507 29 0.540414 0.719141 0.5
226 31 0.573877 0.723289 0.5
321 31 0.563141 0.754556 0.5
108 33 0.607272 0.725861 0.5
899 24 0.63912 0.727037 0.5
758 24 0.594864 0.755564 0.5
454 31 0.626314 0.754721 0.5
602 26 0.687856 0.721744 0.5
347 42 0.663691 0.749277 0.5
415 25 0.699027 0.756519 0.5
163 26 0.716809 0.726551 0.5
774 33 0.7495 0.726875 0.5
810 31 0.731072 0.754831 0.5
997 34 0.764374 0.757344 0.5
254 32 0.784314 0.730938 0.5
392 30 0.816799 0.728207 0.5
853 21 0.795156 0.759635 0.5
200 34 0.843202 0.706998 0.5
285 30 0.876317 0.714657 0.5
153 36 0.853388 0.743062 0.5
654 26 0.823367 0.757806 0.5
695 23 0.906051 0.724026 0.5
463 27 0.934775 0.720482 0.5
435 25 0.886108 0.742643 0.5
839 28 0.917934 0.750558 0.5
98 34 0.969662 0.717278 0.5
842 28 0.987739 0.743467 0.5
630 31 0.954358 0.745772 0.5
579 28 0.040959 0.777025 0.5
489 23 0.0112515 0.785231 0.5
643 28 0.0292786 0.809713 0.5
237 34 0.0616726 0.804289 0.5
946 30 0.0775045 0.775597 0.5
19 29 0.109043 0.775259 0.5
131 28 0.0949489 0.804869 0.5
1 27 0.140656 0.774585 0.5
624 25 0.173723 0.768062 0.5
194 31 0.126932 0.803796 0.5
830 29 0.158198 0.801343 0.5
722 33 0.209258 0.766156 0.5
449 27 0.226562 0.795742 0.5
74 34 0.192152 0.794848 0.5
928 32 0.281087 0.769357 0.5
145 26 0.25775 0.789822 0.5
865 23 0.278809 0.810444 0.5
989 34 0.249045 0.821777 0.5
640 36 0.339756 0.782838 0.5
287 35 0.305255 0.794171 0.5
554 29 0.330953 0.816306 0.5
15 33 0.376169 0.776331 0.5
386 35 0.408656 0.789108 0.5
576 32 0.364597 0.808426 0.5
417 26 0.394806 0.819071 0.5
370 36 0.444773 0.786226 0.5
667 27 0.426766 0.81584 0.5
69 34 0.464381 0.816665 0.5
572 33 0.479262 0.77858 0.5
932 28 0.512582 0.78141 0.5
494 24 0.495435 0.806317 0.5
3 33 0.527602 0.809343 0.5
978 24 0.544115 0.78004 0.5
773 22 0.5768 0.782614 0.5
808 27 0.559674 0.807289 0.5
437 32 0.60806 0.783357 0.5
292 29 0.590331 0.810516 0.5
185 35 0.625805 0.811545 0.5
820 30 0.645609 0.781869 0.5
327 31 0.67931 0.781977 0.5
638 44 0.662874 0.814202 0.5
453 26 0.698068 0.817019 0.5
562 36 0.715606 0.784833 0.5
76 27 0.747727 0.785515 0.5
850 25 0.728508 0.816739 0.5
354 34 0.759992 0.815046 0.5
843 34 0.780737 0.787658 0.5
496 30 0.813642 0.787315 0.5
123 20 0.796258 0.813701 0.5
88 39 0.876327 0.774021 0.5
299 26 0.84342 0.781629 0.5
221 24 0.823742 0.81661 0.5
50 32 0.859499 0.808956 0.5
605 25 0.909801 0.779915 0.5
880 38 0.894533 0.807973 0.5
622 29 0.929315 0.810895 0.5
236 39 0.943843 0.779815 0.5
757 37 0.980685 0.777321 0.5
231 31 0.992758 0.809844 0.5
889 28 0.959709 0.811235 0.5
146 26 0.00997488 0.837684 0.5
223 21 0.0482796 0.831677 0.5
724 38 0.0344173 0.861949 0.5
207 31 0.0785809 0.835186 0.5
160 29 0.111519 0.833534 0.5
801 27 0.0697224 0.865084 0.5
747 25 0.0996162 0.863927 0.5
399 33 0.145831 0.831925 0.5
718 22 0.12737 0.858702 0.5
261 36 0.168528 0.856946 0.5
433 26 0.17853 0.824744 0.5
739 40 0.21238 0.826334 0.5
48 26 0.200761 0.856796 0.5
53 34 0.221239 0.880091 0.5
352 28 0.235896 0.852082 0.5
387 29 0.272793 0.845319 0.5
316 37 0.257732 0.878234 0.5
954 25 0.292149 0.88232 0.5
909 28 0.300858 0.829794 0.5
627 32 0.330015 0.848921 0.5
634 20 0.301668 0.857756 0.5
721 28 0.322054 0.879355 0.5
222 32 0.369505 0.8408 0.5
670 33 0.354857 0.873239 0.5
825 35 0.390054 0.868385 0.5
99 26 0.412549 0.842111 0.5
840 27 0.444166 0.842243 0.5
362 32 0.427761 0.869378 0.5
907 28 0.460054 0.868417 0.5
937 32 0.50409 0.838245 0.5
189 16 0.474518 0.844074 0.5
863 27 0.49134 0.867916 0.5
598 33 0.525606 0.865305 0.5
735 28 0.542895 0.837917 0.5
395 28 0.57672 0.839359 0.5
159 33 0.560526 0.867009 0.5
337 29 0.608329 0.839201 0.5
30 32 0.640736 0.84339 0.5
173 30 0.594291 0.868151 0.5
537 28 0.627353 0.871592 0.5
681 25 0.683322 0.84455 0.5
817 35 0.660902 0.870243 0.5
703 30 0.695395 0.872781 0.5
302 27 0.714154 0.844427 0.5
782 28 0.745849 0.845133 0.5
527 29 0.727752 0.872279 0.5
335 33 0.765514 0.871284 0.5
746 25 0.81409 0.843807 0.5
975 28 0.780174 0.841427 0.5
570 33 0.798084 0.873642 0.5
314 31 0.846063 0.838887 0.5
583 25 0.878191 0.836034 0.5
334 33 0.831442 0.873312 0.5
183 28 0.863883 0.866276 0.5
613 28 0.91253 0.836604 0.5
501 34 0.89704 0.866119 0.5
55 28 0.929116 0.866888 0.5
149 28 0.946307 0.838718 0.5
876 31 0.978414 0.838866 0.5
697 35 0.99629 0.867882 0.5
219 28 0.960323 0.866632 0.5
922 35 0.0193912 0.895095 0.5
642 31 0.0528263 0.892612 0.5
539 31 0.0329888 0.925913 0.5
328 24 0.0858834 0.890596 0.5
992 36 0.102973 0.917839 0.5
891 33 0.0669515 0.922415 0.5
894 28 0.119136 0.887384 0.5
552 30 0.153245 0.887299 0.5
213 31 0.138012 0.917098 0.5
947 33 0.171737 0.914902 0.5
518 30 0.187171 0.8857 0.5
315 29 0.20598 0.912426 0.5
828 29 0.191241 0.941176 0.5
455 31 0.224181 0.940212 0.5
659 34 0.239635 0.909227 0.5
903 31 0.274956 0.908493 0.5
320 33 0.259171 0.938534 0.5
284 34 0.340367 0.907688 0.5
462 29 0.306157 0.909429 0.5
247 25 0.291347 0.935368 0.5
218 24 0.323373 0.935375 0.5
535 26 0.375545 0.900116 0.5
391 26 0.361847 0.933228 0.5
731 34 0.393109 0.929192 0.5
419 33 0.409631 0.897803 0.5
717 30 0.445718 0.897328 0.5
547 33 0.426582 0.926488 0.5
657 26 0.460147 0.927925 0.5
304 28 0.477902 0.89661 0.5
523 23 0.511528 0.892314 0.5
78 22 0.489067 0.924953 0.5
268 41 0.522891 0.924669 0.5
525 27 0.576963 0.896027 0.5
230 31 0.543356 0.895357 0.5
982 32 0.558618 0.928462 0.5
366 29 0.608857 0.89809 0.5
150 37 0.594496 0.927597 0.5
355 31 0.629705 0.930297 0.5
979 34 0.643609 0.901044 0.5
741 33 0.678233 0.899939 0.5
836 29 0.661597 0.929111 0.5
52 36 0.696048 0.929024 0.5
708 27 0.712456 0.898965 0.5
373 34 0.745608 0.901993 0.5
482 30 0.729706 0.932416 0.5
147 30 0.764573 0.936829 0.5
56 28 0.779861 0.90293 0.5
945 34 0.814381 0.90264 0.5
858 32 0.795958 0.932024 0.5
75 23 0.84831 0.898653 0.5
258 37 0.864364 0.925963 0.5
483 28 0.829138 0.930927 0.5
588 27 0.881358 0.894613 0.5
134 33 0.916126 0.895683 0.5
436 31 0.899497 0.926888 0.5
396 31 0.932782 0.927703 0.5
710 36 0.998965 0.925556 0.5
238 26 0.98184 0.897638 0.5
308 27 0.95011 0.896125 0.5
38 29 0.96444 0.925688 0.5
193 28 0.0303659 0.983025 0.5
143 30 0.0156245 0.954475 0.5
262 32 0.0496643 0.955117 0.5
161 28 0.000107299 0.982214 0.5
516 38 0.0724081 0.979985 0.5
811 27 0.106295 0.97978 0.5
505 32 0.086839 0.948449 0.5
510 34 0.139597 0.974573 0.5
647 30 0.119245 0.948483 0.5
248 26 0.154441 0.943235 0.5
459 35 0.172659 0.970626 0.5
279 32 0.227512 0.999011 0.5
775 33 0.209129 0.970369 0.5
809 27 0.261021 0.995264 0.5
461 32 0.243376 0.968121 0.5
819 30 0.276292 0.967829 0.5
639 23 0.2914 0.994789 0.5
559 32 0.326929 0.98759 0.5
330 28 0.308615 0.961172 0.5
61 32 0.344435 0.95769 0.5
743 32 0.362582 0.985397 0.5
58 28 0.395497 0.985043 0.5
509 27 0.379032 0.958064 0.5
650 29 0.411223 0.956617 0.5
451 32 0.428206 0.986285 0.5
921 36 0.462673 0.98488 0.5
467 31 0.444782 0.954712 0.5
256 33 0.496582 0.985879 0.5
122 30 0.513636 0.957995 0.5
5 33 0.479302 0.954397 0.5
59 25 0.528071 0.986107 0.5
629 26 0.567749 0.985514 0.5
444 33 0.547067 0.959251 0.5
752 27 0.579464 0.957727 0.5
609 30 0.599421 0.987167 0.5
551 30 0.630485 0.98662 0.5
253 30 0.613529 0.95827 0.5
520 31 0.648595 0.958988 0.5
484 33 0.66602 0.989738 0.5
558 31 0.699011 0.989677 0.5
898 28 0.681198 0.960814 0.5
924 26 0.730055 0.990484 0.5
660 28 0.714943 0.961029 0.5
229 32 0.747258 0.963557 0.5
139 29 0.765211 0.991717 0.5
676 31 0.79697 0.99239 0.5
719 24 0.781472 0.963765 0.5
955 28 0.812736 0.962817 0.5
63 29 0.866764 0.987855 0.5
940 28 0.832579 0.991489 0.5
990 38 0.847877 0.959481 0.5
663 32 0.88289 0.956358 0.5
378 31 0.899842 0.986859 0.5
931 30 0.933134 0.983413 0.5
689 30 0.915681 0.956612 0.5
905 30 0.965989 0.982177 0.5
780 29 0.950424 0.955104 0.5
515 29 0.982691 0.955451 0.5
