ITEM: TIMESTEP
1750000
ITEM: NUMBER OF ATOMS
1000
ITEM: BOX BOUNDS pp pp pp
-1.5958665000000000e+01 1.5958665000000000e+01
-1.5958665000000000e+01 1.5958665000000000e+01
-5.0000000000000000e-01 5.0000000000000000e-01
ITEM: ATOMS id type xs ys zs
920 29 0.0133789 0.0398091 0.5
644 30 0.0392142 0.0189446 0.5
249 33 0.0449774 0.0527752 0.5
332 27 0.0181525 0.0719759 0.5
182 32 0.0719261 0.0297788 0.5
379 27 0.102494 0.0374826 0.5
700 27 0.0753883 0.06159 0.5
242 35 0.107785 0.0689983 0.5
89 30 0.127185 0.0157855 0.5
905 30 0.161026 0.0281727 0.5
262 32 0.134864 0.0473457 0.5
873 32 0.166733 0.0611634 0.5
516 39 0.194245 0.039735 0.5
143 30 0.216166 0.0140719 0.5
328 24 0.223335 0.0561576 0.5
697 35 0.246292 0.0317316 0.5
224 30 0.277195 0.0433099 0.5
964 33 0.25356 0.0667575 0.5
298 37 0.305221 0.0247489 0.5
227 31 0.337398 0.036724 0.5
81 28 0.312756 0.0584574 0.5
215 28 0.343554 0.0694222 0.5
255 29 0.365974 0.0143757 0.5
257 33 0.39651 0.0274709 0.5
316 37 0.369393 0.0488163 0.5
247 25 0.400572 0.0606269 0.5
189 15 0.448436 0.0216574 0.5
577 36 0.428739 0.0418198 0.5
442 34 0.466358 0.0492306 0.5
984 32 0.475926 0.0156677 0.5
860 30 0.506385 0.0265972 0.5
279 32 0.501628 0.0594828 0.5
738 32 0.535534 0.0415198 0.5
203 38 0.566159 0.0223258 0.5
921 36 0.566362 0.0588411 0.5
467 31 0.595469 0.0409388 0.5
825 35 0.624715 0.0214348 0.5
682 35 0.626107 0.0565565 0.5
808 27 0.657003 0.0372861 0.5
537 27 0.684722 0.0211566 0.5
509 27 0.684132 0.0533102 0.5
930 26 0.712714 0.0345895 0.5
250 30 0.739755 0.0180903 0.5
253 30 0.743939 0.048917 0.5
961 30 0.713297 0.0651334 0.5
773 22 0.77031 0.0333154 0.5
749 28 0.801225 0.0169389 0.5
243 33 0.796064 0.0491445 0.5
138 31 0.829454 0.0327393 0.5
591 26 0.858063 0.01583 0.5
561 31 0.825643 0.0649971 0.5
164 33 0.859017 0.0488901 0.5
241 33 0.892363 0.0327707 0.5
583 25 0.926065 0.0317656 0.5
990 39 0.924204 0.064805 0.5
588 27 0.950244 0.0142851 0.5
139 29 0.980773 0.0279279 0.5
924 26 0.952639 0.0452668 0.5
528 33 0.98588 0.0634365 0.5
943 42 0.0498477 0.092327 0.5
68 31 0.021723 0.114015 0.5
115 24 0.0835854 0.0902793 0.5
272 36 0.111348 0.106659 0.5
63 29 0.0792471 0.119358 0.5
710 36 0.13976 0.0844928 0.5
34 31 0.171823 0.0958889 0.5
210 28 0.144401 0.118629 0.5
538 33 0.198268 0.0748917 0.5
505 32 0.228012 0.0895069 0.5
685 30 0.200792 0.110288 0.5
367 28 0.234974 0.120717 0.5
193 28 0.259805 0.0988588 0.5
712 29 0.285975 0.0740279 0.5
511 37 0.293233 0.106107 0.5
172 22 0.321776 0.0897334 0.5
775 33 0.351846 0.101204 0.5
488 26 0.325078 0.119283 0.5
37 29 0.378051 0.0807695 0.5
487 30 0.410665 0.0911596 0.5
513 28 0.385459 0.110888 0.5
61 32 0.440712 0.0738989 0.5
167 27 0.448679 0.104696 0.5
819 30 0.422256 0.122479 0.5
455 31 0.473268 0.0832061 0.5
168 36 0.505911 0.0936979 0.5
753 32 0.480041 0.116718 0.5
14 29 0.535273 0.0748737 0.5
230 31 0.567732 0.0916836 0.5
414 34 0.538513 0.109169 0.5
896 30 0.569537 0.124548 0.5
525 26 0.596 0.0733696 0.5
934 26 0.597349 0.105467 0.5
900 26 0.62494 0.0898487 0.5
763 34 0.63031 0.121155 0.5
649 35 0.657169 0.0728074 0.5
831 29 0.690131 0.0859173 0.5
835 33 0.662827 0.107488 0.5
178 24 0.692444 0.11804 0.5
102 23 0.740021 0.0780706 0.5
107 30 0.75707 0.100844 0.5
444 33 0.719983 0.102317 0.5
390 32 0.769941 0.0703708 0.5
75 22 0.797656 0.0812404 0.5
609 30 0.82303 0.0980341 0.5
312 37 0.790644 0.112859 0.5
582 29 0.852359 0.0841954 0.5
408 28 0.878437 0.101777 0.5
963 27 0.852124 0.117165 0.5
301 35 0.886885 0.0688777 0.5
356 25 0.907454 0.094683 0.5
569 33 0.938718 0.0982235 0.5
158 34 0.915933 0.12684 0.5
838 24 0.997697 0.0937342 0.5
499 20 0.956264 0.0732535 0.5
340 23 0.970296 0.0975084 0.5
208 31 0.989782 0.122605 0.5
310 33 0.957779 0.125625 0.5
378 31 0.0490604 0.131397 0.5
676 31 0.0114716 0.150751 0.5
677 38 0.0427878 0.167691 0.5
346 29 0.075536 0.15227 0.5
393 38 0.114586 0.143307 0.5
350 18 0.0980063 0.169326 0.5
938 24 0.0739107 0.183096 0.5
33 30 0.149713 0.149282 0.5
976 23 0.174442 0.128741 0.5
614 29 0.181351 0.160835 0.5
648 26 0.12487 0.175662 0.5
733 37 0.156497 0.183771 0.5
846 33 0.209694 0.14292 0.5
24 30 0.219198 0.176858 0.5
290 31 0.242693 0.153322 0.5
694 31 0.267543 0.130396 0.5
260 29 0.273269 0.164247 0.5
18 40 0.300519 0.142667 0.5
180 32 0.334769 0.150646 0.5
754 31 0.302292 0.177815 0.5
517 35 0.335292 0.185659 0.5
996 27 0.3615 0.13248 0.5
280 37 0.394755 0.143098 0.5
469 36 0.365469 0.16518 0.5
953 29 0.397337 0.176385 0.5
273 28 0.423626 0.159237 0.5
852 33 0.452318 0.13644 0.5
71 34 0.456278 0.170063 0.5
927 32 0.510618 0.130494 0.5
58 28 0.482954 0.149254 0.5
536 28 0.512363 0.163156 0.5
592 25 0.486743 0.181758 0.5
769 29 0.541228 0.14335 0.5
430 33 0.571393 0.15768 0.5
701 37 0.543323 0.178153 0.5
898 28 0.599877 0.136116 0.5
629 26 0.625762 0.152376 0.5
699 24 0.600896 0.167503 0.5
445 35 0.640342 0.180411 0.5
824 31 0.656319 0.145179 0.5
715 24 0.688298 0.14503 0.5
464 30 0.674527 0.173303 0.5
413 27 0.705368 0.168774 0.5
551 30 0.718375 0.137249 0.5
798 34 0.752257 0.133958 0.5
358 28 0.737275 0.163764 0.5
211 20 0.768138 0.160861 0.5
994 28 0.793121 0.147189 0.5
214 33 0.821947 0.131534 0.5
704 34 0.8207 0.166476 0.5
752 27 0.790332 0.180692 0.5
603 29 0.850546 0.149307 0.5
485 34 0.88054 0.135625 0.5
795 35 0.874663 0.171443 0.5
912 37 0.940069 0.155394 0.5
797 31 0.905958 0.16057 0.5
530 29 0.928325 0.187903 0.5
229 32 0.976798 0.154913 0.5
106 21 0.991699 0.179522 0.5
768 31 0.960942 0.184538 0.5
859 38 0.018904 0.197127 0.5
589 25 0.0505668 0.201517 0.5
615 28 0.013702 0.232626 0.5
857 38 0.0468696 0.234464 0.5
456 31 0.077216 0.216947 0.5
933 29 0.101574 0.197445 0.5
574 23 0.106655 0.227452 0.5
377 27 0.130942 0.208472 0.5
202 37 0.162947 0.220302 0.5
849 35 0.133913 0.242485 0.5
770 40 0.190917 0.197195 0.5
886 28 0.223777 0.210811 0.5
705 29 0.196114 0.231291 0.5
766 29 0.227142 0.24193 0.5
80 30 0.249274 0.187254 0.5
245 23 0.278627 0.200409 0.5
939 36 0.2557 0.221656 0.5
673 27 0.286044 0.232705 0.5
813 30 0.309596 0.210054 0.5
597 25 0.339743 0.219473 0.5
823 29 0.31549 0.242643 0.5
809 27 0.365942 0.198156 0.5
608 30 0.396936 0.207281 0.5
28 27 0.370924 0.229098 0.5
169 22 0.398768 0.236363 0.5
54 29 0.427822 0.19118 0.5
385 31 0.457402 0.203209 0.5
389 38 0.429383 0.226352 0.5
848 29 0.461813 0.23589 0.5
991 32 0.515237 0.199295 0.5
325 32 0.4886 0.21862 0.5
409 30 0.517731 0.235604 0.5
181 31 0.543769 0.214855 0.5
957 35 0.576385 0.192232 0.5
31 24 0.572167 0.224416 0.5
493 26 0.609791 0.194217 0.5
104 26 0.632048 0.215157 0.5
114 26 0.602739 0.222545 0.5
425 32 0.662578 0.206202 0.5
372 27 0.694375 0.197935 0.5
950 31 0.6544 0.237517 0.5
871 29 0.686459 0.229176 0.5
492 38 0.726995 0.195528 0.5
845 28 0.751308 0.219319 0.5
580 28 0.760241 0.188291 0.5
646 28 0.720274 0.228582 0.5
637 28 0.783311 0.211178 0.5
57 32 0.814312 0.202074 0.5
174 31 0.775011 0.242388 0.5
305 30 0.807233 0.234036 0.5
737 34 0.845855 0.189809 0.5
832 40 0.874863 0.212705 0.5
742 31 0.840579 0.2244 0.5
91 25 0.862344 0.248389 0.5
360 19 0.899483 0.189811 0.5
744 33 0.911124 0.216873 0.5
568 31 0.892334 0.244058 0.5
779 36 0.946605 0.217161 0.5
571 41 0.984364 0.211815 0.5
653 25 0.98643 0.246622 0.5
382 37 0.0105364 0.267597 0.5
611 35 0.0490502 0.27177 0.5
829 25 0.0258456 0.295775 0.5
618 35 0.0572199 0.306723 0.5
879 33 0.0796068 0.250938 0.5
803 31 0.109752 0.26757 0.5
365 28 0.0816892 0.284451 0.5
698 22 0.113001 0.298683 0.5
806 28 0.14145 0.275234 0.5
170 33 0.17038 0.254094 0.5
155 30 0.172194 0.286536 0.5
596 28 0.201707 0.264201 0.5
171 33 0.23311 0.273984 0.5
672 31 0.204042 0.295954 0.5
736 26 0.260773 0.256011 0.5
87 29 0.290523 0.264411 0.5
120 30 0.265461 0.287061 0.5
706 32 0.323184 0.274622 0.5
851 31 0.346674 0.250628 0.5
448 32 0.354967 0.282766 0.5
376 39 0.299787 0.302161 0.5
429 27 0.377505 0.258686 0.5
995 26 0.40873 0.262952 0.5
802 35 0.390739 0.288778 0.5
405 29 0.438873 0.259162 0.5
216 40 0.461666 0.284158 0.5
403 26 0.426181 0.288105 0.5
144 33 0.48805 0.256768 0.5
374 34 0.520417 0.271266 0.5
935 26 0.495463 0.289503 0.5
607 36 0.550429 0.251734 0.5
440 38 0.588588 0.253556 0.5
841 31 0.549377 0.288648 0.5
834 31 0.582145 0.287993 0.5
274 28 0.6227 0.247011 0.5
263 29 0.64491 0.269269 0.5
914 26 0.61361 0.279469 0.5
434 25 0.635588 0.299483 0.5
103 32 0.679051 0.261223 0.5
4 32 0.667141 0.294202 0.5
874 37 0.700948 0.28947 0.5
72 26 0.711307 0.257075 0.5
508 28 0.741962 0.250836 0.5
761 29 0.766567 0.274427 0.5
944 29 0.733609 0.28196 0.5
452 33 0.799361 0.266026 0.5
788 33 0.791337 0.29903 0.5
887 32 0.831881 0.256392 0.5
540 34 0.863203 0.281302 0.5
402 36 0.827624 0.289881 0.5
307 32 0.925027 0.246147 0.5
317 36 0.903784 0.277106 0.5
745 34 0.940032 0.276204 0.5
363 26 0.957232 0.24863 0.5
855 31 0.975918 0.277055 0.5
529 29 0.0293535 0.326049 0.5
416 33 0.0337746 0.361764 0.5
661 30 0.00373763 0.344878 0.5
729 24 0.0589932 0.339052 0.5
762 32 0.0896688 0.318097 0.5
244 29 0.119407 0.330042 0.5
85 24 0.0962744 0.349385 0.5
141 32 0.143873 0.307503 0.5
923 33 0.175745 0.319502 0.5
936 25 0.150911 0.340171 0.5
776 31 0.126064 0.361271 0.5
662 32 0.20972 0.329845 0.5
199 35 0.236643 0.308698 0.5
345 32 0.183578 0.352446 0.5
686 30 0.215832 0.362854 0.5
751 25 0.240527 0.34176 0.5
66 31 0.268546 0.321013 0.5
259 21 0.296357 0.334858 0.5
313 33 0.271258 0.354651 0.5
130 28 0.334392 0.306662 0.5
756 28 0.324105 0.337508 0.5
966 26 0.302731 0.363739 0.5
124 28 0.353935 0.344737 0.5
239 35 0.367332 0.314459 0.5
132 31 0.410086 0.316914 0.5
293 35 0.388402 0.343075 0.5
140 30 0.442312 0.315881 0.5
564 27 0.423052 0.345323 0.5
96 30 0.45804 0.345731 0.5
621 28 0.477099 0.317444 0.5
888 28 0.508301 0.31794 0.5
794 31 0.491387 0.345603 0.5
902 30 0.523836 0.346425 0.5
671 26 0.53966 0.319551 0.5
856 28 0.571467 0.318038 0.5
400 34 0.557414 0.348842 0.5
457 36 0.605535 0.313557 0.5
847 37 0.591999 0.34751 0.5
707 43 0.630421 0.346353 0.5
424 24 0.655726 0.322738 0.5
348 28 0.686599 0.321953 0.5
497 32 0.669737 0.35291 0.5
665 40 0.705868 0.355014 0.5
90 38 0.720311 0.320709 0.5
265 40 0.756171 0.308783 0.5
645 32 0.74924 0.345036 0.5
666 32 0.782262 0.333057 0.5
658 35 0.81548 0.323106 0.5
121 32 0.804823 0.357157 0.5
799 28 0.851326 0.315314 0.5
821 27 0.874891 0.341139 0.5
176 32 0.841453 0.346804 0.5
12 34 0.884954 0.309776 0.5
443 28 0.922438 0.305141 0.5
44 33 0.908856 0.335804 0.5
165 23 0.93919 0.329163 0.5
652 40 0.994642 0.309817 0.5
270 31 0.958977 0.304211 0.5
283 36 0.969906 0.338062 0.5
418 34 0.0353085 0.39682 0.5
983 31 0.00224862 0.378767 0.5
6 16 0.00638438 0.40673 0.5
27 33 0.0695231 0.367249 0.5
233 27 0.0682924 0.399578 0.5
901 36 0.0998753 0.388143 0.5
97 24 0.1573 0.370846 0.5
781 29 0.133834 0.393749 0.5
2 29 0.16346 0.401765 0.5
480 26 0.187211 0.38339 0.5
369 34 0.219039 0.395934 0.5
534 33 0.192207 0.417986 0.5
837 32 0.247364 0.376241 0.5
427 31 0.280029 0.388413 0.5
407 27 0.256284 0.410137 0.5
548 36 0.287793 0.422761 0.5
628 31 0.334424 0.369933 0.5
252 35 0.313922 0.398029 0.5
881 27 0.349011 0.39835 0.5
555 30 0.368895 0.37284 0.5
875 33 0.404126 0.374251 0.5
786 37 0.383619 0.404122 0.5
162 32 0.439059 0.372865 0.5
84 27 0.422994 0.400531 0.5
690 27 0.45424 0.403022 0.5
785 33 0.473987 0.375164 0.5
651 25 0.507811 0.374565 0.5
815 30 0.493694 0.402965 0.5
303 29 0.526327 0.409535 0.5
36 36 0.540349 0.379205 0.5
73 31 0.575077 0.379403 0.5
105 31 0.560667 0.409322 0.5
368 33 0.610855 0.378565 0.5
251 32 0.647919 0.379257 0.5
333 30 0.592857 0.407314 0.5
734 32 0.62712 0.408079 0.5
674 28 0.682557 0.382954 0.5
626 34 0.662729 0.410733 0.5
500 40 0.69942 0.418579 0.5
581 24 0.712551 0.388255 0.5
21 31 0.74423 0.377698 0.5
892 24 0.768364 0.400078 0.5
421 34 0.736096 0.410337 0.5
94 25 0.773113 0.367795 0.5
566 31 0.797884 0.389344 0.5
125 30 0.790651 0.421846 0.5
952 33 0.830018 0.380898 0.5
329 34 0.863696 0.371999 0.5
988 21 0.851515 0.40101 0.5
206 31 0.823287 0.41455 0.5
521 32 0.883506 0.40139 0.5
557 36 0.898984 0.368927 0.5
289 23 0.915511 0.395741 0.5
679 41 0.937234 0.36374 0.5
381 32 0.947268 0.39972 0.5
353 29 0.970517 0.371632 0.5
156 25 0.979166 0.400253 0.5
625 32 0.0239032 0.430137 0.5
375 30 0.0565677 0.428561 0.5
519 25 0.0411828 0.45688 0.5
364 32 0.00927539 0.460909 0.5
41 31 0.0890109 0.42359 0.5
544 28 0.0707184 0.458317 0.5
822 34 0.104422 0.456456 0.5
545 37 0.125139 0.426416 0.5
960 39 0.161411 0.43586 0.5
428 28 0.137318 0.461268 0.5
807 24 0.167601 0.468769 0.5
288 35 0.195055 0.452823 0.5
326 41 0.22705 0.432158 0.5
586 41 0.228791 0.471711 0.5
336 35 0.261311 0.446069 0.5
542 32 0.295003 0.457295 0.5
196 31 0.269731 0.480548 0.5
917 38 0.324407 0.436391 0.5
720 29 0.357047 0.427114 0.5
750 32 0.354944 0.459599 0.5
687 33 0.324239 0.474141 0.5
812 27 0.382862 0.443621 0.5
967 25 0.40771 0.42573 0.5
897 31 0.411176 0.456674 0.5
787 27 0.383429 0.473419 0.5
51 31 0.437245 0.431282 0.5
728 33 0.472372 0.428804 0.5
331 27 0.45638 0.455818 0.5
885 25 0.435551 0.475018 0.5
201 33 0.50633 0.434919 0.5
556 29 0.487597 0.461236 0.5
965 30 0.520322 0.466756 0.5
977 35 0.541731 0.438737 0.5
296 30 0.576997 0.437228 0.5
175 42 0.554964 0.475338 0.5
357 36 0.592457 0.467462 0.5
664 31 0.611024 0.437524 0.5
593 25 0.644209 0.438685 0.5
491 30 0.627888 0.46585 0.5
77 21 0.673874 0.438917 0.5
476 23 0.697383 0.452948 0.5
893 30 0.661355 0.465454 0.5
101 28 0.727887 0.443327 0.5
866 29 0.758881 0.434144 0.5
278 33 0.71795 0.474918 0.5
309 33 0.752756 0.46802 0.5
531 27 0.782244 0.452353 0.5
478 29 0.813151 0.445872 0.5
383 35 0.819744 0.480076 0.5
217 32 0.862818 0.42867 0.5
431 31 0.8438 0.4556 0.5
70 28 0.876863 0.458636 0.5
177 25 0.893665 0.432312 0.5
225 34 0.924403 0.426689 0.5
267 27 0.908965 0.459923 0.5
166 30 0.939759 0.459034 0.5
100 33 0.989981 0.431196 0.5
426 24 0.957349 0.430964 0.5
35 36 0.973956 0.460621 0.5
39 27 0.0218236 0.490802 0.5
606 34 0.0535685 0.486837 0.5
119 29 0.0379344 0.518202 0.5
471 25 0.0064237 0.518076 0.5
575 32 0.0714789 0.515793 0.5
716 30 0.0886564 0.484514 0.5
135 29 0.104147 0.512618 0.5
973 23 0.12001 0.48605 0.5
971 21 0.148137 0.487644 0.5
723 29 0.167806 0.509493 0.5
632 30 0.13615 0.514348 0.5
26 38 0.193634 0.489147 0.5
533 34 0.215354 0.516679 0.5
929 33 0.187232 0.537536 0.5
188 31 0.245786 0.503259 0.5
636 23 0.298323 0.491068 0.5
234 33 0.276556 0.515272 0.5
179 31 0.24555 0.535347 0.5
600 35 0.324381 0.50992 0.5
792 31 0.353719 0.493222 0.5
111 29 0.302867 0.535163 0.5
882 35 0.355825 0.52807 0.5
563 35 0.384393 0.506602 0.5
8 26 0.41176 0.49161 0.5
232 28 0.416386 0.522641 0.5
668 24 0.441311 0.505321 0.5
532 29 0.464362 0.485773 0.5
92 28 0.472993 0.516456 0.5
928 32 0.446858 0.536027 0.5
458 36 0.497647 0.493503 0.5
709 30 0.52926 0.504453 0.5
65 31 0.503589 0.527943 0.5
616 30 0.561706 0.511481 0.5
361 33 0.535726 0.537377 0.5
692 28 0.591377 0.51816 0.5
228 28 0.6113 0.493926 0.5
949 34 0.645165 0.495313 0.5
620 28 0.625816 0.522966 0.5
349 39 0.682509 0.492338 0.5
814 31 0.661537 0.523919 0.5
404 31 0.693992 0.531252 0.5
412 29 0.714076 0.507141 0.5
42 39 0.7481 0.503412 0.5
133 32 0.726952 0.535819 0.5
587 35 0.782944 0.48538 0.5
1000 35 0.810944 0.514029 0.5
112 26 0.778716 0.517224 0.5
727 35 0.856567 0.487296 0.5
805 28 0.843701 0.518906 0.5
282 28 0.875213 0.517334 0.5
47 31 0.890656 0.488898 0.5
264 31 0.924484 0.489576 0.5
980 28 0.907306 0.518007 0.5
17 27 0.9392 0.518037 0.5
438 28 0.991294 0.489775 0.5
277 27 0.957047 0.489396 0.5
136 36 0.973294 0.519483 0.5
553 32 0.0222418 0.546872 0.5
191 36 0.0569963 0.546855 0.5
911 29 0.0382032 0.575326 0.5
110 30 0.00606955 0.576344 0.5
341 26 0.0889458 0.543335 0.5
862 25 0.1014 0.570846 0.5
818 26 0.120242 0.539864 0.5
633 30 0.071017 0.577228 0.5
713 36 0.153734 0.544001 0.5
212 25 0.13004 0.567199 0.5
22 33 0.124976 0.599361 0.5
503 36 0.159236 0.581472 0.5
465 28 0.189545 0.570057 0.5
186 31 0.216721 0.553659 0.5
641 30 0.217944 0.587628 0.5
972 29 0.247006 0.568626 0.5
826 30 0.274343 0.550862 0.5
789 28 0.273786 0.584298 0.5
748 34 0.302318 0.56908 0.5
422 30 0.33092 0.54992 0.5
541 32 0.333379 0.583477 0.5
951 30 0.361566 0.565036 0.5
7 34 0.38884 0.542041 0.5
985 25 0.392875 0.575129 0.5
550 26 0.361218 0.596996 0.5
154 29 0.419531 0.557253 0.5
594 33 0.449567 0.569089 0.5
702 28 0.422012 0.588333 0.5
116 24 0.477969 0.548448 0.5
226 31 0.506906 0.560272 0.5
543 33 0.481498 0.582944 0.5
275 32 0.513346 0.597586 0.5
740 33 0.569649 0.544893 0.5
384 40 0.543284 0.573231 0.5
126 31 0.584346 0.574708 0.5
62 29 0.603884 0.547393 0.5
560 29 0.642338 0.550745 0.5
504 38 0.619636 0.576554 0.5
406 30 0.673045 0.556953 0.5
128 31 0.704546 0.562312 0.5
864 25 0.653269 0.581424 0.5
619 32 0.684301 0.590452 0.5
767 38 0.738699 0.569712 0.5
688 27 0.758919 0.540867 0.5
549 30 0.717633 0.596018 0.5
157 32 0.773585 0.570344 0.5
9 28 0.79442 0.544822 0.5
23 28 0.825309 0.545937 0.5
772 32 0.807703 0.573765 0.5
46 33 0.85914 0.547763 0.5
870 30 0.841375 0.57836 0.5
974 26 0.872884 0.577738 0.5
590 25 0.891825 0.544667 0.5
585 32 0.922838 0.546517 0.5
338 29 0.902797 0.575887 0.5
584 26 0.938116 0.575031 0.5
916 26 0.989659 0.548547 0.5
578 29 0.95528 0.548049 0.5
137 33 0.972156 0.576089 0.5
725 37 0.025505 0.60753 0.5
294 30 0.0611191 0.608946 0.5
343 33 0.0412475 0.638073 0.5
601 31 0.00606696 0.638784 0.5
777 27 0.0916422 0.60128 0.5
95 32 0.108442 0.629243 0.5
906 37 0.076219 0.640998 0.5
962 44 0.156643 0.620489 0.5
579 28 0.133608 0.649235 0.5
187 33 0.163946 0.658199 0.5
793 29 0.189828 0.603329 0.5
959 27 0.219169 0.620761 0.5
512 31 0.191186 0.63663 0.5
830 29 0.222401 0.652657 0.5
631 30 0.246263 0.60167 0.5
524 33 0.277141 0.617003 0.5
680 29 0.248143 0.634814 0.5
447 36 0.276167 0.651606 0.5
783 26 0.307409 0.603471 0.5
925 24 0.33531 0.615273 0.5
60 27 0.304647 0.634326 0.5
441 30 0.334686 0.647141 0.5
45 28 0.362031 0.628517 0.5
40 38 0.392202 0.607431 0.5
287 35 0.397349 0.645128 0.5
475 26 0.453667 0.600772 0.5
410 39 0.427467 0.622428 0.5
286 31 0.457708 0.641065 0.5
423 33 0.48178 0.616776 0.5
506 36 0.513114 0.635316 0.5
958 24 0.486226 0.655009 0.5
765 25 0.566144 0.598742 0.5
732 28 0.542336 0.616234 0.5
948 36 0.5719 0.631352 0.5
883 35 0.54405 0.652341 0.5
11 36 0.598739 0.606749 0.5
306 27 0.632076 0.607832 0.5
758 23 0.637786 0.636006 0.5
300 36 0.605497 0.644956 0.5
411 31 0.662538 0.615352 0.5
347 43 0.697527 0.628499 0.5
371 29 0.665635 0.648873 0.5
910 30 0.735729 0.623246 0.5
730 31 0.757223 0.598326 0.5
771 26 0.723225 0.650812 0.5
595 35 0.770203 0.630018 0.5
83 31 0.789723 0.600802 0.5
322 24 0.802038 0.629479 0.5
118 27 0.821 0.607053 0.5
323 30 0.79129 0.657529 0.5
311 28 0.851351 0.608744 0.5
904 34 0.834331 0.637703 0.5
43 34 0.869873 0.637105 0.5
711 34 0.887465 0.607072 0.5
981 30 0.921625 0.604037 0.5
784 28 0.904597 0.633681 0.5
474 28 0.937197 0.634289 0.5
999 36 0.989562 0.606951 0.5
522 35 0.954607 0.605613 0.5
853 21 0.97295 0.634176 0.5
968 37 0.0272931 0.669955 0.5
918 38 0.0420089 0.704817 0.5
546 32 0.00574179 0.698494 0.5
109 41 0.0695246 0.67908 0.5
946 30 0.103523 0.664066 0.5
207 31 0.10124 0.698481 0.5
696 28 0.130581 0.680011 0.5
764 36 0.162197 0.693144 0.5
869 32 0.133003 0.712194 0.5
872 38 0.195257 0.672858 0.5
450 25 0.222776 0.691189 0.5
790 32 0.192927 0.707559 0.5
913 29 0.247809 0.672304 0.5
833 32 0.277895 0.685407 0.5
854 28 0.249661 0.704261 0.5
791 27 0.306141 0.666106 0.5
151 37 0.336108 0.681063 0.5
359 33 0.307779 0.701784 0.5
460 34 0.336944 0.718031 0.5
129 36 0.367064 0.662099 0.5
204 34 0.398089 0.679453 0.5
714 29 0.365491 0.69821 0.5
29 29 0.393028 0.715064 0.5
13 31 0.429293 0.658364 0.5
722 33 0.459519 0.673838 0.5
20 34 0.430593 0.692524 0.5
942 26 0.460021 0.707371 0.5
266 34 0.513618 0.670888 0.5
693 29 0.487254 0.691121 0.5
235 35 0.517707 0.707135 0.5
386 36 0.547047 0.686809 0.5
446 29 0.576537 0.665453 0.5
796 27 0.579348 0.700167 0.5
394 30 0.604929 0.680356 0.5
297 30 0.634931 0.66503 0.5
246 33 0.635454 0.697885 0.5
470 30 0.607104 0.715558 0.5
602 26 0.663848 0.68157 0.5
79 37 0.694929 0.668485 0.5
479 22 0.694303 0.70143 0.5
321 31 0.665787 0.714253 0.5
573 30 0.726672 0.681999 0.5
691 37 0.756205 0.663325 0.5
281 26 0.753369 0.698898 0.5
198 35 0.723125 0.714626 0.5
432 29 0.780871 0.686874 0.5
816 32 0.821597 0.66988 0.5
454 32 0.809168 0.702366 0.5
635 24 0.851502 0.665997 0.5
318 35 0.874167 0.689456 0.5
496 30 0.84127 0.696907 0.5
123 20 0.862379 0.716598 0.5
760 27 0.892042 0.662442 0.5
654 26 0.922686 0.662034 0.5
295 33 0.90806 0.69074 0.5
778 25 0.939253 0.687573 0.5
271 30 0.990647 0.666729 0.5
861 34 0.956866 0.660501 0.5
867 36 0.970683 0.695792 0.5
269 31 0.0160203 0.729671 0.5
675 28 0.0454943 0.741047 0.5
612 27 0.0190727 0.761311 0.5
495 32 0.0504872 0.772844 0.5
643 28 0.0739678 0.715809 0.5
684 26 0.10678 0.730416 0.5
868 37 0.0786596 0.749733 0.5
839 28 0.110254 0.765193 0.5
237 34 0.136301 0.745656 0.5
231 31 0.165137 0.728104 0.5
624 25 0.166925 0.760049 0.5
472 27 0.194119 0.740376 0.5
1 26 0.221271 0.72137 0.5
477 31 0.222748 0.756804 0.5
468 27 0.194807 0.771486 0.5
190 38 0.250782 0.738942 0.5
351 31 0.280416 0.720275 0.5
131 28 0.2832 0.752631 0.5
724 39 0.25473 0.775275 0.5
19 28 0.310024 0.736344 0.5
401 25 0.340286 0.750546 0.5
552 30 0.31214 0.768767 0.5
907 27 0.366079 0.733412 0.5
82 33 0.397692 0.746823 0.5
10 29 0.369668 0.764281 0.5
74 34 0.423635 0.726144 0.5
739 41 0.455795 0.741961 0.5
48 26 0.426747 0.762478 0.5
667 27 0.487161 0.722963 0.5
152 34 0.520095 0.741533 0.5
640 36 0.48771 0.758085 0.5
291 27 0.516723 0.773399 0.5
388 27 0.547902 0.720569 0.5
117 31 0.578504 0.733098 0.5
127 24 0.550677 0.751466 0.5
370 36 0.578298 0.769194 0.5
481 30 0.637419 0.733273 0.5
956 33 0.608302 0.750578 0.5
507 29 0.64059 0.766479 0.5
932 27 0.665506 0.745642 0.5
184 27 0.694511 0.731045 0.5
638 45 0.693338 0.76596 0.5
209 27 0.751789 0.731353 0.5
520 31 0.725334 0.750204 0.5
292 29 0.752853 0.767898 0.5
915 27 0.779236 0.717574 0.5
820 29 0.778365 0.748444 0.5
899 24 0.804629 0.732993 0.5
908 22 0.806296 0.760462 0.5
997 34 0.835742 0.729118 0.5
850 24 0.865569 0.745022 0.5
324 37 0.838402 0.764803 0.5
50 32 0.871274 0.776359 0.5
108 33 0.891734 0.720898 0.5
334 33 0.926503 0.718981 0.5
64 31 0.895492 0.754074 0.5
843 34 0.929427 0.755639 0.5
695 22 0.986771 0.722606 0.5
683 34 0.957451 0.734532 0.5
276 34 0.987725 0.754009 0.5
605 25 0.959678 0.768308 0.5
254 33 0.0198356 0.792913 0.5
134 34 0.0522166 0.807802 0.5
514 26 0.0291905 0.829852 0.5
93 41 0.083043 0.787755 0.5
398 37 0.115005 0.808828 0.5
876 31 0.0828329 0.824044 0.5
98 34 0.140352 0.780421 0.5
146 25 0.171395 0.790312 0.5
801 27 0.14876 0.813307 0.5
827 39 0.222021 0.791668 0.5
200 34 0.192873 0.814246 0.5
342 38 0.231074 0.827046 0.5
747 25 0.285441 0.78977 0.5
439 28 0.260246 0.808254 0.5
567 29 0.290062 0.821235 0.5
145 25 0.314493 0.803434 0.5
617 33 0.342128 0.783645 0.5
160 29 0.343785 0.815976 0.5
205 28 0.318458 0.835075 0.5
433 25 0.372762 0.796324 0.5
909 28 0.398714 0.780417 0.5
344 22 0.400094 0.809902 0.5
320 33 0.374223 0.827725 0.5
399 33 0.428551 0.797167 0.5
804 29 0.457808 0.777526 0.5
954 24 0.459991 0.808304 0.5
634 19 0.433599 0.826474 0.5
717 30 0.487526 0.793256 0.5
572 33 0.518748 0.8053 0.5
69 34 0.492769 0.826526 0.5
486 36 0.54753 0.78371 0.5
417 26 0.581147 0.801673 0.5
284 34 0.551189 0.818352 0.5
890 33 0.609872 0.784803 0.5
25 32 0.637297 0.803349 0.5
800 24 0.609319 0.816674 0.5
526 30 0.66487 0.788231 0.5
337 29 0.694796 0.803231 0.5
3 33 0.668074 0.822109 0.5
810 31 0.722624 0.78618 0.5
195 36 0.755628 0.800479 0.5
877 29 0.725796 0.818302 0.5
183 28 0.760551 0.834769 0.5
755 26 0.783367 0.779115 0.5
373 35 0.813659 0.791429 0.5
335 33 0.787677 0.814031 0.5
570 33 0.82202 0.825505 0.5
678 30 0.846696 0.800299 0.5
759 35 0.879127 0.808787 0.5
463 27 0.85371 0.832325 0.5
392 30 0.903796 0.786193 0.5
880 39 0.938005 0.792685 0.5
354 34 0.913906 0.819458 0.5
435 24 0.986602 0.786181 0.5
149 28 0.96543 0.811947 0.5
49 28 0.943704 0.833948 0.5
599 33 0.997054 0.820331 0.5
219 28 0.0343566 0.861124 0.5
489 22 0.0568256 0.839539 0.5
613 28 0.00354873 0.852392 0.5
878 32 0.010673 0.883449 0.5
285 30 0.0975205 0.852109 0.5
757 38 0.0674792 0.870446 0.5
539 31 0.0976224 0.887824 0.5
889 28 0.131264 0.838734 0.5
236 40 0.167242 0.843212 0.5
630 31 0.124204 0.869828 0.5
515 29 0.154495 0.877114 0.5
992 36 0.203817 0.850499 0.5
240 29 0.18722 0.879512 0.5
718 21 0.216474 0.880374 0.5
894 27 0.237935 0.860388 0.5
647 30 0.263023 0.841458 0.5
610 30 0.291828 0.854626 0.5
518 30 0.242394 0.894364 0.5
970 23 0.265305 0.873252 0.5
380 37 0.294249 0.889846 0.5
721 28 0.346684 0.848285 0.5
213 32 0.321573 0.86813 0.5
989 34 0.351542 0.880912 0.5
352 27 0.378764 0.860886 0.5
576 33 0.405094 0.841341 0.5
419 33 0.383568 0.893696 0.5
865 23 0.408957 0.873967 0.5
339 35 0.435985 0.856029 0.5
657 26 0.461879 0.838036 0.5
222 32 0.467474 0.869564 0.5
627 33 0.437501 0.889807 0.5
32 23 0.497335 0.857677 0.5
535 26 0.522704 0.840347 0.5
86 30 0.526698 0.871598 0.5
122 30 0.49833 0.887912 0.5
731 34 0.554072 0.852139 0.5
437 32 0.582536 0.833883 0.5
99 26 0.584769 0.868084 0.5
304 28 0.556897 0.885806 0.5
863 27 0.610632 0.849528 0.5
840 26 0.638749 0.834471 0.5
362 32 0.638102 0.866169 0.5
978 24 0.611738 0.881997 0.5
159 34 0.670148 0.855876 0.5
327 31 0.699039 0.835439 0.5
945 34 0.700558 0.871259 0.5
604 23 0.674034 0.890357 0.5
30 32 0.730739 0.850289 0.5
527 28 0.76354 0.865564 0.5
562 36 0.734849 0.884025 0.5
185 36 0.793339 0.848137 0.5
669 39 0.801441 0.883832 0.5
56 28 0.825104 0.858929 0.5
484 34 0.857347 0.866338 0.5
681 25 0.83545 0.889602 0.5
774 33 0.885982 0.842245 0.5
142 31 0.918388 0.854542 0.5
501 34 0.893074 0.876038 0.5
955 28 0.926609 0.887093 0.5
163 26 0.949438 0.864816 0.5
842 28 0.973059 0.843392 0.5
726 29 0.979201 0.87461 0.5
308 26 0.0420334 0.89462 0.5
238 26 0.0175825 0.915367 0.5
258 37 0.0479145 0.929008 0.5
483 28 0.0715161 0.905833 0.5
396 31 0.110787 0.918283 0.5
922 35 0.0823193 0.939323 0.5
223 20 0.134342 0.899715 0.5
459 35 0.166932 0.907555 0.5
510 34 0.14177 0.931033 0.5
642 31 0.177824 0.940985 0.5
466 41 0.203662 0.912531 0.5
828 29 0.209875 0.948602 0.5
261 37 0.23908 0.92953 0.5
315 28 0.268355 0.912607 0.5
248 26 0.270999 0.943999 0.5
987 34 0.299743 0.925192 0.5
811 27 0.325405 0.901595 0.5
194 31 0.354791 0.914624 0.5
565 27 0.330167 0.934856 0.5
554 29 0.412566 0.910492 0.5
53 34 0.384551 0.928582 0.5
462 29 0.359576 0.950168 0.5
451 33 0.469189 0.90445 0.5
559 33 0.442289 0.925705 0.5
903 31 0.415011 0.943989 0.5
256 33 0.472993 0.938619 0.5
639 23 0.498866 0.919941 0.5
5 33 0.526008 0.905103 0.5
547 33 0.556663 0.918621 0.5
220 30 0.586048 0.899002 0.5
78 21 0.531769 0.939497 0.5
494 24 0.614077 0.911903 0.5
937 32 0.642717 0.899827 0.5
150 37 0.58854 0.933499 0.5
192 35 0.652973 0.932306 0.5
59 24 0.681973 0.918399 0.5
395 28 0.708005 0.904042 0.5
817 35 0.682263 0.950255 0.5
173 30 0.739562 0.917915 0.5
782 28 0.712642 0.935154 0.5
482 29 0.740852 0.951764 0.5
52 37 0.768191 0.899196 0.5
153 36 0.797062 0.919891 0.5
302 27 0.766691 0.935158 0.5
453 26 0.823446 0.937108 0.5
415 25 0.845364 0.917972 0.5
975 27 0.868103 0.897792 0.5
746 25 0.873096 0.927943 0.5
76 27 0.852263 0.949599 0.5
147 30 0.899795 0.908426 0.5
420 34 0.932511 0.920359 0.5
558 31 0.904218 0.940966 0.5
919 25 0.95709 0.897432 0.5
319 30 0.9871 0.906451 0.5
221 24 0.964499 0.926843 0.5
780 29 0.995329 0.938638 0.5
397 32 0.00863194 1.00802 0.5
660 28 0.03166 0.986118 0.5
969 29 0.0249309 0.953638 0.5
663 33 0.055909 0.964092 0.5
998 31 0.0646729 0.996072 0.5
55 28 0.0957123 1.00582 0.5
895 29 0.0888608 0.973802 0.5
113 35 0.115316 0.954342 0.5
689 30 0.152838 0.996783 0.5
656 22 0.120038 0.985658 0.5
38 29 0.148508 0.963766 0.5
502 26 0.182958 1.00548 0.5
931 30 0.179005 0.975087 0.5
891 33 0.210979 0.981505 0.5
161 27 0.242945 0.996696 0.5
67 30 0.272789 1.01102 0.5
498 30 0.241095 0.964229 0.5
461 32 0.271058 0.978123 0.5
659 34 0.332161 1.00122 0.5
218 24 0.301132 0.9913 0.5
743 32 0.299293 0.9592 0.5
490 31 0.331393 0.967112 0.5
947 33 0.393526 0.993516 0.5
197 29 0.361457 0.981868 0.5
449 26 0.388407 0.961627 0.5
387 29 0.423198 1.00832 0.5
623 36 0.451345 0.990931 0.5
330 28 0.420648 0.974764 0.5
391 26 0.446472 0.957633 0.5
884 36 0.501531 0.992725 0.5
941 29 0.476567 0.970637 0.5
650 29 0.504009 0.951905 0.5
670 33 0.529924 0.971831 0.5
473 31 0.534382 1.00748 0.5
148 33 0.561221 0.987792 0.5
15 33 0.560445 0.954519 0.5
523 23 0.593955 1.00596 0.5
844 32 0.590508 0.970559 0.5
598 33 0.622134 0.987365 0.5
268 42 0.621617 0.950612 0.5
982 32 0.654707 1.00436 0.5
979 34 0.653184 0.969839 0.5
735 28 0.683068 0.987088 0.5
993 30 0.710072 1.00221 0.5
741 33 0.71146 0.968598 0.5
16 32 0.741578 0.985174 0.5
926 33 0.770034 1.00239 0.5
708 26 0.76855 0.96744 0.5
366 29 0.797195 0.984 0.5
986 29 0.797095 0.952757 0.5
655 29 0.828272 1.00142 0.5
355 31 0.825352 0.968841 0.5
836 29 0.855817 0.982952 0.5
940 28 0.879839 0.96244 0.5
314 31 0.885787 0.99802 0.5
719 24 0.917037 1.00454 0.5
622 29 0.941545 0.98433 0.5
436 31 0.91088 0.975363 0.5
299 26 0.933627 0.952757 0.5
703 30 0.976155 0.996102 0.5
858 33 1.0013 0.975068 0.5
88 40 0.966811 0.959923 0.5
