ITEM: TIMESTEP
1750000
ITEM: NUMBER OF ATOMS
1000
ITEM: BOX BOUNDS pp pp pp
-1.7671617000000001e+01 1.7671617000000001e+01
-1.7671617000000001e+01 1.7671617000000001e+01
-5.0000000000000000e-01 5.0000000000000000e-01
ITEM: ATOMS id type xs ys zs
73 31 0.0169167 0.0176188 0.5
381 33 0.0334683 0.99091 0.5
479 16 0.0472052 0.0135061 0.5
346 29 0.0957414 0.00483947 0.5
867 40 0.0671387 0.98915 0.5
231 32 0.127702 0.0196225 0.5
62 27 0.159393 0.0221104 0.5
286 31 0.153922 0.980564 0.5
97 20 0.183819 0.00831172 0.5
527 27 0.211012 0.998379 0.5
110 30 0.235998 0.0171292 0.5
212 22 0.272266 0.0588551 0.5
948 39 0.250852 0.986881 0.5
960 44 0.269249 0.0259831 0.5
470 29 0.303197 0.0236793 0.5
432 28 0.333437 0.0194614 0.5
581 20 0.361686 0.0186072 0.5
629 23 0.318056 0.995385 0.5
390 33 0.360314 0.0759142 0.5
639 18 0.368637 0.0493824 0.5
730 32 0.398393 0.0403437 0.5
28 26 0.388764 0.0123396 0.5
790 33 0.423717 0.0191281 0.5
322 19 0.475317 0.00312937 0.5
962 53 0.504747 0.022405 0.5
46 35 0.458663 0.0284189 0.5
319 29 0.534906 0.0460883 0.5
963 25 0.56492 0.0350391 0.5
602 23 0.527434 0.98408 0.5
618 38 0.54349 0.0105734 0.5
424 20 0.583712 0.0112263 0.5
39 25 0.593274 0.0392735 0.5
454 32 0.629624 0.0457216 0.5
15 35 0.623055 0.0123064 0.5
570 35 0.663538 0.0563454 0.5
690 25 0.651196 0.0246011 0.5
851 32 0.684108 0.0307066 0.5
115 19 0.711368 0.0348218 0.5
66 32 0.708124 0.00671583 0.5
354 36 0.738942 0.0179202 0.5
353 28 0.783634 0.0180198 0.5
377 25 0.762329 0.0368223 0.5
738 33 0.814694 0.00880599 0.5
677 42 0.840713 0.033002 0.5
409 30 0.846105 0.99729 0.5
698 17 0.808907 0.0352577 0.5
994 27 0.873085 0.0466452 0.5
769 28 0.875822 0.0160972 0.5
496 30 0.900439 0.0323939 0.5
530 28 0.928611 0.040053 0.5
258 41 0.935863 0.99884 0.5
615 27 0.984601 0.0152066 0.5
239 37 0.99412 0.0486529 0.5
320 34 0.959713 0.034524 0.5
532 27 0.967011 0.984926 0.5
482 29 0.0476802 0.0396814 0.5
313 34 0.0221349 0.0667286 0.5
135 28 0.0714177 0.0208934 0.5
122 30 0.0814628 0.056181 0.5
245 18 0.0536257 0.0652449 0.5
691 42 0.114992 0.0692143 0.5
866 28 0.103969 0.0370339 0.5
444 35 0.144991 0.0509311 0.5
176 33 0.203255 0.0283657 0.5
535 22 0.173823 0.0533726 0.5
117 32 0.168422 0.0845232 0.5
217 33 0.204348 0.0642684 0.5
236 45 0.240201 0.0518526 0.5
487 30 0.262529 0.0855036 0.5
599 34 0.339129 0.0511675 0.5
365 26 0.298917 0.0510346 0.5
91 22 0.292482 0.0781911 0.5
831 28 0.320234 0.07647 0.5
764 40 0.340801 0.103863 0.5
647 30 0.313469 0.122391 0.5
181 32 0.377557 0.102681 0.5
329 36 0.398814 0.0742257 0.5
601 31 0.413823 0.104893 0.5
385 32 0.428398 0.05147 0.5
780 29 0.435275 0.083153 0.5
59 20 0.461153 0.0958248 0.5
915 25 0.455557 0.062969 0.5
291 25 0.479414 0.0514041 0.5
671 23 0.520048 0.0899271 0.5
934 22 0.480329 0.080342 0.5
173 30 0.506793 0.0616098 0.5
971 16 0.545954 0.0755073 0.5
742 31 0.551069 0.103533 0.5
210 26 0.569431 0.0634627 0.5
882 38 0.605487 0.0715061 0.5
566 32 0.581559 0.0978032 0.5
235 37 0.638691 0.0789966 0.5
924 23 0.671558 0.0876189 0.5
36 39 0.697532 0.0622219 0.5
407 24 0.73713 0.0484837 0.5
8 23 0.723067 0.0793348 0.5
957 38 0.756929 0.0746053 0.5
887 33 0.787099 0.0540999 0.5
758 18 0.783961 0.0885479 0.5
412 28 0.81681 0.0598423 0.5
92 26 0.809558 0.0881853 0.5
352 25 0.907985 0.0629861 0.5
510 37 0.849853 0.0705778 0.5
218 20 0.880842 0.0720877 0.5
452 34 0.936241 0.0744215 0.5
502 23 0.89897 0.0909759 0.5
29 28 0.968584 0.0668516 0.5
170 34 0.960424 0.0985739 0.5
611 39 -0.00613222 0.0879542 0.5
439 27 0.0422179 0.0900198 0.5
435 20 0.0336807 0.144308 0.5
20 37 0.0224986 0.116166 0.5
359 35 0.0794553 0.0875986 0.5
979 37 0.0602674 0.117472 0.5
44 34 0.104581 0.108916 0.5
249 35 0.13793 0.09705 0.5
607 40 0.127811 0.135914 0.5
949 36 0.199004 0.0977253 0.5
63 28 0.170653 0.117222 0.5
51 32 0.162547 0.145501 0.5
641 29 0.23191 0.0906973 0.5
83 31 0.196915 0.141187 0.5
541 34 0.227962 0.12231 0.5
303 28 0.289266 0.105136 0.5
284 37 0.263894 0.12891 0.5
160 28 0.291261 0.147192 0.5
96 30 0.326979 0.151083 0.5
563 38 0.360682 0.135327 0.5
391 22 0.394537 0.126291 0.5
148 35 0.390503 0.15915 0.5
839 26 0.441072 0.114797 0.5
143 30 0.422134 0.137317 0.5
174 31 0.452075 0.14619 0.5
94 22 0.466795 0.121738 0.5
616 29 0.493838 0.107049 0.5
684 23 0.518791 0.120689 0.5
947 35 0.571893 0.131183 0.5
961 29 0.540079 0.138337 0.5
48 23 0.651961 0.113005 0.5
635 19 0.618569 0.100052 0.5
900 22 0.601696 0.12206 0.5
909 26 0.627744 0.125311 0.5
776 31 0.67924 0.118988 0.5
306 25 0.649083 0.146324 0.5
852 35 0.678149 0.154393 0.5
17 25 0.699787 0.0940558 0.5
65 32 0.731708 0.10722 0.5
952 35 0.709012 0.131874 0.5
93 48 0.743466 0.142812 0.5
858 34 0.764666 0.108273 0.5
656 17 0.780706 0.131979 0.5
687 34 0.836529 0.102888 0.5
33 30 0.809575 0.116776 0.5
846 35 0.803076 0.148993 0.5
14 28 0.871502 0.102494 0.5
10 29 0.89746 0.119842 0.5
497 33 0.862698 0.132032 0.5
983 32 0.926422 0.10512 0.5
273 27 0.922055 0.13601 0.5
712 29 0.952283 0.132484 0.5
533 37 0.00518287 0.149224 0.5
825 39 0.984787 0.122527 0.5
351 31 0.973128 0.157175 0.5
464 30 0.0564575 0.161386 0.5
838 19 0.0522828 0.19298 0.5
405 28 0.0287575 0.173039 0.5
805 26 0.0210633 0.20221 0.5
40 43 0.0889998 0.141955 0.5
977 38 0.082717 0.184938 0.5
975 25 0.117992 0.190905 0.5
850 20 0.115278 0.164516 0.5
686 30 0.143707 0.171943 0.5
998 31 0.136237 0.214371 0.5
586 47 0.182517 0.176596 0.5
157 33 0.217149 0.192274 0.5
847 41 0.231354 0.159087 0.5
364 33 0.229564 0.222795 0.5
206 32 0.271669 0.169367 0.5
208 32 0.249597 0.192004 0.5
321 31 0.303415 0.177218 0.5
523 18 0.321399 0.20237 0.5
343 35 0.341207 0.183115 0.5
853 14 0.359212 0.162683 0.5
940 26 0.371838 0.184291 0.5
829 22 0.398437 0.192944 0.5
627 34 0.423063 0.169411 0.5
326 48 0.465012 0.179648 0.5
707 52 0.493705 0.146634 0.5
933 28 0.500755 0.183393 0.5
645 34 0.527734 0.166376 0.5
806 26 0.52188 0.203859 0.5
164 35 0.561661 0.165285 0.5
575 33 0.556212 0.198791 0.5
807 20 0.589791 0.158408 0.5
35 40 0.620097 0.165628 0.5
190 44 0.59366 0.190866 0.5
660 26 0.627551 0.203805 0.5
772 33 0.65324 0.18164 0.5
576 34 0.686375 0.188754 0.5
179 31 0.709743 0.166206 0.5
327 31 0.715732 0.201922 0.5
366 29 0.741298 0.177746 0.5
834 31 0.771383 0.166965 0.5
589 21 0.78357 0.191233 0.5
894 25 0.832354 0.135973 0.5
515 28 0.830815 0.166511 0.5
653 22 0.807097 0.179063 0.5
292 27 0.886562 0.152611 0.5
240 28 0.860722 0.164673 0.5
485 36 0.885473 0.184138 0.5
290 31 0.848298 0.192196 0.5
777 25 0.913625 0.165026 0.5
267 25 0.941213 0.168289 0.5
640 39 0.959571 0.193927 0.5
815 30 0.997949 0.181281 0.5
308 24 0.0115651 0.231731 0.5
598 35 0.0159726 0.275756 0.5
213 32 0.99008 0.252689 0.5
408 26 0.0385719 0.224831 0.5
837 34 0.0669999 0.219417 0.5
770 45 0.0479533 0.258674 0.5
801 24 0.079421 0.246671 0.5
528 34 0.10589 0.226647 0.5
642 31 0.168415 0.228635 0.5
433 22 0.143172 0.24196 0.5
681 21 0.194039 0.214603 0.5
899 19 0.157715 0.19729 0.5
437 33 0.163404 0.260862 0.5
324 42 0.199434 0.247152 0.5
936 22 0.238168 0.252725 0.5
415 22 0.284622 0.198698 0.5
422 30 0.264966 0.223032 0.5
571 48 0.30148 0.228135 0.5
82 35 0.346198 0.215775 0.5
603 28 0.379251 0.216291 0.5
583 21 0.409417 0.214877 0.5
232 26 0.433857 0.231305 0.5
43 37 0.358479 0.249104 0.5
923 35 0.434136 0.200343 0.5
631 30 0.451704 0.256266 0.5
309 35 0.464484 0.219667 0.5
455 31 0.485635 0.245695 0.5
898 27 0.497146 0.216604 0.5
87 27 0.519279 0.236634 0.5
372 25 0.575448 0.222775 0.5
895 28 0.5483 0.228888 0.5
904 36 0.577753 0.256732 0.5
682 38 0.605813 0.228118 0.5
654 22 0.60913 0.25883 0.5
7 36 0.659847 0.212875 0.5
878 32 0.671449 0.246997 0.5
355 32 0.639755 0.238662 0.5
633 30 0.70631 0.253603 0.5
118 24 0.726537 0.2329 0.5
230 31 0.692252 0.224484 0.5
595 37 0.75166 0.208966 0.5
144 35 0.7585 0.245066 0.5
984 33 0.784884 0.221719 0.5
720 27 0.818301 0.204209 0.5
462 28 0.800404 0.257241 0.5
863 24 0.816253 0.233706 0.5
844 34 0.849038 0.224757 0.5
410 44 0.888267 0.221482 0.5
612 25 0.921685 0.224951 0.5
186 32 0.925235 0.195713 0.5
403 23 0.928151 0.256481 0.5
943 50 0.957746 0.233341 0.5
38 29 0.988519 0.212008 0.5
250 30 0.952496 0.270056 0.5
605 22 0.979547 0.280812 0.5
939 40 0.0444198 0.296343 0.5
494 19 0.995983 0.304542 0.5
573 30 0.0773464 0.308663 0.5
472 25 0.102605 0.323765 0.5
680 29 0.0766473 0.276782 0.5
768 31 0.13318 0.275971 0.5
60 25 0.109231 0.258826 0.5
694 31 0.127786 0.306394 0.5
251 32 0.15739 0.293817 0.5
266 37 0.224996 0.280332 0.5
644 30 0.209886 0.310869 0.5
461 33 0.19021 0.28694 0.5
260 27 0.258539 0.284632 0.5
298 41 0.273451 0.256401 0.5
778 22 0.287606 0.285236 0.5
919 21 0.32927 0.243276 0.5
657 22 0.305515 0.264675 0.5
622 27 0.387255 0.268468 0.5
26 43 0.333162 0.279526 0.5
903 31 0.398683 0.242258 0.5
22 35 0.404683 0.299288 0.5
540 36 0.439959 0.293368 0.5
553 32 0.420022 0.265343 0.5
387 28 0.462948 0.31511 0.5
600 38 0.474005 0.280441 0.5
139 28 0.512106 0.271923 0.5
491 29 0.496075 0.303897 0.5
543 35 0.541783 0.262875 0.5
459 38 0.529119 0.302066 0.5
301 39 0.564405 0.289061 0.5
294 29 0.597472 0.283915 0.5
264 31 0.618789 0.305312 0.5
614 29 0.671763 0.279646 0.5
86 30 0.653566 0.304472 0.5
225 36 0.639455 0.274757 0.5
339 38 0.733322 0.274505 0.5
509 25 0.702928 0.286516 0.5
980 27 0.71509 0.318007 0.5
763 36 0.772569 0.277435 0.5
503 40 0.750948 0.313912 0.5
574 18 0.83263 0.306526 0.5
613 26 0.811402 0.320787 0.5
596 26 0.814053 0.288358 0.5
453 23 0.829937 0.261444 0.5
506 39 0.866501 0.254091 0.5
841 31 0.850188 0.284584 0.5
632 30 0.899188 0.255083 0.5
920 28 0.881461 0.286526 0.5
725 42 0.917785 0.287063 0.5
659 37 0.959963 0.303571 0.5
31 20 0.954397 0.333947 0.5
434 22 0.0473394 0.327873 0.5
330 26 0.0265924 0.355055 0.5
748 37 0.0588278 0.360692 0.5
597 21 0.0802214 0.337852 0.5
604 18 0.0810315 0.381626 0.5
995 23 0.103896 0.392698 0.5
142 31 0.103807 0.354539 0.5
972 28 0.10457 0.287151 0.5
916 23 0.129506 0.337154 0.5
978 19 0.151581 0.321532 0.5
951 29 0.157137 0.349017 0.5
180 34 0.17945 0.317779 0.5
735 26 0.187432 0.3496 0.5
178 20 0.214865 0.337658 0.5
196 31 0.241844 0.31409 0.5
70 26 0.244243 0.345351 0.5
699 20 0.275494 0.311801 0.5
21 31 0.304347 0.307081 0.5
982 33 0.274749 0.342559 0.5
791 25 0.373552 0.293423 0.5
759 38 0.348568 0.313333 0.5
182 33 0.384214 0.327863 0.5
989 36 0.414008 0.352427 0.5
19 27 0.431596 0.324917 0.5
832 45 0.456162 0.349328 0.5
193 27 0.49246 0.335294 0.5
211 13 0.500359 0.357917 0.5
287 38 0.480279 0.378896 0.5
638 55 0.529073 0.343433 0.5
356 22 0.554258 0.31959 0.5
992 40 0.570836 0.348233 0.5
737 36 0.587262 0.317788 0.5
449 24 0.638468 0.32971 0.5
375 30 0.703621 0.345185 0.5
119 28 0.668151 0.339562 0.5
860 30 0.683528 0.31417 0.5
425 33 0.681035 0.367731 0.5
404 31 0.744283 0.346832 0.5
419 34 0.778818 0.33353 0.5
810 31 0.774643 0.36733 0.5
914 23 0.789339 0.304859 0.5
739 48 0.812043 0.358102 0.5
835 34 0.875462 0.320153 0.5
72 23 0.845154 0.363665 0.5
670 35 0.842091 0.333685 0.5
733 41 0.875694 0.355467 0.5
499 13 0.899731 0.309572 0.5
896 29 0.929479 0.31972 0.5
394 29 0.904071 0.336719 0.5
701 41 0.934044 0.360371 0.5
310 34 0.0162443 0.324692 0.5
278 34 0.983275 0.330074 0.5
732 27 -0.000363918 0.359275 0.5
891 34 0.0221578 0.383876 0.5
964 34 0.987292 0.393427 0.5
477 31 0.0533748 0.394539 0.5
53 37 0.0818869 0.413522 0.5
463 25 0.0521162 0.424929 0.5
226 32 0.069024 0.449218 0.5
539 31 0.130924 0.373757 0.5
71 35 0.125578 0.413735 0.5
234 35 0.154483 0.397113 0.5
830 28 0.181417 0.380309 0.5
12 36 0.18353 0.413808 0.5
908 17 0.207027 0.395196 0.5
399 35 0.263504 0.373396 0.5
734 33 0.217001 0.366776 0.5
114 23 0.233644 0.391776 0.5
293 38 0.311998 0.341161 0.5
927 33 0.298153 0.372895 0.5
386 39 0.262612 0.409083 0.5
800 20 0.292114 0.403271 0.5
189 5 0.337507 0.33802 0.5
396 32 0.358342 0.348878 0.5
626 37 0.331454 0.371304 0.5
520 32 0.354282 0.394695 0.5
13 32 0.38423 0.368893 0.5
325 33 0.383752 0.406617 0.5
108 34 0.413336 0.386497 0.5
192 38 0.44627 0.389375 0.5
910 30 0.500888 0.405608 0.5
756 27 0.517025 0.378878 0.5
675 26 0.470175 0.409602 0.5
547 34 0.553301 0.378741 0.5
389 43 0.537689 0.412616 0.5
623 39 0.589146 0.383505 0.5
222 34 0.612371 0.349088 0.5
762 33 0.60609 0.418604 0.5
103 34 0.645769 0.362087 0.5
991 34 0.622978 0.389054 0.5
536 26 0.655783 0.391333 0.5
508 26 0.683934 0.39811 0.5
514 23 0.710166 0.374041 0.5
608 29 0.737531 0.413728 0.5
731 36 0.741027 0.380313 0.5
548 39 0.768461 0.402751 0.5
493 22 0.798351 0.389922 0.5
775 34 0.833538 0.390761 0.5
443 27 0.803459 0.416498 0.5
224 29 0.83138 0.423074 0.5
121 33 0.869305 0.38994 0.5
658 38 0.896818 0.41051 0.5
104 23 0.903428 0.375691 0.5
147 30 0.932156 0.394917 0.5
564 25 0.970313 0.356747 0.5
651 21 0.960222 0.383477 0.5
460 36 0.0301065 0.449162 0.5
710 40 0.0335564 0.511227 0.5
557 40 0.0502628 0.477866 0.5
448 33 0.106138 0.439012 0.5
668 19 0.136234 0.442307 0.5
277 24 0.156566 0.426383 0.5
928 34 0.15686 0.461521 0.5
401 22 0.179823 0.442734 0.5
376 44 0.188869 0.477785 0.5
275 32 0.207666 0.444838 0.5
848 28 0.221209 0.417258 0.5
591 24 0.301994 0.429554 0.5
771 23 0.27551 0.43804 0.5
621 26 0.326845 0.448431 0.5
956 34 0.320783 0.4041 0.5
124 26 0.35304 0.46165 0.5
4 34 0.355884 0.43189 0.5
263 28 0.389356 0.440544 0.5
798 36 0.417044 0.456349 0.5
857 43 0.423491 0.420173 0.5
302 24 0.485437 0.432195 0.5
50 33 0.455862 0.438034 0.5
874 41 0.513683 0.447294 0.5
484 35 0.501359 0.482379 0.5
141 33 0.535156 0.474306 0.5
643 26 0.552328 0.446109 0.5
392 30 0.57204 0.41197 0.5
172 16 0.564234 0.47392 0.5
317 40 0.585664 0.445387 0.5
228 26 0.631263 0.479471 0.5
490 32 0.619948 0.449566 0.5
578 28 0.652072 0.453324 0.5
817 38 0.663576 0.423393 0.5
592 22 0.634639 0.41539 0.5
587 38 0.69809 0.435744 0.5
388 24 0.711453 0.402418 0.5
636 19 0.709737 0.46861 0.5
667 25 0.731121 0.481161 0.5
393 42 0.731659 0.447717 0.5
136 40 0.769343 0.439054 0.5
624 21 0.756635 0.467193 0.5
555 30 0.785974 0.46839 0.5
558 32 0.80941 0.447042 0.5
833 33 0.86441 0.42296 0.5
252 37 0.842747 0.454155 0.5
521 33 0.875133 0.465197 0.5
935 23 0.893775 0.442015 0.5
431 31 0.935017 0.427264 0.5
283 39 0.921297 0.457992 0.5
723 28 0.961017 0.410814 0.5
761 29 0.989948 0.425916 0.5
709 30 0.0239428 0.414972 0.5
216 46 0.961149 0.454598 0.5
986 27 0.0241226 0.541441 0.5
24 29 0.996924 0.457072 0.5
630 32 0.0722708 0.506604 0.5
423 35 0.0569395 0.538518 0.5
25 34 0.0890958 0.476476 0.5
67 30 0.125859 0.468958 0.5
868 41 0.113119 0.504157 0.5
457 40 0.151287 0.498411 0.5
637 27 0.214511 0.505615 0.5
348 26 0.185188 0.512075 0.5
495 34 0.241221 0.442061 0.5
779 40 0.22587 0.474954 0.5
703 30 0.297814 0.45777 0.5
705 28 0.26525 0.464804 0.5
969 28 0.297686 0.486526 0.5
215 26 0.328216 0.479782 0.5
269 32 0.329199 0.511328 0.5
398 41 0.358065 0.492818 0.5
793 28 0.38482 0.473117 0.5
476 18 0.397989 0.496245 0.5
542 32 0.388359 0.522085 0.5
197 28 0.422635 0.48778 0.5
714 29 0.44715 0.467582 0.5
646 26 0.476362 0.460947 0.5
859 43 0.464414 0.495751 0.5
663 34 0.493334 0.516083 0.5
716 30 0.522755 0.505849 0.5
869 33 0.554794 0.502781 0.5
556 28 0.549405 0.534389 0.5
337 28 0.52054 0.534148 0.5
429 25 0.58453 0.490974 0.5
718 15 0.606622 0.472937 0.5
785 34 0.581682 0.521733 0.5
565 26 0.659402 0.480693 0.5
950 32 0.612083 0.50228 0.5
711 36 0.649284 0.508741 0.5
360 11 0.683366 0.475018 0.5
1000 38 0.702966 0.502076 0.5
45 27 0.735672 0.514644 0.5
892 19 0.762638 0.491271 0.5
749 27 0.763799 0.517583 0.5
378 32 0.81935 0.478034 0.5
137 34 0.791023 0.499295 0.5
679 48 0.82959 0.522793 0.5
168 39 0.852496 0.490851 0.5
483 27 0.903126 0.487818 0.5
880 44 0.880857 0.516536 0.5
767 44 0.923304 0.515729 0.5
205 26 0.944851 0.485431 0.5
922 39 0.962117 0.513996 0.5
655 28 0.017099 0.478753 0.5
931 29 0.985738 0.489061 0.5
849 37 0.026698 0.578583 0.5
813 30 0.998337 0.519986 0.5
417 23 -0.00159592 0.591799 0.5
171 35 0.0679329 0.571229 0.5
937 32 0.0908085 0.532143 0.5
49 26 0.0988897 0.560441 0.5
728 35 0.128477 0.542824 0.5
993 29 0.125466 0.575579 0.5
760 24 0.189263 0.540707 0.5
427 31 0.160636 0.529308 0.5
272 39 0.222012 0.537471 0.5
323 30 0.239825 0.5764 0.5
165 19 0.239306 0.514603 0.5
242 38 0.266745 0.498997 0.5
875 35 0.297243 0.525842 0.5
79 41 0.262903 0.53968 0.5
200 36 0.356031 0.530204 0.5
873 33 0.323648 0.544291 0.5
315 27 0.348206 0.569014 0.5
550 22 0.412152 0.543809 0.5
5 35 0.378918 0.555295 0.5
534 35 0.430949 0.521119 0.5
750 33 0.46297 0.533583 0.5
229 33 0.473571 0.569586 0.5
475 24 0.491702 0.546781 0.5
383 37 0.517924 0.568222 0.5
930 24 0.548066 0.569967 0.5
219 26 0.56438 0.59183 0.5
47 31 0.572793 0.553512 0.5
549 29 0.602066 0.549056 0.5
590 22 0.625516 0.526689 0.5
782 26 0.65013 0.541002 0.5
795 38 0.630877 0.565899 0.5
619 32 0.665411 0.566401 0.5
95 33 0.711851 0.537075 0.5
561 32 0.67927 0.52942 0.5
149 26 0.69729 0.56505 0.5
281 23 0.724875 0.565162 0.5
155 30 0.768653 0.554128 0.5
773 16 0.745097 0.53861 0.5
721 26 0.790934 0.529576 0.5
237 37 0.831576 0.562214 0.5
271 29 0.799691 0.560139 0.5
719 20 0.858101 0.53901 0.5
715 19 0.86097 0.569116 0.5
451 34 0.883089 0.553134 0.5
89 30 0.909574 0.572886 0.5
116 19 0.910842 0.545263 0.5
98 37 0.94381 0.548584 0.5
823 27 1.00089 0.56153 0.5
814 31 0.977584 0.544522 0.5
131 26 0.0216624 0.620417 0.5
562 39 0.00668894 0.64938 0.5
207 31 0.988314 0.620293 0.5
151 41 0.0539084 0.60894 0.5
340 18 0.091675 0.587779 0.5
946 29 0.0632608 0.641002 0.5
911 28 0.113383 0.604972 0.5
827 45 0.148927 0.601019 0.5
380 41 0.164326 0.563441 0.5
332 25 0.183389 0.598116 0.5
519 21 0.268024 0.573097 0.5
906 42 0.206195 0.571179 0.5
727 38 0.221409 0.603812 0.5
580 26 0.29144 0.558826 0.5
697 39 0.287926 0.59759 0.5
966 22 0.269907 0.630584 0.5
113 37 0.319377 0.580266 0.5
166 30 0.322821 0.613011 0.5
893 29 0.350693 0.600772 0.5
296 29 0.383916 0.588086 0.5
128 31 0.409246 0.571948 0.5
316 41 0.431759 0.597085 0.5
970 19 0.496753 0.589674 0.5
201 35 0.43843 0.558977 0.5
133 32 0.495251 0.617265 0.5
876 31 0.465774 0.599708 0.5
194 31 0.5294 0.602712 0.5
736 23 0.55488 0.619234 0.5
11 40 0.596008 0.582197 0.5
265 46 0.588062 0.620079 0.5
921 40 0.6267 0.605273 0.5
57 33 0.662982 0.600632 0.5
845 26 0.650262 0.628327 0.5
818 23 0.730507 0.597132 0.5
843 36 0.696475 0.598569 0.5
821 24 0.717854 0.621009 0.5
248 23 0.753084 0.578162 0.5
708 24 0.779155 0.580344 0.5
468 26 0.763472 0.60195 0.5
901 39 0.812057 0.595883 0.5
784 27 0.850814 0.595894 0.5
223 14 0.851684 0.624683 0.5
220 30 0.881025 0.5861 0.5
724 44 0.909699 0.609348 0.5
941 28 0.875619 0.617345 0.5
702 26 0.937449 0.584392 0.5
511 41 0.956123 0.611171 0.5
416 35 0.970723 0.578089 0.5
688 25 0.982763 0.676656 0.5
913 28 0.0674321 0.721703 0.5
588 24 0.0851961 0.615847 0.5
221 20 0.0385418 0.653123 0.5
713 39 0.058941 0.677666 0.5
902 29 0.109904 0.634592 0.5
693 28 0.0904821 0.657577 0.5
518 30 0.140649 0.644037 0.5
692 27 0.118417 0.669112 0.5
695 17 0.162418 0.629078 0.5
421 35 0.194661 0.62638 0.5
438 26 0.149483 0.67234 0.5
442 37 0.177526 0.656344 0.5
741 35 0.2147 0.651735 0.5
513 26 0.253204 0.604272 0.5
227 32 0.240767 0.632079 0.5
466 48 0.28513 0.666127 0.5
175 49 0.24393 0.674559 0.5
154 27 0.304592 0.638268 0.5
531 24 0.360393 0.65052 0.5
80 29 0.330706 0.653959 0.5
585 33 0.40952 0.62554 0.5
243 34 0.377111 0.621255 0.5
985 22 0.347667 0.62782 0.5
997 36 0.391108 0.654176 0.5
307 33 0.443145 0.630162 0.5
81 26 0.423754 0.652896 0.5
965 29 0.498661 0.64858 0.5
925 19 0.47273 0.633568 0.5
379 25 0.476212 0.66874 0.5
280 41 0.529019 0.636992 0.5
788 35 0.56185 0.651371 0.5
478 29 0.535836 0.670789 0.5
202 42 0.619145 0.644483 0.5
648 22 0.591612 0.663445 0.5
560 28 0.620627 0.681221 0.5
872 42 0.686304 0.633887 0.5
504 43 0.6575 0.663766 0.5
729 20 0.68923 0.664976 0.5
288 38 0.722617 0.65457 0.5
23 26 0.787315 0.616375 0.5
241 34 0.749688 0.634098 0.5
754 31 0.779758 0.646078 0.5
163 23 0.804363 0.666846 0.5
347 50 0.819363 0.632777 0.5
214 35 0.859417 0.650883 0.5
300 39 0.897032 0.649189 0.5
912 42 0.883978 0.684959 0.5
138 32 0.939813 0.642381 0.5
593 22 0.95254 0.667845 0.5
799 26 0.878493 0.718148 0.5
683 36 0.920126 0.676419 0.5
706 33 0.973528 0.64748 0.5
888 27 0.944544 0.694922 0.5
198 37 0.975925 0.70689 0.5
150 42 0.0223306 0.683824 0.5
746 21 0.0439847 0.706869 0.5
743 33 0.0113785 0.718447 0.5
188 32 0.0986605 0.718777 0.5
879 35 0.0840938 0.748805 0.5
610 30 0.0916403 0.688192 0.5
634 12 0.11651 0.694751 0.5
577 39 0.144733 0.704931 0.5
436 31 0.173256 0.689504 0.5
649 38 0.162618 0.734869 0.5
525 24 0.188758 0.716586 0.5
751 22 0.19898 0.678442 0.5
942 23 0.202194 0.739391 0.5
400 36 0.217567 0.703101 0.5
783 24 0.247977 0.708864 0.5
864 22 0.272353 0.6983 0.5
781 28 0.295653 0.713474 0.5
111 28 0.313482 0.689171 0.5
183 27 0.345628 0.683969 0.5
545 42 0.329593 0.717824 0.5
259 15 0.363288 0.708057 0.5
794 31 0.377055 0.684179 0.5
447 39 0.413485 0.683933 0.5
336 38 0.448164 0.689376 0.5
361 34 0.462393 0.722818 0.5
75 17 0.451665 0.656271 0.5
824 32 0.507712 0.680495 0.5
247 21 0.478203 0.695049 0.5
740 35 0.498479 0.715785 0.5
526 30 0.562244 0.68457 0.5
357 39 0.530948 0.706768 0.5
370 40 0.568308 0.718664 0.5
870 29 0.590964 0.693748 0.5
745 37 0.614328 0.7181 0.5
1 24 0.67329 0.694437 0.5
546 33 0.643874 0.701595 0.5
297 30 0.70361 0.694302 0.5
52 40 0.683752 0.725108 0.5
929 35 0.726999 0.719125 0.5
426 19 0.728191 0.684241 0.5
255 29 0.752691 0.669078 0.5
625 33 0.788223 0.714247 0.5
996 24 0.782969 0.682682 0.5
473 31 0.833841 0.671344 0.5
796 25 0.815191 0.694125 0.5
990 44 0.849081 0.703528 0.5
2 28 0.857476 0.738477 0.5
262 32 0.892321 0.746552 0.5
959 25 0.923092 0.745464 0.5
884 39 0.910853 0.712662 0.5
481 30 0.943651 0.724649 0.5
938 20 0.960318 0.777319 0.5
976 19 0.946691 0.75571 0.5
826 30 0.0118669 0.750671 0.5
862 22 0.0229871 0.778233 0.5
156 22 0.0380165 0.733729 0.5
68 32 0.112457 0.768198 0.5
469 39 0.0519743 0.764315 0.5
418 36 0.125932 0.736912 0.5
203 43 0.15032 0.768347 0.5
328 20 0.184104 0.756557 0.5
792 31 0.23337 0.74302 0.5
199 39 0.21601 0.77362 0.5
582 27 0.249373 0.769878 0.5
440 43 0.269329 0.736409 0.5
967 22 0.319634 0.775421 0.5
617 34 0.303655 0.749054 0.5
177 21 0.33876 0.751624 0.5
987 36 0.369255 0.766233 0.5
886 27 0.390734 0.710759 0.5
498 29 0.361295 0.732929 0.5
134 36 0.394697 0.742791 0.5
786 41 0.426453 0.721605 0.5
753 33 0.453874 0.75402 0.5
304 26 0.424194 0.7548 0.5
153 40 0.488115 0.749415 0.5
384 47 0.527364 0.746743 0.5
382 41 0.538515 0.784932 0.5
501 36 0.564485 0.755657 0.5
840 24 0.591893 0.742079 0.5
362 33 0.623594 0.752767 0.5
167 25 0.598998 0.770889 0.5
568 32 0.649546 0.733617 0.5
42 45 0.65511 0.771781 0.5
77 15 0.682764 0.75491 0.5
883 38 0.69737 0.788799 0.5
968 41 0.713487 0.752405 0.5
345 33 0.743187 0.778375 0.5
822 37 0.756159 0.700886 0.5
395 26 0.746365 0.746748 0.5
865 17 0.763759 0.728222 0.5
474 27 0.771128 0.760255 0.5
500 46 0.821775 0.735454 0.5
507 28 0.833261 0.767089 0.5
809 25 0.849577 0.790919 0.5
803 31 0.866761 0.766111 0.5
489 17 0.820036 0.795535 0.5
411 31 0.910236 0.772689 0.5
314 32 0.879932 0.795038 0.5
465 26 0.909647 0.803124 0.5
517 39 0.977239 0.743377 0.5
413 24 0.935964 0.787227 0.5
722 34 0.0106842 0.805391 0.5
305 29 0.994238 0.834526 0.5
90 43 0.0481065 0.802367 0.5
488 24 0.0789675 0.780736 0.5
662 33 0.0618749 0.833456 0.5
246 34 0.0857281 0.808509 0.5
567 28 0.120132 0.798616 0.5
299 22 0.131489 0.828794 0.5
594 34 0.18348 0.786628 0.5
855 31 0.214899 0.809189 0.5
505 34 0.152855 0.805728 0.5
289 19 0.239125 0.796057 0.5
661 30 0.251784 0.820848 0.5
609 30 0.268487 0.794526 0.5
579 26 0.278409 0.768311 0.5
584 23 0.297033 0.790893 0.5
689 30 0.282846 0.823407 0.5
999 39 0.341621 0.796318 0.5
331 25 0.36252 0.821038 0.5
105 31 0.313544 0.815059 0.5
932 25 0.378313 0.796712 0.5
620 26 0.404728 0.774027 0.5
130 27 0.404648 0.807746 0.5
669 44 0.439004 0.787219 0.5
6 7 0.462695 0.80399 0.5
41 31 0.473433 0.778323 0.5
744 34 0.504464 0.782016 0.5
191 39 0.488115 0.815882 0.5
195 39 0.52268 0.824865 0.5
897 31 0.556389 0.815999 0.5
37 28 0.573139 0.791811 0.5
420 36 0.618831 0.796948 0.5
628 31 0.588139 0.820718 0.5
492 43 0.665746 0.812664 0.5
312 42 0.621575 0.833655 0.5
161 25 0.699815 0.821548 0.5
471 22 0.727253 0.802142 0.5
450 21 0.680174 0.840014 0.5
341 23 0.727957 0.829724 0.5
808 24 0.760124 0.816164 0.5
64 32 0.774874 0.789491 0.5
233 25 0.784397 0.837603 0.5
430 34 0.801826 0.768626 0.5
973 18 0.839343 0.814504 0.5
988 14 0.866693 0.817808 0.5
544 27 0.79884 0.810879 0.5
816 33 0.816773 0.839547 0.5
797 32 0.893976 0.828875 0.5
918 43 0.926414 0.845218 0.5
828 28 0.943828 0.812985 0.5
955 27 0.996173 0.778113 0.5
3 34 0.976234 0.802755 0.5
538 35 0.0268825 0.837255 0.5
752 24 0.00869489 0.860619 0.5
282 26 0.980685 0.87616 0.5
516 44 0.0480817 0.868079 0.5
145 22 0.078385 0.856403 0.5
85 19 0.0728204 0.890331 0.5
61 33 0.103417 0.83947 0.5
696 26 0.128858 0.856044 0.5
704 36 0.161154 0.843653 0.5
334 34 0.224721 0.841398 0.5
804 28 0.194405 0.851167 0.5
374 36 0.185105 0.820838 0.5
99 23 0.199223 0.882665 0.5
456 31 0.227673 0.873902 0.5
428 27 0.253303 0.851634 0.5
953 28 0.307647 0.847002 0.5
811 24 0.280772 0.857508 0.5
285 30 0.336003 0.835736 0.5
78 15 0.352368 0.881984 0.5
368 34 0.363379 0.857055 0.5
552 29 0.386773 0.835153 0.5
106 15 0.390658 0.860972 0.5
373 37 0.382254 0.887037 0.5
881 25 0.428763 0.821908 0.5
107 29 0.413589 0.847368 0.5
109 47 0.448109 0.855241 0.5
32 18 0.459265 0.825488 0.5
367 26 0.498058 0.886077 0.5
123 12 0.473945 0.875991 0.5
890 35 0.489073 0.850882 0.5
238 22 0.544263 0.846255 0.5
757 42 0.563336 0.870857 0.5
244 28 0.518805 0.860313 0.5
169 17 0.567508 0.840919 0.5
789 27 0.592026 0.85132 0.5
397 33 0.593838 0.892283 0.5
256 34 0.652239 0.850943 0.5
905 30 0.618553 0.868267 0.5
34 31 0.654593 0.88477 0.5
559 34 0.708218 0.853231 0.5
836 28 0.680584 0.871581 0.5
158 37 0.707161 0.888132 0.5
363 23 0.732272 0.869108 0.5
926 35 0.755365 0.846017 0.5
747 21 0.758693 0.886399 0.5
349 45 0.788013 0.86872 0.5
524 35 0.861107 0.845337 0.5
335 35 0.859487 0.877338 0.5
152 36 0.826383 0.873394 0.5
945 36 0.891147 0.860593 0.5
766 28 0.886275 0.893468 0.5
295 34 0.96276 0.840228 0.5
279 33 0.917167 0.885899 0.5
126 32 0.0202462 0.888458 0.5
529 27 0.0479263 0.905872 0.5
678 29 0.0246456 0.925455 0.5
685 30 0.0759413 0.921719 0.5
311 26 0.104416 0.874257 0.5
9 26 0.101918 0.91029 0.5
101 26 0.102538 0.939433 0.5
274 26 0.12925 0.888491 0.5
54 28 0.129684 0.931632 0.5
820 29 0.15343 0.913435 0.5
726 29 0.168226 0.882915 0.5
458 39 0.186943 0.912106 0.5
877 28 0.260986 0.880283 0.5
907 25 0.218045 0.90428 0.5
358 27 0.220894 0.933168 0.5
140 29 0.248402 0.911399 0.5
676 31 0.33184 0.865382 0.5
522 38 0.30007 0.886778 0.5
257 35 0.278915 0.920958 0.5
441 29 0.330474 0.89872 0.5
480 24 0.358007 0.905402 0.5
204 35 0.341563 0.929626 0.5
253 29 0.383283 0.921367 0.5
981 29 0.413969 0.916756 0.5
402 40 0.417414 0.879774 0.5
254 34 0.404987 0.948387 0.5
187 34 0.450737 0.893213 0.5
76 24 0.477662 0.904697 0.5
261 41 0.505099 0.922562 0.5
146 22 0.468377 0.935341 0.5
18 46 0.53172 0.893393 0.5
55 27 0.57012 0.953545 0.5
58 26 0.565605 0.902451 0.5
666 33 0.58762 0.92349 0.5
56 26 0.626189 0.896222 0.5
16 32 0.656235 0.919377 0.5
774 35 0.623034 0.926725 0.5
958 19 0.686834 0.907617 0.5
350 10 0.680633 0.935975 0.5
338 28 0.705028 0.928232 0.5
486 40 0.734519 0.909971 0.5
569 34 0.731648 0.947123 0.5
854 27 0.75885 0.935339 0.5
100 34 0.777526 0.910199 0.5
69 37 0.812023 0.91008 0.5
268 49 0.795369 0.943949 0.5
974 24 0.828668 0.941624 0.5
572 35 0.846015 0.908477 0.5
700 24 0.855408 0.94157 0.5
537 25 0.873493 0.920669 0.5
129 39 0.935885 0.915051 0.5
120 30 0.902758 0.918279 0.5
755 23 0.921183 0.94725 0.5
27 34 0.949038 0.87099 0.5
954 21 0.961441 0.899766 0.5
787 25 0.99323 0.904348 0.5
333 30 0.996898 0.931867 0.5
606 36 0.0161266 0.960113 0.5
944 29 -0.000327857 0.987889 0.5
112 23 0.0447834 0.95323 0.5
856 26 0.0756398 0.953492 0.5
446 27 0.124125 0.989816 0.5
871 27 0.100277 0.973877 0.5
842 27 0.131282 0.96082 0.5
185 39 0.162058 0.94537 0.5
159 36 0.188217 0.973136 0.5
812 25 0.195029 0.943765 0.5
512 32 0.222928 0.966035 0.5
276 37 0.253481 0.944786 0.5
554 28 0.310009 0.928065 0.5
406 29 0.288225 0.952168 0.5
861 37 0.288049 0.989759 0.5
414 36 0.363864 0.956093 0.5
342 43 0.323477 0.963318 0.5
318 37 0.387366 0.980799 0.5
445 37 0.34956 0.989049 0.5
673 25 0.44313 0.923745 0.5
551 30 0.419845 0.976964 0.5
30 33 0.446257 0.992662 0.5
125 30 0.437683 0.951978 0.5
885 22 0.490027 0.953185 0.5
162 32 0.466211 0.968038 0.5
132 31 0.49667 0.980984 0.5
84 25 0.516686 0.959598 0.5
344 17 0.546543 0.963823 0.5
665 46 0.543286 0.930747 0.5
819 29 0.567176 0.98219 0.5
650 28 0.601704 0.952563 0.5
467 32 0.59921 0.987049 0.5
652 46 0.656544 0.95547 0.5
672 31 0.64974 0.992 0.5
371 29 0.625628 0.972916 0.5
209 24 0.679518 0.99325 0.5
88 46 0.696255 0.961782 0.5
765 21 0.75855 -0.00938469 0.5
369 36 0.72964 0.980008 0.5
889 27 0.759421 0.963614 0.5
802 37 0.789474 0.984625 0.5
917 42 0.823034 0.97322 0.5
674 26 0.901393 0.00132908 0.5
102 19 0.85971 0.969817 0.5
184 25 0.88347 0.979977 0.5
74 37 0.888949 0.950077 0.5
127 20 0.911365 0.97292 0.5
664 32 0.96433 0.933592 0.5
717 30 0.983476 0.960995 0.5
270 32 0.945167 0.963641 0.5
