ITEM: TIMESTEP
1270000
ITEM: NUMBER OF ATOMS
1000
ITEM: BOX BOUNDS pp pp pp
-1.6508578000000000e+01 1.6508578000000000e+01
-1.6508578000000000e+01 1.6508578000000000e+01
-5.0000000000000000e-01 5.0000000000000000e-01
ITEM: ATOMS id type xs ys zs
685 30 0.0405611 0.0155168 0.5
155 30 0.0325551 0.0483029 0.5
676 31 0.0081118 0.0254024 0.5
976 27 0.0632587 0.0405472 0.5
298 34 0.0745788 0.00935649 0.5
448 31 0.101567 0.0327911 0.5
498 30 0.108309 -4.68018e-05 0.5
754 31 0.136282 0.025916 0.5
694 31 0.166596 0.0151175 0.5
290 31 0.160018 0.0490241 0.5
813 30 0.190178 0.0359285 0.5
903 31 0.222263 0.0274637 0.5
37 30 0.198369 0.00494353 0.5
247 28 0.259189 0.0169909 0.5
193 29 0.281616 0.0401339 0.5
811 29 0.289107 0.00790363 0.5
81 29 0.247822 0.0464476 0.5
996 29 0.315663 0.0283003 0.5
227 31 0.348392 0.01549 0.5
325 31 0.341145 0.0487601 0.5
927 31 0.373999 0.0383397 0.5
673 29 0.383045 0.00472073 0.5
559 31 0.408074 0.0275301 0.5
991 31 0.39883 0.0595281 0.5
203 34 0.440815 0.0161482 0.5
871 30 0.466213 0.0378457 0.5
493 28 0.434092 0.0480488 0.5
953 30 0.472467 0.00355772 0.5
896 30 0.497683 0.0260796 0.5
607 33 0.522575 0.0489087 0.5
961 30 0.529258 0.0163327 0.5
788 32 0.560834 0.00656626 0.5
104 28 0.554672 0.0387181 0.5
551 30 0.58865 0.0270782 0.5
699 27 0.619236 0.0169227 0.5
425 31 0.644396 0.0436935 0.5
16 31 0.61204 0.0492775 0.5
930 29 0.65175 0.0100234 0.5
737 32 0.675471 0.0329591 0.5
305 30 0.684094 4.28144e-05 0.5
312 34 0.709353 0.0233194 0.5
485 32 0.741687 0.0142185 0.5
779 33 0.73584 0.0471003 0.5
499 26 0.768835 0.0400496 0.5
986 30 0.772406 0.00879304 0.5
408 29 0.798157 0.0285204 0.5
138 31 0.823917 0.050347 0.5
528 32 0.831522 0.0168469 0.5
63 30 0.864613 0.00766124 0.5
561 31 0.857317 0.0402462 0.5
356 28 0.890181 0.0330611 0.5
208 31 0.919532 0.022637 0.5
569 31 0.912663 0.0544854 0.5
964 32 0.999897 0.0588339 0.5
365 29 0.943999 0.0453183 0.5
229 31 0.954102 0.0141531 0.5
379 29 0.977236 0.0359223 0.5
663 31 0.985729 0.00311808 0.5
766 30 0.0242087 0.0808236 0.5
712 30 0.0552399 0.0724997 0.5
143 30 0.0458556 0.103884 0.5
350 25 0.0158032 0.110593 0.5
614 30 0.0870201 0.0605878 0.5
97 27 0.0778959 0.0939654 0.5
513 29 0.108524 0.0891415 0.5
770 35 0.126588 0.0600304 0.5
216 35 0.154166 0.0840386 0.5
18 35 0.131622 0.114285 0.5
442 32 0.218715 0.0612203 0.5
245 27 0.182657 0.101374 0.5
517 33 0.186134 0.0705048 0.5
367 29 0.211393 0.0934728 0.5
564 29 0.234791 0.115963 0.5
706 31 0.243997 0.0834773 0.5
511 33 0.276207 0.0729939 0.5
389 34 0.268013 0.107537 0.5
487 30 0.307626 0.0600231 0.5
280 34 0.302025 0.096382 0.5
847 33 0.334727 0.0827452 0.5
809 29 0.330031 0.114985 0.5
239 32 0.361854 0.102716 0.5
802 32 0.366654 0.0703609 0.5
274 29 0.393714 0.0909543 0.5
181 31 0.425295 0.0796801 0.5
763 32 0.457668 0.0710602 0.5
372 29 0.450147 0.102941 0.5
464 30 0.418848 0.113781 0.5
14 30 0.489756 0.0600703 0.5
845 29 0.484178 0.0919692 0.5
900 28 0.516072 0.0819009 0.5
174 31 0.542234 0.104168 0.5
492 34 0.547624 0.0709057 0.5
795 33 0.580282 0.0602117 0.5
944 30 0.575943 0.0944559 0.5
799 29 0.605885 0.0812682 0.5
413 29 0.636603 0.0752587 0.5
358 29 0.62934 0.107355 0.5
317 33 0.702267 0.0569006 0.5
57 31 0.661022 0.0991051 0.5
307 31 0.671259 0.066921 0.5
103 31 0.695759 0.0891349 0.5
677 34 0.729364 0.0800777 0.5
211 26 0.764512 0.0719619 0.5
603 30 0.718106 0.112192 0.5
100 32 0.753801 0.103388 0.5
994 30 0.793982 0.0611945 0.5
644 30 0.787408 0.0945095 0.5
653 28 0.81689 0.0839738 0.5
768 31 0.809411 0.119498 0.5
270 31 0.847814 0.0726235 0.5
68 31 0.873043 0.09397 0.5
838 27 0.879414 0.0629314 0.5
938 27 0.841911 0.103237 0.5
933 30 0.904629 0.0879603 0.5
939 33 0.93644 0.0791276 0.5
249 32 0.929328 0.112448 0.5
170 32 0.989744 0.0910895 0.5
589 28 0.966893 0.0668437 0.5
700 29 0.96003 0.106709 0.5
705 30 0.0179591 0.140716 0.5
936 28 0.0492151 0.149423 0.5
648 28 0.0239637 0.172156 0.5
662 31 0.0725389 0.127199 0.5
252 32 0.105135 0.135143 0.5
199 33 0.080896 0.159013 0.5
787 29 0.112577 0.170031 0.5
66 31 0.137576 0.14861 0.5
488 29 0.16386 0.12517 0.5
596 29 0.171941 0.155332 0.5
385 31 0.200383 0.126715 0.5
403 28 0.228973 0.145856 0.5
54 30 0.201949 0.166178 0.5
597 28 0.234317 0.1771 0.5
469 33 0.264486 0.146305 0.5
966 28 0.293758 0.162514 0.5
169 27 0.294721 0.129915 0.5
132 31 0.322426 0.145595 0.5
995 28 0.353768 0.167516 0.5
28 29 0.324405 0.177502 0.5
608 30 0.354428 0.135569 0.5
414 32 0.387866 0.122375 0.5
671 28 0.412954 0.145645 0.5
856 29 0.382322 0.154932 0.5
73 31 0.443638 0.135378 0.5
440 34 0.470237 0.161815 0.5
753 31 0.436987 0.168116 0.5
769 30 0.509619 0.113401 0.5
957 33 0.477107 0.12685 0.5
646 29 0.502477 0.149004 0.5
114 28 0.528546 0.170581 0.5
402 33 0.532711 0.137969 0.5
457 33 0.567148 0.126949 0.5
914 28 0.558217 0.159271 0.5
834 31 0.591418 0.150219 0.5
568 31 0.59955 0.116734 0.5
950 31 0.623378 0.140295 0.5
91 28 0.616093 0.171183 0.5
225 32 0.646899 0.164248 0.5
582 30 0.655339 0.131296 0.5
761 30 0.686434 0.121404 0.5
121 31 0.681466 0.154973 0.5
508 29 0.712957 0.144484 0.5
217 31 0.744648 0.136523 0.5
580 29 0.737253 0.169077 0.5
742 31 0.76846 0.160843 0.5
530 30 0.778054 0.128537 0.5
912 34 0.802903 0.153897 0.5
571 36 0.835869 0.140844 0.5
574 27 0.863494 0.123036 0.5
855 31 0.872834 0.154927 0.5
382 33 0.897971 0.125231 0.5
115 27 0.926596 0.144497 0.5
106 26 0.903277 0.163748 0.5
661 30 0.93277 0.173687 0.5
733 33 0.958774 0.148144 0.5
272 33 0.98682 0.125851 0.5
849 32 0.991453 0.159454 0.5
346 30 0.0295813 0.202 0.5
210 29 0.053898 0.180096 0.5
762 31 0.00472812 0.224021 0.5
729 27 0.0640901 0.212908 0.5
24 30 0.0895656 0.191463 0.5
202 34 0.0992512 0.223674 0.5
120 30 0.122692 0.201144 0.5
130 30 0.148097 0.18071 0.5
140 30 0.158094 0.212642 0.5
429 29 0.13255 0.232988 0.5
124 29 0.180504 0.190611 0.5
736 28 0.188529 0.222165 0.5
815 30 0.210391 0.198147 0.5
260 30 0.220075 0.230965 0.5
837 31 0.244688 0.208979 0.5
171 32 0.266667 0.179494 0.5
902 30 0.275997 0.218871 0.5
823 30 0.297057 0.194346 0.5
427 31 0.335773 0.208323 0.5
756 30 0.310359 0.228713 0.5
96 30 0.369997 0.220437 0.5
621 29 0.405328 0.178919 0.5
273 29 0.376632 0.189937 0.5
664 31 0.403971 0.216946 0.5
701 33 0.433952 0.200299 0.5
90 34 0.467088 0.199706 0.5
841 31 0.432312 0.233773 0.5
728 32 0.498645 0.180932 0.5
434 28 0.522982 0.199922 0.5
232 29 0.492155 0.222079 0.5
888 29 0.521657 0.232218 0.5
263 30 0.553882 0.201738 0.5
497 31 0.582452 0.18296 0.5
645 31 0.583168 0.216961 0.5
424 27 0.610036 0.201542 0.5
112 28 0.644941 0.207597 0.5
368 31 0.614738 0.233789 0.5
94 28 0.702629 0.179883 0.5
666 31 0.671795 0.188408 0.5
988 26 0.67378 0.220558 0.5
637 29 0.705395 0.226874 0.5
887 31 0.728157 0.202278 0.5
265 35 0.762979 0.209388 0.5
393 34 0.789203 0.187155 0.5
797 31 0.794608 0.223492 0.5
329 32 0.845315 0.174447 0.5
832 35 0.821797 0.197961 0.5
456 31 0.853608 0.210531 0.5
529 30 0.876366 0.186812 0.5
521 31 0.826724 0.233746 0.5
611 33 0.885458 0.221731 0.5
377 29 0.908226 0.196043 0.5
353 30 0.918118 0.22765 0.5
803 31 0.94118 0.204561 0.5
2 30 0.99752 0.191968 0.5
310 32 0.965734 0.182362 0.5
886 29 0.974053 0.216274 0.5
545 34 0.0390319 0.233517 0.5
557 33 0.0484531 0.268162 0.5
244 30 0.0139761 0.258254 0.5
283 33 0.0207504 0.289907 0.5
618 33 0.0729968 0.244924 0.5
652 35 0.106204 0.2572 0.5
751 28 0.080367 0.277494 0.5
407 29 0.111364 0.289173 0.5
881 29 0.164372 0.243628 0.5
369 32 0.139001 0.264854 0.5
84 29 0.170938 0.275816 0.5
720 30 0.195782 0.252897 0.5
293 33 0.229238 0.262979 0.5
672 31 0.204343 0.284572 0.5
967 28 0.254137 0.24214 0.5
794 31 0.286367 0.249971 0.5
897 31 0.263494 0.273086 0.5
935 28 0.293783 0.2843 0.5
376 34 0.341137 0.240623 0.5
87 30 0.316719 0.262769 0.5
668 27 0.346553 0.273246 0.5
167 29 0.323778 0.295099 0.5
651 28 0.372613 0.251563 0.5
144 32 0.405061 0.251611 0.5
400 32 0.377887 0.282332 0.5
707 37 0.412447 0.287955 0.5
357 33 0.44236 0.264658 0.5
296 30 0.465617 0.23973 0.5
581 27 0.474925 0.274202 0.5
77 26 0.497645 0.253689 0.5
491 30 0.504494 0.285428 0.5
949 32 0.530395 0.263527 0.5
452 32 0.553899 0.238841 0.5
348 29 0.562339 0.271342 0.5
278 32 0.586607 0.250034 0.5
500 35 0.595325 0.283853 0.5
587 33 0.624517 0.265314 0.5
251 31 0.649059 0.240439 0.5
309 32 0.65817 0.272297 0.5
72 28 0.683125 0.249178 0.5
874 33 0.691052 0.283989 0.5
963 29 0.738524 0.232708 0.5
384 35 0.715809 0.259365 0.5
674 29 0.745343 0.272284 0.5
44 32 0.767833 0.248948 0.5
980 29 0.776406 0.280745 0.5
745 32 0.800059 0.256569 0.5
12 32 0.810387 0.289568 0.5
806 29 0.832639 0.266614 0.5
615 29 0.856766 0.243786 0.5
363 28 0.865721 0.273829 0.5
606 32 0.893505 0.254544 0.5
418 32 0.925763 0.261783 0.5
6 24 0.9018 0.286852 0.5
776 31 0.94953 0.237299 0.5
27 32 0.957078 0.272691 0.5
345 31 0.982138 0.248999 0.5
177 28 0.988279 0.282393 0.5
548 33 0.0259081 0.324415 0.5
259 26 0.0526633 0.303712 0.5
698 27 0.00232406 0.348821 0.5
233 29 0.0626023 0.333811 0.5
542 31 0.0860612 0.309554 0.5
781 30 0.0959566 0.344993 0.5
686 30 0.117199 0.320823 0.5
326 36 0.144201 0.300203 0.5
405 30 0.158513 0.332562 0.5
851 31 0.179412 0.3073 0.5
8 28 0.188669 0.342705 0.5
586 35 0.211476 0.316741 0.5
196 31 0.236714 0.294996 0.5
234 32 0.2447 0.327938 0.5
631 30 0.269693 0.305096 0.5
882 33 0.276029 0.340423 0.5
532 30 0.29981 0.317372 0.5
785 32 0.33188 0.326834 0.5
885 28 0.354482 0.305692 0.5
333 30 0.386725 0.313123 0.5
563 33 0.364407 0.339151 0.5
162 31 0.398084 0.345798 0.5
36 33 0.420812 0.322585 0.5
458 33 0.446476 0.299168 0.5
734 31 0.452879 0.332562 0.5
201 32 0.478535 0.306471 0.5
977 33 0.513628 0.318351 0.5
658 33 0.486854 0.340157 0.5
692 29 0.522241 0.351671 0.5
4 31 0.542373 0.296332 0.5
626 32 0.572722 0.30839 0.5
893 30 0.545232 0.329882 0.5
549 30 0.582312 0.341023 0.5
593 28 0.634376 0.297315 0.5
125 30 0.607538 0.318999 0.5
866 30 0.640889 0.328832 0.5
206 31 0.66531 0.305711 0.5
531 29 0.697543 0.316644 0.5
404 31 0.672785 0.337999 0.5
431 31 0.704493 0.348771 0.5
21 31 0.721505 0.29501 0.5
360 25 0.754731 0.304309 0.5
892 27 0.731525 0.324254 0.5
426 27 0.760588 0.33425 0.5
416 32 0.78393 0.312883 0.5
166 30 0.819395 0.32063 0.5
443 29 0.792735 0.344232 0.5
859 34 0.843073 0.299032 0.5
156 28 0.850404 0.333897 0.5
901 33 0.876497 0.306188 0.5
879 32 0.882321 0.339803 0.5
923 32 0.932153 0.295615 0.5
85 27 0.90761 0.319011 0.5
375 30 0.937657 0.329313 0.5
438 29 0.914212 0.350402 0.5
141 31 0.994647 0.313721 0.5
544 29 0.962525 0.306617 0.5
288 33 0.969755 0.339018 0.5
962 37 0.0364067 0.358056 0.5
911 30 0.0111874 0.380088 0.5
713 33 0.0477667 0.390852 0.5
512 31 0.0719898 0.365348 0.5
428 29 0.103702 0.376934 0.5
791 29 0.0790619 0.398865 0.5
555 30 0.110903 0.410378 0.5
336 33 0.129564 0.353796 0.5
792 31 0.135105 0.386455 0.5
917 34 0.162743 0.365986 0.5
179 31 0.171281 0.399215 0.5
687 31 0.219012 0.351923 0.5
750 31 0.194814 0.376045 0.5
22 32 0.226838 0.385523 0.5
985 28 0.203053 0.408992 0.5
541 31 0.251774 0.361267 0.5
616 30 0.282529 0.373412 0.5
929 32 0.258465 0.396788 0.5
534 32 0.290372 0.407188 0.5
331 29 0.308045 0.349246 0.5
786 34 0.339219 0.362189 0.5
848 30 0.312765 0.383099 0.5
783 29 0.347092 0.395577 0.5
965 30 0.373829 0.371458 0.5
690 29 0.405756 0.377907 0.5
620 29 0.378301 0.404598 0.5
228 29 0.43082 0.355653 0.5
665 35 0.465052 0.366446 0.5
875 32 0.438256 0.388528 0.5
476 27 0.470236 0.398803 0.5
709 30 0.412354 0.412302 0.5
133 31 0.497682 0.373939 0.5
175 36 0.504268 0.40823 0.5
421 32 0.530245 0.383684 0.5
504 34 0.556248 0.361244 0.5
306 29 0.562141 0.395143 0.5
730 31 0.588219 0.375072 0.5
870 30 0.613343 0.352982 0.5
23 29 0.596214 0.406985 0.5
899 27 0.621374 0.38426 0.5
727 33 0.645827 0.361734 0.5
17 29 0.652699 0.395063 0.5
157 31 0.67914 0.372256 0.5
101 29 0.688058 0.404415 0.5
176 31 0.712325 0.381088 0.5
821 29 0.735675 0.357542 0.5
383 32 0.744344 0.390109 0.5
952 32 0.768395 0.365788 0.5
277 29 0.776132 0.399988 0.5
165 27 0.800038 0.374443 0.5
679 35 0.808036 0.409454 0.5
540 32 0.82576 0.352123 0.5
829 28 0.832476 0.38442 0.5
566 31 0.859394 0.365738 0.5
47 31 0.866884 0.398052 0.5
343 32 0.89093 0.373646 0.5
519 28 0.921935 0.385286 0.5
39 29 0.897348 0.408702 0.5
973 27 0.943391 0.362093 0.5
983 31 0.954858 0.393805 0.5
553 31 0.978704 0.371242 0.5
723 30 0.987349 0.404718 0.5
575 31 0.0250153 0.44538 0.5
716 30 0.0497171 0.42356 0.5
191 33 0.01914 0.412232 0.5
188 31 0.00317969 0.469088 0.5
807 27 0.0607282 0.454513 0.5
600 33 0.084469 0.431722 0.5
959 29 0.121144 0.444585 0.5
503 33 0.0923764 0.465507 0.5
764 33 0.143561 0.419094 0.5
812 29 0.174664 0.431746 0.5
971 26 0.151682 0.452753 0.5
628 31 0.180875 0.463777 0.5
872 34 0.206606 0.44148 0.5
111 30 0.233772 0.417796 0.5
26 34 0.239776 0.452391 0.5
7 32 0.264422 0.429805 0.5
154 30 0.274163 0.462583 0.5
550 28 0.299396 0.438086 0.5
51 31 0.322558 0.417644 0.5
693 30 0.331313 0.449746 0.5
556 30 0.355127 0.427277 0.5
105 31 0.387338 0.434586 0.5
636 27 0.361 0.45878 0.5
361 31 0.39487 0.468233 0.5
412 30 0.419006 0.445526 0.5
740 32 0.444167 0.422941 0.5
423 32 0.451677 0.457205 0.5
126 31 0.476502 0.4316 0.5
446 30 0.507847 0.442129 0.5
303 30 0.484438 0.466569 0.5
394 30 0.538143 0.417199 0.5
65 31 0.571914 0.428813 0.5
349 35 0.542518 0.450191 0.5
771 28 0.577423 0.459441 0.5
688 29 0.604203 0.437939 0.5
1000 33 0.628391 0.415594 0.5
324 34 0.636617 0.449781 0.5
83 31 0.66277 0.426422 0.5
590 28 0.692348 0.436898 0.5
9 29 0.668553 0.458818 0.5
267 29 0.701556 0.467862 0.5
478 30 0.719014 0.413403 0.5
70 29 0.74935 0.423027 0.5
136 33 0.726678 0.446223 0.5
110 30 0.75682 0.455805 0.5
999 33 0.782055 0.433026 0.5
364 31 0.814497 0.442776 0.5
264 31 0.789635 0.465602 0.5
968 33 0.841419 0.418048 0.5
822 32 0.875651 0.432436 0.5
867 33 0.847069 0.451798 0.5
632 30 0.882906 0.464102 0.5
533 32 0.929863 0.416755 0.5
633 30 0.906642 0.440388 0.5
41 31 0.93906 0.44904 0.5
313 32 0.99362 0.436683 0.5
471 28 0.962236 0.426229 0.5
480 29 0.970269 0.459848 0.5
918 34 0.0353061 0.478113 0.5
212 28 0.0432859 0.51263 0.5
725 34 0.0103646 0.503049 0.5
951 30 0.0692941 0.48831 0.5
422 30 0.100064 0.500898 0.5
190 34 0.0755473 0.522853 0.5
793 30 0.121553 0.477925 0.5
748 32 0.155709 0.484551 0.5
472 29 0.13181 0.509131 0.5
450 28 0.164214 0.518115 0.5
524 32 0.189805 0.497217 0.5
60 29 0.213263 0.474169 0.5
972 30 0.221406 0.510562 0.5
826 30 0.245706 0.487867 0.5
410 34 0.279431 0.494364 0.5
129 33 0.255055 0.520405 0.5
594 32 0.306052 0.472322 0.5
702 29 0.338717 0.482451 0.5
29 30 0.314869 0.505114 0.5
928 31 0.346212 0.51503 0.5
506 33 0.36956 0.490504 0.5
486 33 0.402464 0.502503 0.5
956 32 0.378672 0.526486 0.5
92 29 0.427797 0.479629 0.5
765 28 0.459332 0.489097 0.5
266 32 0.435297 0.511257 0.5
300 33 0.468386 0.523521 0.5
40 34 0.492313 0.497987 0.5
11 33 0.518709 0.474737 0.5
560 30 0.529358 0.5092 0.5
595 32 0.553811 0.48274 0.5
128 31 0.585829 0.49378 0.5
864 28 0.560818 0.517934 0.5
691 34 0.608961 0.470887 0.5
281 28 0.615483 0.506896 0.5
347 36 0.642423 0.484406 0.5
908 27 0.591769 0.527298 0.5
805 29 0.650373 0.516561 0.5
760 29 0.677021 0.489227 0.5
981 30 0.682355 0.520681 0.5
772 31 0.708531 0.498539 0.5
289 27 0.733099 0.477252 0.5
910 30 0.740492 0.509259 0.5
578 30 0.765523 0.486963 0.5
35 33 0.773183 0.519788 0.5
974 29 0.79933 0.498226 0.5
282 29 0.823535 0.475434 0.5
625 31 0.830148 0.508993 0.5
906 34 0.855345 0.486352 0.5
584 28 0.86121 0.51894 0.5
135 30 0.888901 0.49804 0.5
784 29 0.914062 0.472693 0.5
585 31 0.920168 0.507274 0.5
601 31 0.895559 0.530854 0.5
579 29 0.943878 0.484 0.5
294 30 0.951117 0.519998 0.5
960 34 0.976181 0.493055 0.5
187 32 0.983258 0.525936 0.5
868 34 0.0237697 0.568265 0.5
95 31 0.0477397 0.543875 0.5
916 28 0.0151472 0.536116 0.5
109 35 0.0587231 0.576262 0.5
854 29 0.0850647 0.554825 0.5
641 30 0.108689 0.53214 0.5
789 29 0.117323 0.564071 0.5
680 30 0.140278 0.541409 0.5
1 29 0.172526 0.552347 0.5
145 28 0.14847 0.573412 0.5
830 30 0.178993 0.584054 0.5
925 27 0.197969 0.53221 0.5
465 29 0.206614 0.564713 0.5
833 31 0.23223 0.543147 0.5
948 33 0.287292 0.529572 0.5
204 32 0.236802 0.57724 0.5
942 28 0.264831 0.553059 0.5
624 28 0.270371 0.584461 0.5
804 30 0.295321 0.562279 0.5
287 33 0.319517 0.538391 0.5
722 32 0.327899 0.570862 0.5
275 31 0.352387 0.549129 0.5
13 31 0.359472 0.580997 0.5
796 29 0.385185 0.558142 0.5
25 31 0.411843 0.536935 0.5
732 30 0.416628 0.57034 0.5
20 32 0.442945 0.549877 0.5
246 32 0.451541 0.584023 0.5
814 31 0.480214 0.555228 0.5
619 31 0.504327 0.532768 0.5
411 31 0.512072 0.564911 0.5
767 34 0.536946 0.541295 0.5
432 30 0.569463 0.550235 0.5
209 29 0.547256 0.572517 0.5
481 30 0.577613 0.58228 0.5
470 30 0.6023 0.556647 0.5
311 29 0.626614 0.536393 0.5
321 31 0.633517 0.568084 0.5
195 33 0.660544 0.547084 0.5
904 32 0.693098 0.556917 0.5
297 30 0.665102 0.581588 0.5
137 32 0.714328 0.530923 0.5
42 35 0.725596 0.56632 0.5
118 29 0.748485 0.542739 0.5
711 32 0.760064 0.576311 0.5
338 30 0.784803 0.554247 0.5
341 28 0.806346 0.529668 0.5
853 26 0.813664 0.564091 0.5
119 30 0.790644 0.585921 0.5
381 31 0.838012 0.54167 0.5
295 32 0.870594 0.552204 0.5
778 28 0.843661 0.572665 0.5
392 30 0.878395 0.584346 0.5
862 28 0.9276 0.540059 0.5
134 32 0.903412 0.562491 0.5
861 32 0.936782 0.573464 0.5
818 28 0.958971 0.551543 0.5
495 31 0.990975 0.557731 0.5
271 30 0.969108 0.58233 0.5
546 31 0.0320654 0.600053 0.5
401 28 0.0392476 0.631434 0.5
231 31 0.00559587 0.623673 0.5
441 30 0.0902296 0.588279 0.5
790 31 0.064707 0.609608 0.5
359 32 0.0980559 0.619494 0.5
398 33 0.0729197 0.640831 0.5
447 33 0.122983 0.59721 0.5
869 31 0.154942 0.606294 0.5
696 29 0.129073 0.630698 0.5
718 26 0.159648 0.637943 0.5
151 33 0.185798 0.619029 0.5
205 29 0.210034 0.596008 0.5
475 29 0.218348 0.626838 0.5
714 30 0.247191 0.610832 0.5
954 28 0.279017 0.613881 0.5
86 30 0.25269 0.642923 0.5
48 28 0.284251 0.643435 0.5
634 25 0.301889 0.595331 0.5
117 31 0.312995 0.628456 0.5
32 27 0.329942 0.601347 0.5
152 32 0.339403 0.652402 0.5
62 30 0.39132 0.596114 0.5
543 32 0.360735 0.614609 0.5
186 31 0.405694 0.630011 0.5
388 29 0.371911 0.646304 0.5
958 27 0.423518 0.601999 0.5
406 30 0.466239 0.61363 0.5
371 30 0.438745 0.630732 0.5
758 27 0.466426 0.645647 0.5
79 33 0.487369 0.588409 0.5
370 33 0.498228 0.624803 0.5
840 29 0.520426 0.59933 0.5
572 32 0.532747 0.630046 0.5
825 33 0.554436 0.60448 0.5
820 30 0.587851 0.618956 0.5
604 27 0.564089 0.640372 0.5
638 37 0.608858 0.591859 0.5
915 29 0.642209 0.604793 0.5
437 31 0.618955 0.628 0.5
850 28 0.650714 0.636474 0.5
323 30 0.697944 0.589292 0.5
816 31 0.674006 0.612196 0.5
932 29 0.68311 0.645978 0.5
454 31 0.705569 0.62089 0.5
43 32 0.732896 0.600625 0.5
573 30 0.74269 0.632614 0.5
997 32 0.765967 0.610417 0.5
635 27 0.773553 0.641321 0.5
163 28 0.797618 0.617707 0.5
46 32 0.822054 0.596858 0.5
654 28 0.831317 0.630506 0.5
322 27 0.853246 0.609314 0.5
599 32 0.863014 0.641509 0.5
318 32 0.887398 0.617266 0.5
276 32 0.912393 0.596176 0.5
514 28 0.91904 0.628849 0.5
675 29 0.943684 0.604886 0.5
489 27 0.948986 0.636136 0.5
684 28 1.00029 0.59219 0.5
946 30 0.974362 0.615376 0.5
630 31 0.979025 0.646408 0.5
237 32 0.0473608 0.664658 0.5
757 34 0.0142412 0.657182 0.5
876 31 0.02339 0.689166 0.5
969 30 0.0561337 0.704098 0.5
477 31 0.0795639 0.675271 0.5
777 29 0.105792 0.651342 0.5
726 30 0.112033 0.684042 0.5
913 30 0.136775 0.663531 0.5
344 27 0.169444 0.673194 0.5
724 34 0.14242 0.697702 0.5
19 30 0.177507 0.70264 0.5
970 27 0.192349 0.651153 0.5
116 27 0.223462 0.65708 0.5
460 32 0.208291 0.689297 0.5
989 32 0.241697 0.682651 0.5
284 32 0.274079 0.674423 0.5
399 32 0.298351 0.698667 0.5
909 29 0.307608 0.666232 0.5
352 29 0.331798 0.68676 0.5
883 33 0.363752 0.677989 0.5
286 31 0.39574 0.66813 0.5
602 28 0.387741 0.700689 0.5
45 30 0.426472 0.659251 0.5
226 31 0.420489 0.691231 0.5
386 33 0.452759 0.678063 0.5
863 29 0.475363 0.700741 0.5
479 26 0.483417 0.670828 0.5
526 30 0.510946 0.654874 0.5
547 32 0.511513 0.688636 0.5
69 32 0.54222 0.663197 0.5
773 26 0.573708 0.669611 0.5
189 23 0.555407 0.69278 0.5
800 27 0.59682 0.649978 0.5
3 32 0.603819 0.682222 0.5
978 27 0.62599 0.659302 0.5
520 31 0.636723 0.692211 0.5
335 32 0.660048 0.668165 0.5
184 29 0.691913 0.677248 0.5
327 31 0.669441 0.699826 0.5
522 33 0.71497 0.652769 0.5
108 32 0.747984 0.663991 0.5
50 31 0.725214 0.686388 0.5
354 32 0.757157 0.695445 0.5
463 29 0.780993 0.671462 0.5
683 32 0.805764 0.650992 0.5
878 31 0.811367 0.683452 0.5
64 31 0.837767 0.662543 0.5
678 30 0.868883 0.67444 0.5
319 30 0.842915 0.695245 0.5
93 35 0.874726 0.707018 0.5
695 27 0.89477 0.651243 0.5
612 29 0.900225 0.683488 0.5
605 28 0.923497 0.662366 0.5
200 32 0.930903 0.692912 0.5
269 31 0.955121 0.671039 0.5
643 29 0.989446 0.679369 0.5
98 32 0.965958 0.701943 0.5
308 29 0.0282973 0.722073 0.5
539 31 0.0557676 0.74258 0.5
839 29 0.02402 0.753579 0.5
146 28 0.0882396 0.706056 0.5
435 28 0.0860057 0.7368 0.5
827 35 0.117266 0.722602 0.5
801 29 0.109121 0.757506 0.5
160 30 0.169611 0.734565 0.5
468 29 0.139875 0.747634 0.5
82 32 0.200488 0.725131 0.5
10 30 0.231832 0.713634 0.5
617 32 0.19737 0.761713 0.5
320 32 0.226828 0.747148 0.5
74 32 0.265913 0.706405 0.5
15 32 0.260399 0.739937 0.5
639 27 0.291958 0.729481 0.5
739 35 0.283449 0.765843 0.5
576 31 0.323362 0.721197 0.5
640 33 0.34899 0.743467 0.5
53 32 0.315715 0.753301 0.5
717 30 0.356293 0.709191 0.5
417 28 0.379873 0.73434 0.5
627 31 0.405549 0.75485 0.5
99 28 0.410743 0.722501 0.5
235 32 0.373464 0.76632 0.5
667 29 0.445044 0.71056 0.5
222 31 0.437486 0.74435 0.5
735 29 0.468654 0.731056 0.5
198 32 0.500843 0.720597 0.5
59 28 0.526673 0.743527 0.5
535 28 0.494849 0.752117 0.5
304 29 0.533149 0.713258 0.5
755 28 0.581593 0.709032 0.5
979 32 0.559023 0.732327 0.5
292 30 0.587909 0.750351 0.5
337 30 0.6123 0.715425 0.5
562 33 0.644953 0.725938 0.5
993 30 0.619085 0.746592 0.5
482 30 0.677725 0.731116 0.5
49 29 0.701278 0.707814 0.5
782 29 0.707217 0.742928 0.5
373 32 0.730447 0.721202 0.5
185 33 0.762893 0.728938 0.5
570 32 0.738666 0.752813 0.5
123 25 0.793692 0.7376 0.5
142 31 0.787472 0.706268 0.5
496 30 0.818268 0.716662 0.5
302 29 0.77144 0.759857 0.5
697 33 0.823136 0.750947 0.5
955 29 0.847709 0.728682 0.5
810 31 0.880204 0.740203 0.5
285 30 0.854413 0.76119 0.5
474 29 0.908572 0.717241 0.5
88 35 0.941011 0.72667 0.5
254 31 0.914686 0.747992 0.5
149 29 0.997826 0.709797 0.5
240 30 0.974054 0.732873 0.5
236 35 0.955798 0.763012 0.5
889 29 0.992223 0.759463 0.5
223 26 0.0458801 0.77493 0.5
161 29 0.0362803 0.807367 0.5
515 30 0.0143562 0.783705 0.5
194 31 0.0675873 0.799582 0.5
224 30 0.0780134 0.767744 0.5
747 28 0.100415 0.791869 0.5
433 28 0.0902227 0.823707 0.5
351 31 0.132491 0.780608 0.5
992 33 0.123463 0.814873 0.5
342 34 0.164799 0.769503 0.5
610 30 0.15575 0.803355 0.5
554 30 0.189286 0.794086 0.5
439 29 0.220475 0.783933 0.5
315 30 0.213184 0.816391 0.5
567 30 0.245888 0.807166 0.5
552 30 0.250653 0.775045 0.5
127 27 0.275797 0.797944 0.5
257 32 0.301933 0.819491 0.5
419 32 0.311131 0.78683 0.5
220 30 0.342578 0.776365 0.5
5 32 0.335627 0.810224 0.5
449 29 0.366371 0.798426 0.5
670 32 0.398045 0.787873 0.5
731 32 0.391523 0.820582 0.5
391 28 0.464073 0.761747 0.5
507 30 0.430196 0.77672 0.5
941 30 0.455842 0.797209 0.5
657 28 0.425032 0.807907 0.5
291 29 0.488299 0.783175 0.5
390 31 0.522196 0.774389 0.5
362 31 0.512847 0.805863 0.5
937 31 0.481525 0.818106 0.5
268 36 0.555417 0.766319 0.5
817 33 0.54614 0.801025 0.5
877 30 0.583005 0.788287 0.5
192 33 0.573569 0.822834 0.5
139 30 0.61382 0.778686 0.5
609 30 0.636114 0.802976 0.5
366 30 0.606423 0.810465 0.5
153 33 0.647934 0.764792 0.5
30 31 0.682509 0.76327 0.5
774 32 0.666991 0.792517 0.5
741 32 0.694957 0.815788 0.5
669 34 0.713129 0.776419 0.5
843 32 0.750116 0.783837 0.5
147 30 0.726607 0.806653 0.5
314 31 0.774905 0.810021 0.5
221 27 0.797651 0.777187 0.5
558 31 0.808328 0.809327 0.5
759 33 0.831197 0.785852 0.5
299 28 0.86306 0.792813 0.5
219 29 0.875779 0.823693 0.5
880 34 0.891161 0.773582 0.5
56 29 0.925294 0.780221 0.5
501 32 0.905521 0.806756 0.5
613 29 0.946727 0.801669 0.5
510 32 0.979172 0.792202 0.5
396 31 1.00413 0.814731 0.5
873 31 0.0273972 0.838655 0.5
518 30 0.0593064 0.832273 0.5
248 28 0.0529826 0.863803 0.5
943 36 0.0196462 0.871782 0.5
894 29 0.0835713 0.854057 0.5
207 31 0.117 0.846775 0.5
642 31 0.106311 0.877491 0.5
865 27 0.14902 0.83697 0.5
261 33 0.173667 0.858377 0.5
828 30 0.140968 0.868608 0.5
647 30 0.179614 0.825342 0.5
213 31 0.205157 0.847664 0.5
459 33 0.229207 0.873362 0.5
61 31 0.197246 0.882169 0.5
775 32 0.23748 0.840645 0.5
387 30 0.27047 0.82975 0.5
131 29 0.261133 0.864611 0.5
316 34 0.293347 0.854306 0.5
330 29 0.32681 0.842327 0.5
984 31 0.35234 0.862592 0.5
659 32 0.319912 0.875692 0.5
860 30 0.359627 0.831789 0.5
230 31 0.384612 0.853391 0.5
148 32 0.411718 0.875359 0.5
150 34 0.418126 0.841946 0.5
525 29 0.450339 0.829538 0.5
831 30 0.444394 0.862249 0.5
890 32 0.476313 0.850937 0.5
523 27 0.506247 0.839155 0.5
798 32 0.502451 0.871853 0.5
78 26 0.535968 0.86483 0.5
537 29 0.537148 0.832504 0.5
444 32 0.567246 0.855365 0.5
355 31 0.592622 0.87775 0.5
102 27 0.599374 0.844272 0.5
395 29 0.629455 0.835719 0.5
159 32 0.624515 0.86796 0.5
253 30 0.657556 0.858265 0.5
708 29 0.660772 0.825917 0.5
453 28 0.687014 0.848803 0.5
340 27 0.679545 0.880788 0.5
836 30 0.71379 0.870169 0.5
746 28 0.719451 0.838817 0.5
681 28 0.74815 0.829605 0.5
415 28 0.749389 0.860946 0.5
945 32 0.779492 0.85 0.5
975 29 0.811455 0.841341 0.5
55 29 0.804824 0.875651 0.5
842 29 0.836107 0.862787 0.5
334 32 0.841689 0.820333 0.5
183 29 0.867153 0.856297 0.5
931 30 0.904426 0.840372 0.5
689 30 0.936923 0.83085 0.5
780 30 0.895381 0.874553 0.5
436 31 0.92662 0.867531 0.5
113 32 0.961022 0.857309 0.5
238 28 0.970831 0.825761 0.5
905 30 0.993137 0.849059 0.5
262 31 0.0430459 0.89454 0.5
987 32 0.0386072 0.926095 0.5
164 32 0.0100126 0.906631 0.5
33 30 0.000466872 0.938114 0.5
328 27 0.0712421 0.918919 0.5
38 30 0.0750376 0.88711 0.5
172 26 0.100641 0.910287 0.5
505 31 0.12476 0.932342 0.5
538 32 0.132773 0.900233 0.5
710 33 0.166045 0.892468 0.5
565 29 0.159191 0.924656 0.5
947 32 0.190623 0.915961 0.5
339 33 0.222891 0.90697 0.5
279 31 0.214297 0.940215 0.5
907 29 0.285781 0.886712 0.5
490 31 0.246082 0.930338 0.5
462 30 0.255241 0.895385 0.5
380 34 0.278312 0.919952 0.5
743 31 0.310406 0.908588 0.5
884 33 0.345141 0.898289 0.5
218 27 0.335623 0.928999 0.5
577 33 0.304792 0.942987 0.5
122 30 0.37227 0.918646 0.5
623 33 0.378775 0.887021 0.5
536 29 0.403762 0.908358 0.5
835 31 0.397783 0.940079 0.5
650 30 0.438319 0.894404 0.5
808 29 0.461221 0.915865 0.5
921 33 0.429619 0.928592 0.5
494 27 0.471095 0.882544 0.5
256 32 0.493945 0.904608 0.5
451 31 0.51834 0.929781 0.5
982 31 0.527136 0.896408 0.5
934 28 0.485933 0.937436 0.5
598 32 0.559674 0.887422 0.5
629 28 0.583117 0.911655 0.5
824 31 0.55126 0.920371 0.5
214 32 0.616053 0.901271 0.5
655 30 0.642725 0.92101 0.5
445 32 0.607595 0.934668 0.5
509 29 0.648487 0.889722 0.5
173 30 0.673218 0.910876 0.5
420 32 0.697575 0.933163 0.5
583 28 0.706273 0.900895 0.5
858 31 0.737672 0.892605 0.5
924 28 0.760729 0.915564 0.5
76 29 0.730948 0.927373 0.5
527 30 0.770872 0.884476 0.5
719 27 0.796382 0.905239 0.5
591 29 0.819416 0.927676 0.5
243 31 0.787674 0.937918 0.5
588 29 0.828974 0.895066 0.5
919 28 0.859763 0.885881 0.5
52 33 0.853654 0.917695 0.5
182 31 0.880658 0.940625 0.5
258 34 0.887096 0.9075 0.5
622 30 0.920659 0.901483 0.5
397 31 0.913539 0.933309 0.5
34 31 0.985534 0.881862 0.5
502 28 0.944924 0.923626 0.5
922 33 0.952176 0.891759 0.5
89 30 0.976542 0.915194 0.5
242 33 0.0173234 0.991205 0.5
920 30 0.051498 0.98403 0.5
846 32 0.0291612 0.959252 0.5
998 31 0.0615667 0.949143 0.5
461 31 0.0937288 0.943388 0.5
67 30 0.083187 0.974744 0.5
197 30 0.117229 0.966302 0.5
891 32 0.140787 0.993253 0.5
466 35 0.150007 0.957217 0.5
516 34 0.173615 0.982923 0.5
721 29 0.182919 0.949144 0.5
455 31 0.233359 0.995766 0.5
215 29 0.20857 0.973154 0.5
80 30 0.24011 0.962563 0.5
819 30 0.263805 0.985919 0.5
255 30 0.272624 0.954349 0.5
180 31 0.296248 0.975353 0.5
738 31 0.321325 0.996532 0.5
168 33 0.332584 0.962205 0.5
374 32 0.359173 0.983204 0.5
852 32 0.363888 0.950175 0.5
592 28 0.390151 0.971214 0.5
71 32 0.413954 0.993291 0.5
58 29 0.422404 0.961696 0.5
473 31 0.446566 0.983377 0.5
409 30 0.454432 0.948854 0.5
844 31 0.477477 0.971962 0.5
649 33 0.503311 0.993522 0.5
682 33 0.508905 0.961364 0.5
467 31 0.534928 0.983566 0.5
31 27 0.543292 0.95083 0.5
752 29 0.575317 0.940986 0.5
430 32 0.567417 0.972955 0.5
178 27 0.596791 0.997011 0.5
107 30 0.625711 0.98744 0.5
898 29 0.601077 0.966008 0.5
704 32 0.633306 0.954913 0.5
301 33 0.660597 0.977192 0.5
75 27 0.66678 0.942483 0.5
749 29 0.690963 0.967339 0.5
744 32 0.716417 0.990139 0.5
715 27 0.748804 0.980836 0.5
250 30 0.723992 0.958222 0.5
926 32 0.756275 0.949279 0.5
158 32 0.803867 0.99646 0.5
241 32 0.780129 0.973226 0.5
484 32 0.813641 0.961561 0.5
703 30 0.838311 0.982529 0.5
483 29 0.844343 0.95059 0.5
990 34 0.871043 0.973205 0.5
857 34 0.896968 0.997049 0.5
940 29 0.930259 0.991155 0.5
660 29 0.904584 0.964504 0.5
895 30 0.936416 0.958467 0.5
378 31 0.990721 0.96844 0.5
656 27 0.968466 0.946404 0.5
332 29 0.960579 0.982082 0.5
