ITEM: TIMESTEP
250000
ITEM: NUMBER OF ATOMS
1000
ITEM: BOX BOUNDS pp pp pp
-1.6583404999999999e+01 1.6583404999999999e+01
-1.6583404999999999e+01 1.6583404999999999e+01
-5.0000000000000000e-01 5.0000000000000000e-01
ITEM: ATOMS id type xs ys zs
720 28 0.0507442 0.049746 0.5
706 32 0.0439945 0.0149315 0.5
628 31 0.0187253 0.0346094 0.5
259 20 0.0153093 0.00323585 0.5
787 27 -0.00610431 0.0574215 0.5
216 42 0.0797088 0.0323037 0.5
403 25 0.115165 0.0401733 0.5
18 42 0.109461 0.00625007 0.5
564 26 0.144195 0.0143049 0.5
252 35 0.147379 0.0476281 0.5
837 33 0.173259 0.0260258 0.5
888 28 0.205059 0.0385466 0.5
848 28 0.198855 0.00593857 0.5
646 27 0.23076 0.0193144 0.5
376 40 0.262318 0.0317159 0.5
144 34 0.232933 0.0538529 0.5
440 39 0.298954 0.0410279 0.5
114 25 0.331439 0.0271583 0.5
621 27 0.288169 0.00788682 0.5
949 34 0.365064 0.0352507 0.5
434 24 0.380562 0.00712743 0.5
368 33 0.349783 0.00275275 0.5
493 25 0.397921 0.0290162 0.5
333 30 0.424127 0.0180478 0.5
950 32 0.423667 0.0508197 0.5
671 25 0.452211 0.043359 0.5
424 23 0.453415 0.012928 0.5
834 31 0.479111 0.0287085 0.5
799 27 0.504857 0.00900762 0.5
121 32 0.507782 0.0437003 0.5
4 33 0.535458 0.0252821 0.5
742 31 0.564827 0.00735845 0.5
666 33 0.571882 0.0429523 0.5
94 24 0.59477 0.0164025 0.5
603 29 0.61147 0.0429636 0.5
265 42 0.62899 0.0128118 0.5
277 26 0.642646 0.0459725 0.5
963 27 0.665446 0.0228326 0.5
136 37 0.698193 0.0311099 0.5
855 31 0.686085 -0.000655718 0.5
443 28 0.673059 0.0521476 0.5
312 38 0.726388 0.00495579 0.5
859 40 0.734777 0.0435556 0.5
803 31 0.764085 0.0249318 0.5
557 37 0.798028 0.04178 0.5
745 35 0.797198 0.00582841 0.5
806 27 0.830072 0.0269017 0.5
233 27 0.859946 0.048256 0.5
652 41 0.859902 0.0118011 0.5
24 29 0.89635 0.0116455 0.5
288 36 0.898075 0.0473643 0.5
662 32 0.925617 0.0256969 0.5
917 39 0.959024 0.0427416 0.5
729 23 0.952941 0.0106144 0.5
936 25 0.988031 0.0241056 0.5
407 26 0.023734 0.064845 0.5
428 28 0.0329995 0.0946508 0.5
929 33 0.000995082 0.0894373 0.5
171 34 0.0653542 0.0787011 0.5
54 29 0.0942212 0.0637026 0.5
429 27 0.0948202 0.0942228 0.5
140 30 0.123076 0.0714321 0.5
616 30 0.125216 0.105626 0.5
783 26 0.149533 0.0862771 0.5
400 34 0.180046 0.0605097 0.5
802 35 0.180642 0.0965712 0.5
273 28 0.20666 0.0764242 0.5
966 25 0.234392 0.0870142 0.5
96 30 0.26515 0.0669678 0.5
120 30 0.262103 0.099382 0.5
263 29 0.330991 0.0564007 0.5
707 46 0.300404 0.0803279 0.5
651 24 0.334622 0.0867844 0.5
664 32 0.360014 0.0695241 0.5
500 41 0.386534 0.094234 0.5
674 27 0.392104 0.0610751 0.5
491 29 0.419539 0.0831666 0.5
761 29 0.449079 0.0730583 0.5
568 31 0.479613 0.0626697 0.5
72 25 0.473115 0.0918884 0.5
497 32 0.444294 0.10678 0.5
21 31 0.508553 0.0775419 0.5
329 34 0.53768 0.0595668 0.5
637 28 0.533404 0.0981758 0.5
452 33 0.56492 0.0781279 0.5
988 19 0.593054 0.0645176 0.5
508 28 0.591748 0.0946075 0.5
416 34 0.621798 0.0747657 0.5
360 17 0.652696 0.0703319 0.5
225 35 0.647947 0.102118 0.5
892 23 0.615851 0.108322 0.5
540 35 0.67763 0.084345 0.5
264 31 0.705432 0.0656629 0.5
679 43 0.706661 0.105386 0.5
166 30 0.737191 0.0813086 0.5
901 37 0.766328 0.05958 0.5
217 32 0.77119 0.0962232 0.5
12 35 0.797337 0.0759637 0.5
363 25 0.795926 0.11562 0.5
521 32 0.830025 0.0622726 0.5
618 36 0.823465 0.0977759 0.5
574 22 0.852743 0.0836916 0.5
165 22 0.878271 0.069932 0.5
983 32 0.881475 0.10382 0.5
480 26 0.928394 0.0619282 0.5
614 29 0.905731 0.0818793 0.5
548 37 0.937347 0.0927298 0.5
542 32 0.96719 0.0785595 0.5
723 28 0.972392 0.109527 0.5
534 33 0.0328401 0.13221 0.5
84 27 0.0442674 0.161095 0.5
545 38 -0.00116086 0.125687 0.5
26 40 0.0120729 0.159677 0.5
770 41 0.0644946 0.114581 0.5
897 31 0.072578 0.148557 0.5
792 31 0.0990526 0.127545 0.5
586 42 0.104649 0.166848 0.5
750 32 0.155437 0.119465 0.5
162 32 0.12941 0.139535 0.5
965 29 0.161398 0.15225 0.5
555 30 0.212576 0.109066 0.5
458 37 0.187313 0.132585 0.5
967 24 0.218899 0.140146 0.5
668 22 0.192126 0.164565 0.5
169 21 0.239089 0.120536 0.5
427 31 0.244546 0.153936 0.5
815 30 0.267273 0.132536 0.5
690 26 0.291567 0.113627 0.5
73 31 0.323678 0.115096 0.5
331 26 0.305458 0.141374 0.5
728 34 0.278263 0.163473 0.5
303 28 0.355669 0.111349 0.5
175 44 0.343998 0.145689 0.5
645 33 0.379159 0.13122 0.5
619 32 0.376627 0.164471 0.5
309 34 0.411914 0.118466 0.5
658 36 0.409089 0.153985 0.5
176 33 0.442973 0.138845 0.5
566 31 0.472943 0.124472 0.5
232 27 0.469962 0.15718 0.5
887 33 0.501575 0.110367 0.5
587 36 0.501017 0.145467 0.5
44 33 0.532589 0.13137 0.5
529 28 0.529248 0.164994 0.5
874 38 0.563955 0.113829 0.5
383 35 0.563267 0.149847 0.5
952 34 0.596368 0.137586 0.5
821 26 0.61521 0.163907 0.5
9 27 0.628847 0.135304 0.5
531 26 0.65943 0.138902 0.5
177 24 0.642596 0.16544 0.5
426 22 0.675279 0.114413 0.5
980 28 0.690244 0.139739 0.5
364 32 0.721695 0.141525 0.5
418 34 0.745308 0.116784 0.5
716 30 0.75604 0.147239 0.5
6 14 0.772964 0.125424 0.5
879 33 0.789758 0.148212 0.5
606 34 0.821626 0.135773 0.5
544 28 0.812705 0.16793 0.5
191 37 0.852241 0.154405 0.5
41 31 0.852118 0.119739 0.5
294 29 0.881066 0.136088 0.5
822 35 0.912799 0.117235 0.5
713 37 0.910134 0.153886 0.5
807 23 0.945967 0.122983 0.5
686 30 0.944001 0.15393 0.5
973 21 0.970265 0.137828 0.5
405 29 0.0334599 0.189443 0.5
154 28 0.055928 0.213259 0.5
111 28 0.065028 0.181347 0.5
60 27 0.0914286 0.197691 0.5
636 22 0.138573 0.168848 0.5
951 29 0.133497 0.198756 0.5
22 34 0.164519 0.185129 0.5
532 28 0.172787 0.21642 0.5
201 34 0.197735 0.195007 0.5
885 25 0.219995 0.169313 0.5
902 30 0.229341 0.209053 0.5
785 33 0.2524 0.1869 0.5
36 37 0.286694 0.196587 0.5
740 34 0.316511 0.17324 0.5
228 27 0.32489 0.208195 0.5
112 25 0.347827 0.180449 0.5
730 32 0.377503 0.197303 0.5
593 25 0.354719 0.218761 0.5
105 31 0.439187 0.171718 0.5
581 23 0.406243 0.185556 0.5
665 42 0.437364 0.206371 0.5
306 27 0.403952 0.21482 0.5
402 37 0.469858 0.189399 0.5
476 21 0.497788 0.20453 0.5
864 24 0.50194 0.177651 0.5
893 30 0.528192 0.204501 0.5
431 31 0.552927 0.185331 0.5
421 34 0.590883 0.185352 0.5
100 33 0.570233 0.214326 0.5
866 28 0.605668 0.215497 0.5
348 27 0.62573 0.191035 0.5
101 27 0.656007 0.193252 0.5
282 27 0.637021 0.21922 0.5
267 27 0.673777 0.166129 0.5
578 29 0.704537 0.16859 0.5
590 24 0.685341 0.195001 0.5
910 30 0.669399 0.220409 0.5
156 24 0.714399 0.197445 0.5
137 33 0.737885 0.175143 0.5
141 33 0.745731 0.205295 0.5
999 36 0.773811 0.177936 0.5
911 29 0.779737 0.21155 0.5
283 37 0.812538 0.201926 0.5
632 30 0.848022 0.186232 0.5
698 21 0.847358 0.216801 0.5
575 32 0.880111 0.168873 0.5
188 31 0.876782 0.200972 0.5
343 33 0.909424 0.189062 0.5
503 37 0.935801 0.216471 0.5
781 29 0.942521 0.183513 0.5
326 43 0.976492 0.17186 0.5
631 30 1.00202 0.198101 0.5
196 31 0.970233 0.208496 0.5
95 32 0.023912 0.222445 0.5
748 35 0.0175462 0.254965 0.5
972 29 0.0491198 0.243364 0.5
116 22 0.0827671 0.22697 0.5
882 36 0.0785596 0.259842 0.5
925 22 0.111514 0.220382 0.5
812 27 0.112198 0.248836 0.5
563 36 0.140821 0.232661 0.5
179 31 0.138158 0.265148 0.5
786 38 0.172148 0.25168 0.5
875 34 0.202157 0.230265 0.5
357 37 0.207394 0.267137 0.5
709 30 0.232588 0.242834 0.5
794 31 0.260992 0.219835 0.5
384 42 0.268533 0.25595 0.5
296 30 0.291864 0.230474 0.5
65 31 0.30188 0.268926 0.5
504 39 0.325723 0.242794 0.5
126 32 0.358585 0.260013 0.5
549 30 0.381512 0.234382 0.5
814 31 0.391619 0.265813 0.5
765 24 0.412115 0.242793 0.5
771 25 0.422981 0.27008 0.5
404 31 0.443133 0.242392 0.5
251 32 0.453871 0.272846 0.5
626 35 0.473198 0.225878 0.5
349 41 0.487361 0.26203 0.5
406 30 0.509054 0.231492 0.5
688 26 0.542704 0.232163 0.5
42 41 0.526078 0.261189 0.5
157 32 0.562617 0.259528 0.5
17 27 0.587061 0.241137 0.5
278 33 0.593099 0.27091 0.5
478 29 0.618332 0.244072 0.5
727 36 0.652189 0.24858 0.5
1000 36 0.628688 0.27657 0.5
289 22 0.683766 0.2499 0.5
206 32 0.702057 0.22489 0.5
625 32 0.712616 0.25637 0.5
39 26 0.733061 0.233456 0.5
519 24 0.743058 0.263224 0.5
974 26 0.762236 0.237654 0.5
553 32 0.777565 0.267135 0.5
375 30 0.793119 0.238173 0.5
725 39 0.814368 0.267402 0.5
585 32 0.823425 0.235695 0.5
971 20 0.869944 0.230583 0.5
533 35 0.852664 0.255561 0.5
764 37 0.900826 0.225787 0.5
119 29 0.886331 0.256489 0.5
675 27 0.926779 0.248645 0.5
641 29 0.958244 0.240889 0.5
791 27 0.988042 0.234693 0.5
714 29 0.981604 0.265458 0.5
600 36 0.0475898 0.277444 0.5
524 33 0.039415 0.314792 0.5
962 47 0.00680785 0.295786 0.5
594 33 0.108424 0.281431 0.5
186 31 0.0778505 0.292853 0.5
512 31 0.103277 0.314822 0.5
985 24 0.0719486 0.322406 0.5
541 33 0.138292 0.298052 0.5
8 25 0.155477 0.322993 0.5
410 40 0.176069 0.290496 0.5
51 31 0.188772 0.326627 0.5
833 33 0.214122 0.304956 0.5
361 33 0.242215 0.278651 0.5
556 29 0.247014 0.310683 0.5
275 32 0.27614 0.292191 0.5
928 33 0.308574 0.301267 0.5
506 37 0.283141 0.326686 0.5
62 28 0.333861 0.278331 0.5
77 20 0.34663 0.307807 0.5
117 31 0.370274 0.290799 0.5
20 35 0.379209 0.323584 0.5
446 28 0.347958 0.336135 0.5
595 35 0.403748 0.296391 0.5
128 31 0.420655 0.325643 0.5
620 28 0.437548 0.300309 0.5
125 30 0.454698 0.331907 0.5
691 39 0.473349 0.301531 0.5
281 25 0.486272 0.333191 0.5
209 26 0.507372 0.292049 0.5
79 38 0.518927 0.324143 0.5
324 39 0.54226 0.292466 0.5
311 27 0.574022 0.299458 0.5
133 32 0.554501 0.326994 0.5
522 36 0.588839 0.331044 0.5
816 32 0.606672 0.301974 0.5
805 27 0.642196 0.3066 0.5
997 34 0.623106 0.330073 0.5
760 26 0.66278 0.283458 0.5
772 32 0.676866 0.31186 0.5
23 28 0.692146 0.279895 0.5
118 26 0.703805 0.325366 0.5
47 31 0.719173 0.294712 0.5
784 28 0.735495 0.322444 0.5
35 37 0.755736 0.294937 0.5
338 29 0.770044 0.326727 0.5
438 27 0.789067 0.299267 0.5
777 26 0.80154 0.329123 0.5
862 24 0.817068 0.301148 0.5
778 24 0.841888 0.286647 0.5
789 28 0.871717 0.284118 0.5
960 40 0.858297 0.316214 0.5
918 40 0.896868 0.310428 0.5
187 33 0.911775 0.27686 0.5
906 38 0.93448 0.307464 0.5
336 36 0.949288 0.274424 0.5
793 29 0.969919 0.304247 0.5
696 27 0.0246766 0.343716 0.5
790 32 0.0367333 0.377133 0.5
826 30 0.00489329 0.367193 0.5
854 28 0.0553179 0.346296 0.5
234 34 0.071489 0.377888 0.5
441 30 0.0922266 0.346364 0.5
151 38 0.108125 0.377158 0.5
872 39 0.128862 0.345111 0.5
447 37 0.144938 0.381141 0.5
423 34 0.166436 0.351731 0.5
10 29 0.201353 0.359075 0.5
640 37 0.179806 0.384518 0.5
45 28 0.22295 0.337145 0.5
92 27 0.230986 0.367787 0.5
687 33 0.254106 0.343962 0.5
702 28 0.263285 0.374855 0.5
412 29 0.317621 0.334469 0.5
40 39 0.295598 0.362587 0.5
246 33 0.331068 0.365874 0.5
11 37 0.365659 0.366405 0.5
692 28 0.396867 0.350089 0.5
394 29 0.402466 0.380695 0.5
767 40 0.4297 0.361495 0.5
820 29 0.471099 0.362622 0.5
371 29 0.455669 0.389853 0.5
432 29 0.490189 0.387957 0.5
870 30 0.503867 0.357822 0.5
83 31 0.538109 0.356911 0.5
411 31 0.522758 0.386869 0.5
323 30 0.57109 0.359552 0.5
573 30 0.603744 0.362058 0.5
560 28 0.554303 0.386608 0.5
46 34 0.657748 0.337964 0.5
70 28 0.633848 0.361527 0.5
123 18 0.615964 0.387811 0.5
43 35 0.664849 0.373548 0.5
471 24 0.686731 0.349951 0.5
981 30 0.699321 0.378155 0.5
110 30 0.718513 0.353657 0.5
134 34 0.735472 0.383146 0.5
381 32 0.751521 0.352398 0.5
946 30 0.771055 0.387286 0.5
711 34 0.788589 0.357608 0.5
853 19 0.82147 0.360277 0.5
818 25 0.828657 0.333257 0.5
601 31 0.852385 0.352592 0.5
633 30 0.876084 0.377458 0.5
271 30 0.885427 0.343191 0.5
489 21 0.903824 0.365481 0.5
212 24 0.916852 0.33875 0.5
968 38 0.934073 0.369307 0.5
135 29 0.949362 0.338969 0.5
109 43 0.991481 0.333504 0.5
495 33 0.973212 0.365976 0.5
970 22 0.0200049 0.402829 0.5
422 30 0.030638 0.430837 0.5
465 27 0.000726355 0.424736 0.5
74 35 0.0544271 0.408715 0.5
617 33 0.0901912 0.408502 0.5
129 37 0.0699666 0.441723 0.5
942 25 0.105979 0.434998 0.5
450 24 0.121814 0.407803 0.5
680 29 0.152623 0.412873 0.5
344 21 0.134768 0.433636 0.5
948 37 0.21414 0.397508 0.5
543 34 0.184859 0.418518 0.5
486 37 0.227767 0.431076 0.5
693 28 0.245643 0.402359 0.5
550 25 0.263416 0.431447 0.5
7 35 0.278474 0.404294 0.5
287 36 0.313491 0.39608 0.5
526 30 0.300732 0.430099 0.5
796 26 0.332385 0.425592 0.5
226 31 0.346601 0.395192 0.5
958 23 0.378967 0.398487 0.5
220 30 0.364432 0.423385 0.5
602 25 0.4283 0.395808 0.5
386 36 0.406054 0.419682 0.5
347 45 0.444082 0.425542 0.5
479 20 0.474159 0.412477 0.5
370 37 0.482746 0.444086 0.5
470 29 0.505918 0.41572 0.5
297 30 0.540189 0.41488 0.5
437 32 0.523264 0.440855 0.5
64 31 0.587045 0.390518 0.5
899 22 0.568097 0.414379 0.5
904 34 0.589716 0.437575 0.5
49 27 0.556705 0.441814 0.5
334 33 0.61798 0.416978 0.5
584 25 0.641357 0.393313 0.5
867 37 0.652926 0.426717 0.5
392 30 0.68096 0.404857 0.5
295 33 0.713922 0.40977 0.5
93 43 0.692483 0.439315 0.5
341 25 0.75014 0.410684 0.5
276 35 0.768243 0.442155 0.5
612 27 0.784527 0.415153 0.5
318 35 0.808707 0.388767 0.5
695 21 0.813271 0.418585 0.5
546 32 0.804591 0.446271 0.5
254 33 0.841638 0.382682 0.5
435 23 0.84473 0.413211 0.5
916 25 0.872021 0.407707 0.5
869 32 0.904383 0.393852 0.5
514 25 0.93202 0.406995 0.5
724 40 0.902598 0.431076 0.5
684 25 0.957528 0.392791 0.5
477 31 0.989911 0.395549 0.5
959 27 0.968125 0.421665 0.5
747 24 0.0201382 0.481999 0.5
913 29 0.0413547 0.46057 0.5
579 27 0.00957989 0.454145 0.5
194 31 0.0467908 0.503358 0.5
624 24 0.0653083 0.478594 0.5
320 33 0.0958172 0.466224 0.5
399 34 0.0878983 0.500732 0.5
909 27 0.119355 0.492477 0.5
29 29 0.128176 0.461902 0.5
460 34 0.149792 0.485829 0.5
284 35 0.161522 0.448472 0.5
722 33 0.198407 0.449647 0.5
576 33 0.18282 0.478635 0.5
286 31 0.217895 0.476317 0.5
956 33 0.247002 0.461194 0.5
300 37 0.268592 0.492741 0.5
883 36 0.28266 0.458908 0.5
152 34 0.303473 0.487171 0.5
732 28 0.318321 0.457519 0.5
804 29 0.337082 0.482299 0.5
507 29 0.349989 0.452518 0.5
634 18 0.364965 0.476855 0.5
266 35 0.384892 0.451541 0.5
572 34 0.39192 0.48727 0.5
840 26 0.418573 0.450362 0.5
800 23 0.424043 0.476773 0.5
25 33 0.450729 0.460024 0.5
321 31 0.449957 0.49304 0.5
481 30 0.480094 0.477897 0.5
604 22 0.505932 0.465561 0.5
678 30 0.536093 0.471256 0.5
915 26 0.507602 0.493618 0.5
850 23 0.565562 0.471258 0.5
322 23 0.593696 0.466818 0.5
496 30 0.584011 0.495926 0.5
269 32 0.61718 0.487386 0.5
195 37 0.623551 0.451566 0.5
50 33 0.651889 0.486149 0.5
474 28 0.661108 0.456299 0.5
878 32 0.685435 0.477703 0.5
654 25 0.716478 0.467564 0.5
861 35 0.730646 0.439487 0.5
142 31 0.748609 0.469077 0.5
759 36 0.78344 0.476531 0.5
868 38 0.822611 0.477771 0.5
643 28 0.83663 0.444362 0.5
237 35 0.867871 0.438649 0.5
726 29 0.857763 0.471854 0.5
359 34 0.89009 0.465672 0.5
401 25 0.922662 0.473832 0.5
190 40 0.940926 0.443961 0.5
472 26 0.977515 0.450671 0.5
992 37 0.955951 0.478463 0.5
19 28 0.9903 0.478276 0.5
827 41 0.0309571 0.536927 0.5
830 29 0.00832453 0.508629 0.5
204 34 -0.00663066 0.537517 0.5
419 33 0.0675921 0.528415 0.5
342 39 0.0957904 0.550389 0.5
145 25 0.113885 0.521269 0.5
865 21 0.141859 0.517282 0.5
462 29 0.131663 0.54491 0.5
947 34 0.163835 0.539162 0.5
13 31 0.204781 0.503387 0.5
352 27 0.173338 0.509579 0.5
907 27 0.196027 0.534173 0.5
32 21 0.225403 0.52542 0.5
127 23 0.234906 0.501294 0.5
86 30 0.256293 0.523555 0.5
639 21 0.240354 0.550084 0.5
15 33 0.290883 0.523843 0.5
417 25 0.315858 0.545705 0.5
937 32 0.325206 0.514929 0.5
731 35 0.270652 0.552124 0.5
825 36 0.350817 0.540758 0.5
235 35 0.35975 0.5072 0.5
554 29 0.38407 0.550761 0.5
758 22 0.389814 0.517401 0.5
932 27 0.420536 0.505843 0.5
198 35 0.415371 0.538814 0.5
184 27 0.447131 0.525386 0.5
335 34 0.479207 0.510435 0.5
638 48 0.474869 0.549106 0.5
843 35 0.550497 0.500015 0.5
163 25 0.508603 0.523197 0.5
454 32 0.536508 0.534949 0.5
908 21 0.509263 0.549994 0.5
354 34 0.569289 0.527528 0.5
599 33 0.604216 0.52331 0.5
185 36 0.626511 0.550109 0.5
810 31 0.637825 0.51635 0.5
463 26 0.659199 0.540517 0.5
183 28 0.671073 0.512857 0.5
605 24 0.699764 0.505359 0.5
314 32 0.692711 0.537022 0.5
635 22 0.72013 0.526122 0.5
319 29 0.732386 0.498132 0.5
774 33 0.765875 0.504164 0.5
147 30 0.748292 0.530637 0.5
683 34 0.801172 0.50817 0.5
880 40 0.782013 0.541439 0.5
149 27 0.821631 0.533786 0.5
876 31 0.840823 0.507298 0.5
200 35 0.875117 0.500543 0.5
757 39 0.864301 0.537234 0.5
801 26 0.906918 0.496271 0.5
515 29 0.898873 0.527246 0.5
398 38 0.936698 0.51191 0.5
98 35 0.926573 0.546949 0.5
240 29 0.972064 0.508895 0.5
539 31 0.959844 0.53859 0.5
1 26 0.036708 0.572626 0.5
207 31 0.0266063 0.604551 0.5
468 27 0.00926421 0.567293 0.5
439 28 0.0604756 0.590581 0.5
205 27 0.0639115 0.559987 0.5
518 30 0.0916569 0.584451 0.5
247 24 0.0806428 0.613921 0.5
351 31 0.122107 0.576749 0.5
989 34 0.143591 0.602781 0.5
48 25 0.152527 0.569081 0.5
387 29 0.11047 0.609265 0.5
433 25 0.175273 0.597744 0.5
717 30 0.183047 0.5673 0.5
449 26 0.210697 0.588562 0.5
475 26 0.213038 0.557859 0.5
954 23 0.235744 0.577225 0.5
82 33 0.266542 0.586913 0.5
291 27 0.298098 0.569312 0.5
547 33 0.298198 0.600368 0.5
150 39 0.333023 0.57479 0.5
388 26 0.365366 0.57172 0.5
808 26 0.359803 0.600887 0.5
69 35 0.390999 0.593598 0.5
304 27 0.410334 0.568971 0.5
890 33 0.429116 0.59649 0.5
327 31 0.441576 0.563907 0.5
337 29 0.461546 0.58899 0.5
30 32 0.487191 0.610502 0.5
108 33 0.498097 0.579593 0.5
520 31 0.532141 0.570175 0.5
159 34 0.522748 0.603644 0.5
782 28 0.555523 0.59516 0.5
395 27 0.5934 0.554437 0.5
373 35 0.564675 0.561541 0.5
153 37 0.588758 0.58758 0.5
570 34 0.621987 0.582134 0.5
669 40 0.656196 0.572659 0.5
56 27 0.644639 0.606217 0.5
746 24 0.692723 0.567357 0.5
703 30 0.679987 0.597193 0.5
630 32 0.713417 0.591571 0.5
501 34 0.721292 0.557034 0.5
719 23 0.752537 0.558362 0.5
924 25 0.745579 0.586291 0.5
502 25 0.771294 0.609089 0.5
975 27 0.774879 0.576903 0.5
285 30 0.809344 0.565728 0.5
436 31 0.799461 0.597652 0.5
219 28 0.833595 0.586886 0.5
238 25 0.838619 0.556687 0.5
969 28 0.861393 0.575995 0.5
613 27 0.856761 0.608763 0.5
231 32 0.89102 0.560559 0.5
642 31 0.886588 0.595113 0.5
236 41 0.921014 0.584832 0.5
223 19 0.950184 0.567795 0.5
647 30 0.963922 0.592902 0.5
610 30 0.99651 0.596929 0.5
894 27 0.977308 0.564995 0.5
131 27 0.0342137 0.638496 0.5
213 32 0.00226728 0.629643 0.5
510 35 0.0126379 0.662731 0.5
718 19 0.0523213 0.616833 0.5
315 28 0.0665191 0.6406 0.5
811 26 0.097014 0.63804 0.5
903 31 0.128792 0.63522 0.5
552 30 0.11607 0.666234 0.5
391 25 0.146572 0.658479 0.5
61 32 0.161474 0.631574 0.5
884 36 0.19855 0.620988 0.5
451 33 0.187573 0.655648 0.5
218 23 0.220302 0.639949 0.5
739 43 0.238379 0.611448 0.5
567 29 0.249557 0.649514 0.5
316 38 0.274666 0.626049 0.5
122 30 0.280967 0.661207 0.5
627 33 0.30986 0.63495 0.5
667 26 0.32967 0.608144 0.5
78 20 0.339745 0.654668 0.5
99 25 0.351719 0.631893 0.5
53 35 0.373293 0.659415 0.5
525 26 0.38209 0.627264 0.5
189 12 0.410046 0.61638 0.5
755 25 0.407016 0.643846 0.5
292 28 0.432841 0.630303 0.5
494 22 0.432074 0.659149 0.5
523 21 0.458379 0.620901 0.5
773 20 0.458533 0.664319 0.5
59 23 0.475907 0.64185 0.5
482 29 0.506443 0.636476 0.5
3 33 0.547645 0.626122 0.5
362 32 0.534948 0.656737 0.5
527 28 0.579397 0.62173 0.5
562 37 0.570055 0.653904 0.5
681 24 0.602362 0.640753 0.5
415 24 0.612436 0.615822 0.5
858 33 0.634225 0.639968 0.5
221 23 0.661718 0.658764 0.5
484 34 0.668898 0.628837 0.5
780 29 0.702728 0.621653 0.5
340 22 0.688765 0.649877 0.5
88 42 0.725327 0.650308 0.5
158 35 0.738265 0.616303 0.5
258 38 0.763961 0.641884 0.5
308 26 0.797068 0.63066 0.5
689 30 0.824619 0.617958 0.5
113 35 0.819992 0.651442 0.5
931 30 0.850631 0.640003 0.5
328 23 0.877154 0.630505 0.5
839 27 0.941531 0.61296 0.5
697 36 0.909695 0.621344 0.5
146 24 0.906366 0.655994 0.5
459 36 0.937363 0.646124 0.5
160 29 0.970223 0.624777 0.5
466 43 0.972584 0.663275 0.5
261 38 0.029681 0.695687 0.5
224 30 0.0488524 0.665781 0.5
257 33 0.0830808 0.667976 0.5
490 32 0.0656876 0.696721 0.5
197 29 0.101771 0.694263 0.5
775 33 0.138323 0.695475 0.5
511 38 0.169026 0.714173 0.5
657 25 0.166594 0.681118 0.5
5 34 0.197158 0.69348 0.5
339 36 0.224976 0.671216 0.5
670 34 0.234701 0.706163 0.5
863 26 0.257203 0.68106 0.5
535 25 0.263062 0.719331 0.5
738 32 0.286675 0.694982 0.5
921 37 0.312648 0.671249 0.5
896 29 0.322451 0.705095 0.5
230 31 0.347249 0.683352 0.5
222 33 0.379596 0.695381 0.5
650 29 0.354003 0.716096 0.5
993 30 0.407319 0.675509 0.5
366 29 0.408807 0.708776 0.5
978 22 0.434173 0.68652 0.5
817 36 0.440712 0.71748 0.5
268 44 0.494785 0.670973 0.5
979 35 0.466725 0.696588 0.5
598 34 0.500813 0.706728 0.5
453 25 0.525031 0.685684 0.5
741 34 0.536168 0.71462 0.5
173 30 0.554762 0.685156 0.5
52 38 0.59901 0.674673 0.5
250 30 0.580628 0.705627 0.5
76 26 0.611842 0.7051 0.5
302 26 0.636275 0.674543 0.5
299 25 0.640483 0.705969 0.5
945 35 0.668317 0.690099 0.5
569 33 0.700607 0.678836 0.5
919 23 0.692761 0.70881 0.5
836 29 0.720795 0.716309 0.5
588 26 0.730371 0.686824 0.5
955 28 0.758037 0.675585 0.5
583 24 0.751905 0.706376 0.5
749 28 0.781405 0.69701 0.5
895 29 0.788467 0.663733 0.5
182 33 0.813155 0.685946 0.5
55 28 0.805887 0.717279 0.5
34 31 0.878474 0.664148 0.5
622 28 0.838244 0.706524 0.5
998 31 0.847239 0.672564 0.5
842 28 0.868049 0.695421 0.5
828 29 0.903268 0.686972 0.5
248 25 0.932693 0.678921 0.5
964 33 0.927578 0.710008 0.5
38 29 0.895886 0.722353 0.5
505 33 0.960295 0.698615 0.5
905 30 0.993646 0.691926 0.5
891 33 0.0178719 0.728539 0.5
987 35 0.0540102 0.733562 0.5
215 28 0.0315761 0.758784 0.5
161 27 0.0607329 0.769156 0.5
721 27 0.0844255 0.720962 0.5
984 32 0.0869537 0.752677 0.5
623 37 0.117608 0.725408 0.5
659 35 0.120762 0.762448 0.5
565 27 0.147192 0.740552 0.5
255 29 0.153336 0.772471 0.5
168 37 0.205151 0.728105 0.5
852 34 0.178631 0.750645 0.5
380 38 0.212417 0.76061 0.5
941 29 0.238808 0.738699 0.5
559 33 0.272065 0.750995 0.5
148 34 0.245567 0.77208 0.5
374 35 0.298132 0.72853 0.5
58 27 0.303022 0.763236 0.5
509 26 0.328785 0.740234 0.5
31 23 0.332802 0.769077 0.5
467 31 0.383625 0.72845 0.5
390 32 0.357958 0.75008 0.5
752 26 0.390614 0.762753 0.5
192 36 0.417111 0.743169 0.5
537 27 0.426228 0.773821 0.5
551 30 0.451484 0.751754 0.5
877 29 0.472848 0.729297 0.5
708 26 0.481064 0.76257 0.5
926 34 0.510141 0.741326 0.5
139 29 0.541163 0.750573 0.5
413 26 0.518135 0.771372 0.5
715 22 0.562843 0.729347 0.5
609 30 0.571691 0.758638 0.5
655 29 0.59565 0.734729 0.5
107 29 0.603244 0.766164 0.5
558 31 0.666504 0.723664 0.5
301 36 0.629602 0.735297 0.5
243 33 0.667886 0.756565 0.5
63 29 0.69443 0.738884 0.5
75 21 0.699947 0.771361 0.5
591 26 0.724886 0.747233 0.5
396 31 0.774504 0.730071 0.5
499 18 0.746066 0.731549 0.5
528 33 0.75626 0.758602 0.5
115 22 0.798814 0.748225 0.5
164 34 0.828901 0.739281 0.5
483 28 0.783486 0.77379 0.5
943 45 0.819079 0.776617 0.5
873 32 0.862124 0.728427 0.5
33 30 0.854962 0.761054 0.5
249 34 0.88575 0.753375 0.5
262 32 0.919088 0.745785 0.5
656 21 0.938944 0.766513 0.5
889 28 0.95158 0.739881 0.5
922 36 0.983974 0.724463 0.5
37 28 0.999481 0.752751 0.5
710 37 0.970899 0.769322 0.5
685 30 0.00479268 0.78282 0.5
846 34 0.0356927 0.7915 0.5
193 28 0.0427651 0.824117 0.5
170 33 0.0116378 0.818567 0.5
516 40 0.0715148 0.802069 0.5
172 20 0.0972506 0.781562 0.5
67 30 0.101722 0.81647 0.5
487 30 0.125859 0.796872 0.5
469 37 0.158486 0.806372 0.5
461 32 0.132449 0.829695 0.5
180 33 0.18435 0.785815 0.5
819 30 0.190501 0.822378 0.5
203 40 0.218296 0.798959 0.5
953 29 0.252155 0.806499 0.5
473 31 0.2226 0.831188 0.5
536 28 0.275964 0.786502 0.5
996 26 0.284057 0.815947 0.5
682 36 0.313163 0.794879 0.5
847 38 0.317999 0.831146 0.5
592 24 0.343151 0.806954 0.5
256 33 0.364674 0.782707 0.5
831 29 0.371733 0.817403 0.5
844 33 0.397147 0.794666 0.5
982 32 0.403629 0.828671 0.5
444 33 0.428961 0.804351 0.5
735 27 0.457868 0.781254 0.5
957 36 0.462428 0.814685 0.5
253 29 0.488239 0.790789 0.5
788 34 0.494588 0.824774 0.5
355 31 0.548919 0.78165 0.5
824 31 0.520786 0.802262 0.5
561 32 0.550586 0.813546 0.5
838 22 0.578803 0.788732 0.5
241 33 0.583128 0.821534 0.5
214 34 0.608571 0.798297 0.5
990 40 0.637378 0.775457 0.5
930 26 0.643189 0.809264 0.5
737 34 0.671808 0.791632 0.5
857 40 0.707039 0.803195 0.5
768 31 0.677718 0.826312 0.5
940 27 0.729309 0.77739 0.5
397 33 0.757936 0.794548 0.5
356 25 0.772807 0.822564 0.5
677 39 0.739269 0.826205 0.5
660 27 0.792696 0.801656 0.5
332 26 0.820472 0.813285 0.5
350 16 0.849663 0.790235 0.5
379 27 0.875827 0.785289 0.5
272 37 0.863158 0.816996 0.5
648 25 0.894279 0.808534 0.5
242 36 0.910621 0.779811 0.5
143 30 0.923563 0.816121 0.5
89 30 0.94727 0.795824 0.5
766 28 0.954096 0.829772 0.5
538 34 0.979415 0.806915 0.5
754 31 0.0202673 0.883189 0.5
813 30 0.0145238 0.851564 0.5
298 38 0.0490193 0.85738 0.5
498 29 0.0756986 0.837203 0.5
756 28 0.078584 0.873236 0.5
227 32 0.104398 0.851658 0.5
290 31 0.109213 0.884846 0.5
455 31 0.135108 0.863146 0.5
577 36 0.16571 0.843978 0.5
385 32 0.167382 0.879322 0.5
809 27 0.198501 0.852612 0.5
442 35 0.203446 0.88497 0.5
71 34 0.231511 0.862929 0.5
608 29 0.255985 0.840732 0.5
280 38 0.264175 0.874963 0.5
414 34 0.290423 0.852175 0.5
860 30 0.322944 0.865045 0.5
995 25 0.299229 0.886641 0.5
330 27 0.349949 0.841216 0.5
798 34 0.354847 0.874153 0.5
835 33 0.379798 0.850982 0.5
430 33 0.389094 0.883523 0.5
871 28 0.435456 0.837115 0.5
769 28 0.411993 0.859995 0.5
900 25 0.441285 0.867194 0.5
898 28 0.466783 0.849452 0.5
580 27 0.481977 0.877625 0.5
14 28 0.501108 0.855711 0.5
178 23 0.526489 0.830676 0.5
699 23 0.530738 0.857327 0.5
845 27 0.511417 0.883718 0.5
102 22 0.541796 0.88239 0.5
57 32 0.55988 0.84654 0.5
211 18 0.56559 0.873865 0.5
138 31 0.592189 0.854222 0.5
420 34 0.617606 0.831315 0.5
317 37 0.624076 0.866655 0.5
229 32 0.647656 0.841231 0.5
986 28 0.6508 0.88528 0.5
571 43 0.677024 0.862809 0.5
676 31 0.707586 0.84086 0.5
456 31 0.705845 0.882552 0.5
382 38 0.734792 0.863326 0.5
663 33 0.770987 0.853861 0.5
365 27 0.759561 0.885355 0.5
378 31 0.800272 0.837643 0.5
68 31 0.79081 0.881363 0.5
938 23 0.815687 0.864688 0.5
644 30 0.834322 0.842862 0.5
700 26 0.845393 0.873918 0.5
310 33 0.871436 0.850987 0.5
849 35 0.87723 0.885347 0.5
920 28 0.899058 0.838093 0.5
367 28 0.90283 0.867026 0.5
712 29 0.928398 0.849123 0.5
245 22 0.931785 0.879579 0.5
736 25 0.98579 0.838232 0.5
124 27 0.959128 0.860113 0.5
743 33 0.989504 0.869351 0.5
488 26 0.0300519 0.919859 0.5
448 32 -0.00147106 0.907693 0.5
881 27 0.00693287 0.939713 0.5
851 31 0.0375495 0.948811 0.5
517 36 0.0539196 0.894581 0.5
694 31 0.0616668 0.928372 0.5
132 31 0.0862371 0.906503 0.5
274 27 0.0941504 0.94056 0.5
279 32 0.118492 0.919714 0.5
81 27 0.140954 0.896876 0.5
239 35 0.152972 0.928364 0.5
260 28 0.180568 0.909549 0.5
927 32 0.210279 0.9201 0.5
167 27 0.184036 0.941188 0.5
991 33 0.236535 0.897015 0.5
753 32 0.243753 0.929301 0.5
841 31 0.269744 0.909222 0.5
181 32 0.274793 0.943634 0.5
961 30 0.328865 0.89648 0.5
856 28 0.30141 0.919356 0.5
629 25 0.335552 0.929886 0.5
649 36 0.362771 0.909492 0.5
914 25 0.420285 0.887711 0.5
492 40 0.400692 0.923417 0.5
104 25 0.434654 0.915952 0.5
16 32 0.455845 0.894239 0.5
445 35 0.464199 0.926817 0.5
358 28 0.494053 0.907581 0.5
832 41 0.527863 0.914235 0.5
795 36 0.500069 0.939636 0.5
485 35 0.563805 0.902921 0.5
704 35 0.565056 0.941901 0.5
744 33 0.595086 0.888595 0.5
307 33 0.595871 0.924282 0.5
582 28 0.624812 0.902429 0.5
408 27 0.650687 0.91642 0.5
208 32 0.625063 0.936602 0.5
797 31 0.67911 0.901387 0.5
661 30 0.674661 0.934714 0.5
615 28 0.704923 0.919234 0.5
27 33 0.732798 0.902255 0.5
393 39 0.762778 0.922386 0.5
939 37 0.732151 0.940916 0.5
751 24 0.819792 0.89553 0.5
106 20 0.795696 0.910888 0.5
589 24 0.820746 0.923786 0.5
776 31 0.793831 0.94076 0.5
2 28 0.847531 0.904362 0.5
923 33 0.879449 0.919022 0.5
733 38 0.850762 0.939075 0.5
886 28 0.908146 0.899592 0.5
933 29 0.908988 0.93328 0.5
210 27 0.938932 0.914897 0.5
369 35 0.963068 0.891996 0.5
80 29 0.971691 0.92613 0.5
202 39 0.941215 0.951805 0.5
672 31 0.0448515 0.97986 0.5
66 32 0.0125098 0.972937 0.5
596 27 0.0736589 0.96256 0.5
762 33 0.0738225 0.995564 0.5
87 28 0.103823 0.970146 0.5
673 27 0.1298 0.950188 0.5
513 27 0.135112 0.981209 0.5
935 25 0.168165 0.993183 0.5
28 27 0.160957 0.962404 0.5
823 28 0.217922 0.951028 0.5
293 36 0.193114 0.972722 0.5
389 39 0.256652 0.994908 0.5
325 32 0.224082 0.984652 0.5
464 30 0.248041 0.961181 0.5
409 30 0.285256 0.974103 0.5
763 34 0.309605 0.95183 0.5
977 36 0.316681 0.993803 0.5
607 37 0.368029 0.945607 0.5
701 38 0.340618 0.966493 0.5
944 29 0.373211 0.978878 0.5
934 25 0.404054 0.989191 0.5
457 37 0.434513 0.949165 0.5
174 31 0.400036 0.959103 0.5
734 32 0.436346 0.985826 0.5
372 27 0.474154 0.995812 0.5
90 39 0.470344 0.961809 0.5
305 29 0.501047 0.977523 0.5
425 32 0.532027 0.991426 0.5
779 37 0.531142 0.957022 0.5
103 33 0.561316 0.975325 0.5
994 28 0.591387 0.986464 0.5
91 25 0.593836 0.956844 0.5
912 39 0.623601 0.973445 0.5
829 24 0.65076 0.95368 0.5
530 29 0.65525 0.988699 0.5
976 22 0.701387 0.947 0.5
270 31 0.679149 0.966681 0.5
377 27 0.70779 0.97866 0.5
353 29 0.764981 0.95764 0.5
653 24 0.737477 0.973088 0.5
611 36 0.762719 0.992628 0.5
97 23 0.79062 0.973081 0.5
346 29 0.824135 0.960825 0.5
85 23 0.829646 0.995975 0.5
313 33 0.854154 0.976031 0.5
130 28 0.92788 0.995458 0.5
244 29 0.882074 0.953331 0.5
597 24 0.882874 0.986023 0.5
155 30 0.90988 0.969312 0.5
705 29 0.956722 0.980313 0.5
199 36 0.979778 0.958566 0.5
345 32 0.986261 0.993367 0.5
