ITEM: TIMESTEP
1510000
ITEM: NUMBER OF ATOMS
1000
ITEM: BOX BOUNDS pp pp pp
-1.7574559000000001e+01 1.7574559000000001e+01
-1.7574559000000001e+01 1.7574559000000001e+01
-5.0000000000000000e-01 5.0000000000000000e-01
ITEM: ATOMS id type xs ys zs
540 35 0.00270008 0.0408562 0.5
481 30 0.0252502 0.0729186 0.5
855 31 0.0384843 0.0350113 0.5
801 26 0.0725939 0.0383869 0.5
299 25 0.088284 0.0629947 0.5
359 34 0.093851 0.0179487 0.5
606 34 0.10744 0.97352 0.5
474 28 0.122801 0.0318059 0.5
507 29 0.121118 0.000684841 0.5
36 37 0.154626 0.0538679 0.5
642 31 0.178458 0.0204544 0.5
685 30 0.19084 0.0525422 0.5
361 33 0.222 0.0720513 0.5
935 25 0.277484 0.0228468 0.5
82 33 0.226338 0.043227 0.5
351 31 0.25567 0.0419931 0.5
265 41 0.313422 0.0139222 0.5
272 36 0.319883 0.0741571 0.5
434 24 0.34374 0.0281392 0.5
530 29 0.370509 0.0246409 0.5
380 38 0.399284 0.0131721 0.5
53 35 0.393082 0.0469755 0.5
781 29 0.416053 0.0640194 0.5
162 32 0.431103 0.0320053 0.5
705 29 0.440273 3.04358e-05 0.5
108 33 0.443914 0.0602534 0.5
615 28 0.474444 -0.00179971 0.5
310 33 0.519526 0.00211325 0.5
242 35 0.45939 0.0307848 0.5
860 30 0.525013 0.0319303 0.5
943 44 0.553016 0.00864299 0.5
459 36 0.554168 0.0429014 0.5
168 36 0.586767 0.0508822 0.5
934 25 0.587336 0.0792845 0.5
681 24 0.590311 0.992382 0.5
577 36 0.615363 0.014222 0.5
133 32 0.657005 0.0534712 0.5
469 36 0.668695 0.0234442 0.5
331 26 0.686284 0.0485775 0.5
116 23 0.72739 0.0302993 0.5
55 28 0.700753 0.0245207 0.5
399 34 0.719549 0.00101354 0.5
103 33 0.768906 0.986527 0.5
739 42 0.786876 0.0531337 0.5
718 20 0.826592 0.031364 0.5
446 28 0.816874 0.0588406 0.5
595 35 0.905514 0.981445 0.5
128 31 0.882012 0.00538553 0.5
255 29 0.850627 0.0241518 0.5
580 27 0.822596 0.000937122 0.5
537 27 0.910506 0.0228 0.5
470 29 0.897725 0.0665209 0.5
203 39 0.941425 0.0156153 0.5
93 42 0.968916 0.0447248 0.5
966 25 0.991405 0.0153858 0.5
743 32 0.988886 0.0742977 0.5
79 37 0.0552078 0.0663495 0.5
150 38 0.00863984 0.102622 0.5
247 24 0.114682 0.0586179 0.5
77 20 0.0884591 0.115274 0.5
70 28 0.082771 0.0877612 0.5
338 29 0.133923 0.077295 0.5
664 32 0.110773 0.0940961 0.5
236 41 0.148298 0.109066 0.5
713 37 0.171387 0.0814007 0.5
963 27 0.235975 0.0975899 0.5
996 26 0.196942 0.0944951 0.5
131 28 0.255302 0.0712319 0.5
141 32 0.264065 0.0956461 0.5
326 43 0.299263 0.0501577 0.5
805 27 0.362243 0.0845912 0.5
993 30 0.289006 0.0833642 0.5
271 30 0.355143 0.0560615 0.5
979 35 0.311301 0.105321 0.5
787 27 0.392818 0.0826417 0.5
130 28 0.414684 0.100003 0.5
95 32 0.470487 0.0799853 0.5
139 29 0.44454 0.0925439 0.5
8 25 0.498318 0.0890707 0.5
525 26 0.488034 0.058638 0.5
536 28 0.52177 0.102552 0.5
174 31 0.491654 0.0262468 0.5
357 36 0.554883 0.0779184 0.5
759 36 0.522193 0.0650013 0.5
187 33 0.623863 0.0463205 0.5
945 34 0.578288 0.104438 0.5
343 33 0.665545 0.0851716 0.5
907 27 0.675315 0.120909 0.5
989 34 0.716604 0.0936453 0.5
336 35 0.713958 0.0612115 0.5
301 36 0.75896 0.0233415 0.5
308 26 0.768157 0.0859651 0.5
88 41 0.762605 0.116233 0.5
222 33 0.747858 0.0527107 0.5
466 42 0.80761 0.0886034 0.5
491 30 0.874006 0.0749259 0.5
756 28 0.846306 0.0521348 0.5
871 28 0.843347 0.0826691 0.5
38 29 0.875652 0.0347032 0.5
708 26 0.921095 0.0812512 0.5
629 25 0.958312 0.120252 0.5
124 28 0.929176 0.0517854 0.5
285 30 0.948764 0.0873412 0.5
413 26 0.97767 0.10201 0.5
921 37 0.0349665 0.121569 0.5
497 32 0.98779 0.130859 0.5
622 28 0.0191898 0.148495 0.5
776 31 0.0634582 0.109861 0.5
938 23 0.041653 0.0944863 0.5
193 28 0.105802 0.162558 0.5
609 30 0.11152 0.13002 0.5
20 35 0.138193 0.175084 0.5
952 34 0.136601 0.143518 0.5
951 29 0.182573 0.114635 0.5
198 35 0.245258 0.12352 0.5
672 31 0.285515 0.126479 0.5
238 25 0.295069 0.158257 0.5
214 34 0.194039 0.141999 0.5
106 20 0.30271 0.186362 0.5
736 26 0.316453 0.137689 0.5
369 35 0.341465 0.106057 0.5
111 28 0.32094 0.16629 0.5
291 27 0.345029 0.135552 0.5
985 25 0.33222 0.189323 0.5
511 37 0.378893 0.115054 0.5
515 29 0.434937 0.120057 0.5
711 34 0.471868 0.110904 0.5
148 34 0.458496 0.139822 0.5
21 31 0.432391 0.156863 0.5
56 27 0.500774 0.121096 0.5
12 34 0.546112 0.164142 0.5
712 29 0.514106 0.149169 0.5
97 23 0.538729 0.137298 0.5
937 32 0.568714 0.137484 0.5
397 32 0.635924 0.0785183 0.5
24 29 0.54978 0.11052 0.5
372 27 0.61457 0.10313 0.5
254 33 0.602946 0.127947 0.5
816 32 0.644012 0.107155 0.5
877 29 0.635676 0.134729 0.5
962 46 0.695115 0.16234 0.5
212 25 0.741792 0.0824411 0.5
682 36 0.70713 0.12796 0.5
64 31 0.733237 0.146906 0.5
590 25 0.771311 0.146395 0.5
71 34 0.740252 0.175419 0.5
767 39 0.806313 0.137041 0.5
76 26 0.831572 0.106898 0.5
757 38 0.838237 0.137212 0.5
541 33 0.899683 0.141004 0.5
401 25 0.868672 0.128988 0.5
360 18 0.860291 0.105808 0.5
410 40 0.88827 0.103462 0.5
551 30 0.935105 0.141221 0.5
650 29 0.929775 0.111026 0.5
104 25 0.963242 0.147372 0.5
431 31 0.991842 0.1594 0.5
552 30 0.0349028 0.172512 0.5
512 31 0.0320938 0.210223 0.5
213 32 0.0574578 0.193798 0.5
741 34 0.0567623 0.149088 0.5
619 32 0.0776469 0.172859 0.5
349 40 0.117517 0.199897 0.5
180 33 0.159226 0.199674 0.5
417 25 0.138474 0.221449 0.5
112 25 0.167038 0.138593 0.5
806 27 0.168594 0.169886 0.5
663 33 0.212718 0.117792 0.5
723 29 0.19739 0.171876 0.5
192 36 0.22255 0.153623 0.5
624 24 0.219191 0.194342 0.5
334 33 0.218338 0.221089 0.5
633 30 0.259933 0.148947 0.5
976 23 0.272245 0.178856 0.5
854 28 0.305465 0.212593 0.5
603 29 0.360048 0.159409 0.5
6 15 0.357522 0.203079 0.5
364 32 0.30683 0.240235 0.5
868 38 0.401232 0.144413 0.5
639 22 0.406748 0.172144 0.5
273 28 0.382885 0.190265 0.5
939 37 0.403936 0.209975 0.5
195 37 0.456471 0.178709 0.5
365 27 0.428546 0.188191 0.5
680 29 0.486329 0.14974 0.5
649 35 0.517982 0.182115 0.5
89 30 0.488218 0.179734 0.5
94 25 0.573254 0.178014 0.5
535 25 0.550214 0.191176 0.5
262 32 0.561261 0.219163 0.5
987 35 0.639472 0.16434 0.5
505 33 0.59447 0.200253 0.5
342 39 0.604952 0.160016 0.5
746 24 0.665201 0.147379 0.5
927 32 0.655889 0.196061 0.5
433 25 0.68337 0.197862 0.5
293 35 0.713741 0.192252 0.5
570 34 0.700103 0.224451 0.5
564 27 0.722553 0.244032 0.5
101 27 0.771277 0.233011 0.5
176 33 0.733769 0.216652 0.5
210 28 0.760024 0.208762 0.5
971 20 0.794179 0.195914 0.5
768 31 0.77288 0.17858 0.5
31 23 0.799277 0.165094 0.5
251 32 0.822473 0.204726 0.5
37 29 0.831327 0.165228 0.5
777 27 0.847769 0.189204 0.5
991 33 0.864624 0.157548 0.5
613 27 0.878776 0.18937 0.5
864 25 0.893804 0.167636 0.5
391 25 0.904917 0.199034 0.5
957 36 0.925071 0.17196 0.5
295 33 0.968899 0.179498 0.5
23 28 1.00625 0.187801 0.5
687 33 0.0533329 0.236152 0.5
45 28 0.0171827 0.242194 0.5
729 23 0.0849193 0.235049 0.5
159 34 0.0852387 0.206176 0.5
256 33 0.111319 0.230701 0.5
449 26 0.0706324 0.263885 0.5
457 37 0.140567 0.251621 0.5
436 31 0.111347 0.263986 0.5
802 35 0.172965 0.241541 0.5
85 23 0.188251 0.195771 0.5
194 31 0.128334 0.294026 0.5
799 27 0.241772 0.181499 0.5
1000 35 0.223474 0.252581 0.5
737 34 0.275525 0.236575 0.5
908 21 0.251149 0.214667 0.5
707 45 0.287438 0.267211 0.5
601 31 0.277889 0.205191 0.5
5 33 0.359749 0.272144 0.5
954 24 0.338345 0.246987 0.5
362 32 0.318382 0.268103 0.5
428 28 0.372394 0.2341 0.5
290 31 0.395295 0.266583 0.5
191 36 0.450793 0.217518 0.5
888 28 0.489237 0.215521 0.5
807 23 0.484317 0.264573 0.5
591 26 0.483853 0.240384 0.5
215 28 0.533681 0.211276 0.5
319 29 0.513592 0.244542 0.5
450 24 0.55274 0.285434 0.5
329 34 0.58542 0.239209 0.5
764 37 0.5508 0.251658 0.5
749 28 0.616487 0.232242 0.5
559 33 0.624214 0.190865 0.5
539 31 0.645039 0.222143 0.5
483 28 0.636877 0.255357 0.5
432 29 0.669451 0.236713 0.5
80 29 0.70068 0.274609 0.5
44 33 0.750332 0.249459 0.5
126 32 0.800295 0.228926 0.5
872 39 0.821628 0.249417 0.5
550 25 0.844591 0.23247 0.5
574 22 0.861253 0.214018 0.5
339 36 0.882189 0.232706 0.5
65 31 0.862834 0.2551 0.5
347 44 0.91573 0.233752 0.5
863 26 0.998793 0.21814 0.5
98 35 0.938738 0.206476 0.5
967 24 0.973595 0.209214 0.5
471 25 0.0386978 0.271293 0.5
677 38 0.0305153 0.309307 0.5
538 34 0.062171 0.325795 0.5
542 32 0.0572419 0.290981 0.5
10 29 0.089569 0.286858 0.5
546 32 0.130707 0.32435 0.5
618 35 0.0985412 0.316924 0.5
566 31 0.205392 0.275104 0.5
820 29 0.157142 0.281111 0.5
346 29 0.184956 0.293666 0.5
852 34 0.235902 0.290431 0.5
555 30 0.210547 0.308474 0.5
284 35 0.193504 0.334042 0.5
596 27 0.248387 0.26424 0.5
671 25 0.266998 0.297475 0.5
697 36 0.285644 0.319927 0.5
17 27 0.304866 0.29644 0.5
724 40 0.33739 0.297146 0.5
270 31 0.414968 0.239773 0.5
403 25 0.380716 0.300605 0.5
895 29 0.416125 0.286761 0.5
684 25 0.476959 0.290227 0.5
340 22 0.428396 0.263204 0.5
524 33 0.445784 0.287459 0.5
140 30 0.4583 0.254993 0.5
608 29 0.524406 0.272175 0.5
498 29 0.575929 0.274574 0.5
788 33 0.622883 0.30321 0.5
683 34 0.5935 0.308405 0.5
936 25 0.629241 0.332172 0.5
898 28 0.610656 0.271854 0.5
385 32 0.651305 0.297277 0.5
484 34 0.670671 0.323701 0.5
668 23 0.68943 0.304998 0.5
725 38 0.669943 0.269946 0.5
675 27 0.720013 0.297459 0.5
404 31 0.728729 0.27106 0.5
753 32 0.745897 0.327365 0.5
373 35 0.755968 0.285645 0.5
117 31 0.784145 0.256898 0.5
575 32 0.796397 0.284891 0.5
569 33 0.840435 0.276589 0.5
448 32 0.842887 0.310163 0.5
119 29 0.871214 0.29424 0.5
733 37 0.892385 0.267773 0.5
2 28 0.960766 0.243117 0.5
653 24 0.9202 0.26399 0.5
353 29 0.946264 0.270706 0.5
19 28 0.0109042 0.268726 0.5
631 30 0.989961 0.245177 0.5
974 26 0.0012315 0.297104 0.5
881 27 0.0171114 0.335124 0.5
408 28 0.0227565 0.360124 0.5
565 27 0.0876665 0.353614 0.5
269 32 0.0576748 0.352967 0.5
496 30 0.141118 0.35014 0.5
732 28 0.114673 0.347824 0.5
316 38 0.15955 0.314167 0.5
307 32 0.162664 0.37158 0.5
115 23 0.165928 0.342772 0.5
583 24 0.205774 0.394555 0.5
504 39 0.176694 0.401845 0.5
869 32 0.195517 0.366297 0.5
181 32 0.248837 0.360938 0.5
298 38 0.244121 0.324169 0.5
68 31 0.220704 0.349621 0.5
889 28 0.273689 0.346654 0.5
691 38 0.316218 0.331296 0.5
57 32 0.395832 0.325265 0.5
917 39 0.358986 0.325574 0.5
623 36 0.426919 0.318008 0.5
779 37 0.483639 0.317312 0.5
763 34 0.530768 0.335497 0.5
278 33 0.547754 0.312748 0.5
772 32 0.507282 0.294277 0.5
477 31 0.574012 0.378247 0.5
445 35 0.561309 0.346957 0.5
526 30 0.596697 0.401942 0.5
886 28 0.592723 0.340027 0.5
638 47 0.651346 0.360197 0.5
879 33 0.609516 0.366794 0.5
309 34 0.688173 0.360606 0.5
734 32 0.628316 0.388583 0.5
91 25 0.698239 0.388303 0.5
170 33 0.710059 0.335525 0.5
676 31 0.725986 0.391904 0.5
354 34 0.727338 0.360735 0.5
812 27 0.808744 0.311809 0.5
784 28 0.802265 0.345219 0.5
579 28 0.779706 0.318836 0.5
378 31 0.835778 0.341881 0.5
679 42 0.851439 0.368214 0.5
264 31 0.883196 0.357642 0.5
912 38 0.869443 0.327643 0.5
645 33 0.93046 0.328223 0.5
78 20 0.898774 0.310153 0.5
42 40 0.922356 0.29329 0.5
928 33 0.959292 0.360003 0.5
593 25 0.923527 0.356566 0.5
321 31 0.973613 0.272317 0.5
620 28 0.959996 0.299235 0.5
698 21 0.967826 0.325571 0.5
771 26 0.991313 0.330664 0.5
500 41 0.991895 0.362004 0.5
452 33 1.00176 0.407183 0.5
350 16 0.0521977 0.381042 0.5
480 26 0.0768653 0.378904 0.5
992 37 0.10486 0.400308 0.5
468 27 0.124217 0.377462 0.5
532 28 0.148093 0.398669 0.5
731 35 0.129834 0.423843 0.5
382 37 0.159933 0.430432 0.5
186 31 0.216718 0.422255 0.5
856 28 0.24771 0.436101 0.5
305 30 0.242276 0.407258 0.5
177 24 0.23015 0.381244 0.5
933 29 0.263098 0.38932 0.5
605 24 0.300674 0.398375 0.5
179 31 0.277689 0.454211 0.5
785 33 0.287295 0.372705 0.5
832 41 0.274534 0.418545 0.5
509 27 0.322596 0.37189 0.5
519 24 0.341552 0.351343 0.5
152 34 0.35513 0.382978 0.5
216 41 0.41956 0.352064 0.5
84 27 0.376428 0.363255 0.5
981 30 0.457168 0.335548 0.5
297 30 0.47103 0.380135 0.5
156 25 0.450549 0.363488 0.5
709 30 0.480621 0.353139 0.5
560 29 0.540207 0.367355 0.5
370 37 0.473671 0.437238 0.5
161 27 0.518285 0.392538 0.5
949 34 0.546477 0.39748 0.5
553 32 0.569189 0.455441 0.5
789 28 0.51421 0.42925 0.5
931 30 0.565018 0.419139 0.5
400 34 0.5966 0.435075 0.5
394 29 0.626291 0.419231 0.5
107 29 0.671463 0.38557 0.5
501 34 0.654526 0.436731 0.5
838 23 0.635877 0.458652 0.5
874 37 0.680984 0.416837 0.5
439 28 0.732698 0.418373 0.5
563 35 0.765702 0.37771 0.5
726 29 0.766257 0.348587 0.5
585 32 0.763356 0.418661 0.5
786 38 0.820438 0.378891 0.5
592 25 0.866778 0.434799 0.5
562 37 0.842299 0.407654 0.5
699 23 0.900444 0.382046 0.5
586 42 0.873871 0.392731 0.5
81 27 0.929031 0.448032 0.5
69 35 0.934002 0.383405 0.5
441 30 0.965514 0.39005 0.5
204 34 0.975663 0.421514 0.5
891 33 0.943307 0.421126 0.5
814 31 0.0268642 0.392039 0.5
46 34 0.0375836 0.465226 0.5
330 27 0.0268414 0.421451 0.5
90 39 0.0638155 0.408246 0.5
121 32 0.0500279 0.436248 0.5
573 30 0.11719 0.453334 0.5
948 36 0.0890889 0.432008 0.5
479 21 0.146768 0.456119 0.5
429 27 0.178511 0.463042 0.5
478 29 0.193874 0.438937 0.5
250 30 0.162011 0.491255 0.5
896 29 0.31335 0.476173 0.5
386 36 0.252629 0.470463 0.5
151 37 0.30205 0.43543 0.5
66 31 0.341329 0.474761 0.5
147 30 0.33253 0.405427 0.5
554 29 0.331266 0.450839 0.5
506 37 0.356646 0.421978 0.5
59 23 0.418913 0.384919 0.5
109 42 0.388497 0.390223 0.5
252 35 0.445799 0.40097 0.5
621 27 0.416542 0.418642 0.5
716 30 0.442772 0.430564 0.5
543 33 0.482433 0.407593 0.5
240 29 0.47782 0.468371 0.5
146 25 0.45653 0.493719 0.5
529 28 0.511151 0.456342 0.5
983 32 0.541104 0.432891 0.5
337 29 0.580507 0.488207 0.5
833 33 0.599267 0.464717 0.5
754 31 0.625081 0.486839 0.5
630 32 0.68228 0.454281 0.5
930 26 0.652722 0.407468 0.5
762 32 0.741347 0.456279 0.5
261 38 0.711713 0.440619 0.5
818 25 0.734797 0.488258 0.5
499 19 0.713405 0.49535 0.5
800 23 0.785453 0.39994 0.5
923 33 0.795711 0.435933 0.5
197 29 0.809663 0.407502 0.5
561 32 0.839068 0.454368 0.5
636 22 0.80872 0.461952 0.5
368 33 0.786976 0.484143 0.5
571 42 0.884692 0.495048 0.5
462 29 0.902274 0.452239 0.5
389 39 0.867976 0.4657 0.5
201 34 0.902373 0.413033 0.5
263 29 0.936513 0.481664 0.5
396 31 0.00297277 0.436185 0.5
531 26 0.988607 0.457847 0.5
572 34 0.960439 0.452138 0.5
755 25 0.0201735 0.506173 0.5
303 29 0.0155453 0.534628 0.5
893 30 0.0455127 0.494905 0.5
485 34 0.0923244 0.500245 0.5
442 35 0.0723248 0.463391 0.5
244 29 0.119823 0.485095 0.5
998 31 0.133951 0.512283 0.5
710 37 0.201218 0.485317 0.5
48 25 0.154831 0.533277 0.5
905 30 0.266085 0.5046 0.5
218 23 0.231596 0.4925 0.5
454 32 0.223658 0.457818 0.5
296 30 0.292664 0.494288 0.5
752 26 0.321098 0.501408 0.5
188 31 0.294438 0.526772 0.5
947 33 0.360887 0.454511 0.5
849 35 0.352418 0.51394 0.5
503 37 0.390844 0.432328 0.5
287 35 0.380146 0.478399 0.5
715 23 0.419188 0.447451 0.5
208 32 0.414535 0.488657 0.5
518 30 0.444181 0.466414 0.5
861 35 0.477369 0.514653 0.5
795 35 0.503495 0.495876 0.5
694 31 0.540975 0.465235 0.5
859 39 0.587635 0.519412 0.5
514 25 0.546955 0.501514 0.5
959 27 0.54796 0.527783 0.5
604 22 0.578307 0.548506 0.5
178 23 0.658365 0.469441 0.5
843 34 0.670303 0.533499 0.5
472 27 0.630804 0.521583 0.5
521 32 0.679092 0.491895 0.5
245 22 0.696997 0.515522 0.5
656 21 0.706517 0.469635 0.5
641 29 0.770602 0.460259 0.5
105 31 0.73623 0.516336 0.5
398 37 0.764616 0.506827 0.5
114 26 0.797835 0.513974 0.5
808 26 0.820789 0.488706 0.5
171 34 0.851207 0.491861 0.5
831 29 0.830706 0.518022 0.5
748 35 0.863756 0.523732 0.5
903 31 0.927317 0.507979 0.5
246 33 0.939901 0.537772 0.5
332 27 0.97402 0.479676 0.5
25 33 0.962271 0.510498 0.5
876 31 0.00742258 0.479361 0.5
100 33 0.0438152 0.535946 0.5
548 36 0.0493907 0.568795 0.5
125 30 0.0169391 0.5711 0.5
155 30 0.0866824 0.5699 0.5
54 29 0.07055 0.522713 0.5
972 29 0.115076 0.570945 0.5
444 33 0.09896 0.53019 0.5
200 34 0.126404 0.546065 0.5
169 21 0.130536 0.605599 0.5
655 29 0.175853 0.516978 0.5
549 30 0.173696 0.554501 0.5
834 31 0.196349 0.536689 0.5
490 32 0.146053 0.571001 0.5
58 27 0.214888 0.516357 0.5
352 27 0.225064 0.544234 0.5
281 25 0.24262 0.516736 0.5
766 29 0.253933 0.542876 0.5
172 21 0.279185 0.561436 0.5
904 34 0.336381 0.550046 0.5
427 31 0.304596 0.55338 0.5
941 29 0.395291 0.547053 0.5
381 32 0.436617 0.514275 0.5
67 30 0.39346 0.514734 0.5
157 32 0.428268 0.552945 0.5
704 34 0.430261 0.582439 0.5
866 29 0.455251 0.536762 0.5
625 32 0.455684 0.56833 0.5
248 26 0.494483 0.55286 0.5
292 28 0.484575 0.579407 0.5
149 27 0.509687 0.523692 0.5
557 37 0.525232 0.548905 0.5
4 33 0.513129 0.580937 0.5
202 38 0.584269 0.580717 0.5
16 32 0.555556 0.56218 0.5
227 32 0.624697 0.604603 0.5
294 29 0.655647 0.508187 0.5
750 32 0.640264 0.552167 0.5
11 37 0.699493 0.545331 0.5
411 31 0.71035 0.57252 0.5
728 34 0.731552 0.552873 0.5
15 33 0.774702 0.537277 0.5
142 31 0.80539 0.540557 0.5
154 28 0.824135 0.562637 0.5
661 30 0.844905 0.545126 0.5
348 27 0.879364 0.549559 0.5
129 36 0.852871 0.574477 0.5
826 30 0.906385 0.526911 0.5
312 38 0.935134 0.574081 0.5
792 31 0.90953 0.558784 0.5
793 29 0.963735 0.553519 0.5
607 37 0.964292 0.58819 0.5
900 25 0.992947 0.506356 0.5
920 29 0.987134 0.536611 0.5
367 28 0.0588733 0.600221 0.5
582 28 0.0374172 0.621297 0.5
821 26 0.0278176 0.597449 0.5
3 33 -0.00515442 0.596854 0.5
209 26 0.101888 0.594273 0.5
701 37 0.0713198 0.629258 0.5
102 22 0.104507 0.618758 0.5
973 22 0.142335 0.626889 0.5
581 23 0.157752 0.600639 0.5
587 36 0.193692 0.61097 0.5
249 34 0.179154 0.584257 0.5
667 27 0.225006 0.616036 0.5
946 30 0.212689 0.572355 0.5
958 23 0.252286 0.602595 0.5
421 34 0.245738 0.572413 0.5
383 35 0.321843 0.581803 0.5
747 24 0.307044 0.608892 0.5
652 41 0.280966 0.591154 0.5
982 32 0.396266 0.578299 0.5
599 33 0.365337 0.540779 0.5
376 40 0.359135 0.579318 0.5
258 38 0.376464 0.610592 0.5
873 32 0.410179 0.605489 0.5
420 34 0.43121 0.630442 0.5
626 35 0.452634 0.603196 0.5
632 30 0.47066 0.629995 0.5
253 29 0.499516 0.649955 0.5
135 29 0.489306 0.608458 0.5
259 20 0.532224 0.633633 0.5
219 28 0.524107 0.609311 0.5
674 28 0.558211 0.620845 0.5
527 28 0.540788 0.58765 0.5
206 32 0.594749 0.613314 0.5
437 32 0.579238 0.638632 0.5
355 31 0.616818 0.575183 0.5
885 25 0.649644 0.605201 0.5
827 40 0.609076 0.545143 0.5
311 28 0.646786 0.577782 0.5
995 25 0.686655 0.590059 0.5
882 36 0.713701 0.605353 0.5
804 29 0.673348 0.567228 0.5
463 26 0.700013 0.631235 0.5
865 22 0.764402 0.563454 0.5
18 41 0.741779 0.584302 0.5
919 24 0.745099 0.620601 0.5
965 29 0.796529 0.568819 0.5
451 33 0.81421 0.589821 0.5
153 37 0.771178 0.601446 0.5
678 30 0.912833 0.600532 0.5
837 33 0.885889 0.580539 0.5
897 31 0.838378 0.604793 0.5
41 31 0.943761 0.616161 0.5
22 34 0.912374 0.637407 0.5
867 37 0.97445 0.620356 0.5
302 26 0.988163 0.566478 0.5
356 25 0.0553342 0.689296 0.5
918 39 0.0377338 0.653368 0.5
50 32 0.0692311 0.66068 0.5
405 29 0.0972295 0.663809 0.5
235 35 0.098159 0.69506 0.5
692 28 0.116108 0.643513 0.5
92 28 0.124488 0.67038 0.5
43 35 0.198619 0.64354 0.5
412 29 0.175411 0.669627 0.5
970 22 0.168458 0.631985 0.5
315 28 0.232185 0.647948 0.5
320 33 0.270119 0.623296 0.5
997 34 0.210054 0.675792 0.5
304 28 0.325015 0.630151 0.5
614 29 0.289766 0.64839 0.5
611 36 0.264883 0.665933 0.5
643 28 0.319303 0.66757 0.5
138 31 0.349021 0.643955 0.5
228 27 0.347278 0.606498 0.5
823 28 0.34623 0.674376 0.5
487 30 0.374143 0.65828 0.5
122 30 0.373537 0.693395 0.5
160 29 0.397419 0.670739 0.5
744 33 0.403132 0.641688 0.5
72 26 0.432261 0.710405 0.5
322 23 0.432503 0.659038 0.5
635 23 0.421317 0.687428 0.5
627 33 0.525093 0.66521 0.5
770 41 0.471002 0.659925 0.5
880 40 0.562504 0.662687 0.5
610 30 0.546659 0.690835 0.5
775 33 0.518645 0.700322 0.5
325 32 0.598977 0.666271 0.5
260 28 0.577933 0.701063 0.5
27 33 0.623148 0.698249 0.5
426 23 0.640183 0.632162 0.5
99 25 0.613036 0.634751 0.5
798 34 0.639647 0.664066 0.5
1 26 0.702244 0.658327 0.5
517 36 0.669945 0.626947 0.5
185 36 0.672857 0.661297 0.5
556 29 0.749004 0.648013 0.5
578 29 0.727809 0.666767 0.5
49 27 0.71754 0.701337 0.5
476 22 0.77334 0.636711 0.5
110 30 0.807237 0.619295 0.5
984 32 0.801291 0.648487 0.5
944 29 0.85473 0.629159 0.5
932 27 0.826658 0.636976 0.5
13 31 0.880644 0.642666 0.5
911 29 0.946233 0.644689 0.5
33 30 0.879662 0.613603 0.5
486 37 0.92551 0.66754 0.5
774 33 0.00678598 0.623568 0.5
277 26 1.00186 0.6522 0.5
375 30 0.978155 0.671117 0.5
819 30 0.971294 0.709235 0.5
929 33 -0.000991597 0.7252 0.5
658 35 0.0398833 0.715757 0.5
844 33 0.0806728 0.722607 0.5
418 34 0.0255259 0.68776 0.5
836 29 0.134091 0.741593 0.5
267 27 0.103146 0.74593 0.5
164 33 0.192602 0.699887 0.5
435 23 0.152062 0.684665 0.5
257 33 0.150622 0.654389 0.5
211 19 0.214992 0.716262 0.5
35 37 0.194157 0.735725 0.5
988 20 0.24712 0.712579 0.5
720 28 0.24139 0.689134 0.5
324 38 0.296206 0.685485 0.5
237 35 0.276467 0.725053 0.5
493 25 0.269601 0.694331 0.5
220 30 0.326767 0.703229 0.5
602 25 0.382887 0.718783 0.5
975 27 0.352863 0.711647 0.5
845 27 0.407583 0.712956 0.5
956 33 0.405883 0.754775 0.5
961 30 0.377593 0.754398 0.5
999 36 0.435715 0.744954 0.5
617 33 0.472078 0.737649 0.5
924 26 0.468527 0.70773 0.5
848 29 0.449929 0.685361 0.5
275 32 0.508897 0.736947 0.5
166 30 0.487285 0.687615 0.5
438 27 0.54783 0.723415 0.5
183 28 0.575454 0.733915 0.5
840 26 0.56401 0.762431 0.5
803 31 0.606078 0.730908 0.5
568 31 0.648198 0.726501 0.5
740 34 0.669067 0.752555 0.5
533 35 0.655368 0.694925 0.5
113 35 0.691255 0.688302 0.5
841 31 0.723175 0.734991 0.5
817 35 0.772963 0.679858 0.5
702 28 0.744464 0.695595 0.5
689 30 0.780338 0.74768 0.5
221 23 0.801047 0.680516 0.5
730 31 0.846073 0.727336 0.5
901 37 0.780609 0.716632 0.5
846 33 0.834578 0.686473 0.5
978 23 0.864611 0.695628 0.5
283 36 0.861824 0.666763 0.5
231 32 0.944817 0.691656 0.5
144 34 0.905567 0.720073 0.5
443 28 0.89493 0.686756 0.5
333 30 0.995738 0.694912 0.5
990 40 0.944764 0.724819 0.5
950 32 -0.0037088 0.757316 0.5
127 23 0.0197475 0.744652 0.5
62 28 0.0373183 0.77124 0.5
229 32 0.0653841 0.778233 0.5
892 23 0.0761757 0.749835 0.5
415 24 0.122398 0.780472 0.5
714 29 0.0969332 0.773377 0.5
467 31 0.163488 0.742635 0.5
594 33 0.125508 0.714947 0.5
953 29 0.148037 0.771476 0.5
878 32 0.178995 0.771026 0.5
425 32 0.209701 0.764039 0.5
345 32 0.165348 0.712268 0.5
513 27 0.224601 0.737414 0.5
644 30 0.238277 0.785007 0.5
761 29 0.254223 0.758624 0.5
205 27 0.348016 0.739571 0.5
780 29 0.291468 0.756515 0.5
858 33 0.318517 0.731854 0.5
616 30 0.32332 0.764762 0.5
703 30 0.354606 0.768801 0.5
887 32 0.396606 0.786278 0.5
600 35 0.369534 0.800744 0.5
902 30 0.428718 0.776314 0.5
758 22 0.491837 0.715892 0.5
207 31 0.480745 0.789757 0.5
994 28 0.503452 0.767563 0.5
782 28 0.534134 0.747811 0.5
145 25 0.530099 0.777173 0.5
598 34 0.585866 0.785739 0.5
706 32 0.601578 0.760233 0.5
665 41 0.63662 0.756522 0.5
884 36 0.62306 0.786928 0.5
828 29 0.678404 0.725024 0.5
576 33 0.655633 0.784505 0.5
461 32 0.702589 0.758315 0.5
440 39 0.738365 0.762582 0.5
829 25 0.751252 0.719752 0.5
824 31 0.747353 0.795958 0.5
63 29 0.767782 0.770841 0.5
182 33 0.808693 0.736294 0.5
968 37 0.788806 0.794116 0.5
502 25 0.813942 0.704235 0.5
567 29 0.832995 0.754619 0.5
916 25 0.816804 0.786001 0.5
597 24 0.844137 0.813959 0.5
648 25 0.859392 0.752784 0.5
460 34 0.874955 0.726121 0.5
646 28 0.872784 0.778386 0.5
9 28 0.866848 0.805142 0.5
870 30 0.890151 0.756144 0.5
628 31 0.920976 0.756686 0.5
363 25 0.959095 0.749974 0.5
769 29 0.904067 0.786411 0.5
913 29 0.966861 0.777078 0.5
695 21 0.999027 0.82495 0.5
773 21 0.996109 0.783562 0.5
34 31 0.0891988 0.807866 0.5
374 34 0.0447591 0.806439 0.5
230 31 0.0666532 0.825785 0.5
796 26 0.138049 0.803764 0.5
7 35 0.120607 0.825988 0.5
75 21 0.163556 0.798194 0.5
810 31 0.153424 0.832363 0.5
960 40 0.224515 0.828074 0.5
409 30 0.209813 0.79387 0.5
137 33 0.253022 0.811288 0.5
742 31 0.303691 0.793248 0.5
335 33 0.274445 0.78416 0.5
508 28 0.27944 0.816193 0.5
516 40 0.338187 0.797168 0.5
422 30 0.329737 0.835666 0.5
942 26 0.364662 0.837762 0.5
589 24 0.345984 0.858197 0.5
52 37 0.419373 0.809343 0.5
226 31 0.457706 0.769807 0.5
660 28 0.444553 0.825365 0.5
465 27 0.45484 0.799816 0.5
118 26 0.477716 0.816424 0.5
719 23 0.504047 0.802556 0.5
165 22 0.497085 0.831982 0.5
909 28 0.528126 0.807696 0.5
74 35 0.556912 0.803121 0.5
475 26 0.523468 0.838269 0.5
28 27 0.608358 0.817405 0.5
189 13 0.639354 0.805263 0.5
51 31 0.625965 0.839251 0.5
794 31 0.663334 0.815338 0.5
862 25 0.686675 0.83514 0.5
196 31 0.686767 0.79617 0.5
282 27 0.711679 0.787785 0.5
279 32 0.755746 0.828414 0.5
690 27 0.719852 0.816418 0.5
721 27 0.705937 0.858089 0.5
40 39 0.791753 0.835869 0.5
751 24 0.80201 0.764024 0.5
453 25 0.811064 0.812672 0.5
670 34 0.832463 0.838538 0.5
547 33 0.872484 0.863024 0.5
830 29 0.894495 0.822854 0.5
341 25 0.866744 0.832616 0.5
274 27 0.926641 0.805019 0.5
306 27 0.846354 0.778905 0.5
87 28 0.954689 0.802262 0.5
851 31 0.946873 0.870445 0.5
32 22 0.93689 0.781931 0.5
760 26 0.970846 0.828368 0.5
637 28 0.938219 0.83307 0.5
955 28 0.0148747 0.803718 0.5
494 23 0.0770194 0.877165 0.5
738 32 0.0257149 0.831938 0.5
190 39 0.0934155 0.844426 0.5
243 33 0.0541125 0.858868 0.5
922 36 0.126726 0.858868 0.5
447 36 0.168126 0.86452 0.5
134 34 0.184872 0.894194 0.5
143 30 0.183112 0.825176 0.5
835 33 0.216231 0.887293 0.5
132 31 0.19752 0.855489 0.5
899 23 0.241439 0.854415 0.5
520 31 0.24836 0.881564 0.5
914 25 0.239187 0.90607 0.5
847 37 0.268302 0.847331 0.5
266 35 0.279636 0.902969 0.5
96 30 0.28616 0.870987 0.5
430 33 0.300053 0.837934 0.5
268 43 0.346888 0.887888 0.5
402 37 0.33767 0.928836 0.5
233 27 0.314005 0.863954 0.5
735 28 0.417977 0.845191 0.5
850 23 0.393216 0.829648 0.5
30 32 0.380257 0.861222 0.5
669 40 0.418057 0.890189 0.5
534 33 0.44174 0.867185 0.5
407 26 0.448148 0.89484 0.5
964 33 0.50652 0.861609 0.5
473 31 0.473323 0.851287 0.5
232 27 0.479269 0.880557 0.5
815 30 0.562995 0.83611 0.5
86 30 0.545624 0.85903 0.5
765 24 0.573564 0.877237 0.5
175 43 0.593404 0.852659 0.5
696 27 0.630088 0.868501 0.5
915 27 0.653177 0.879912 0.5
809 27 0.679782 0.866567 0.5
26 39 0.654391 0.849858 0.5
289 22 0.722719 0.895973 0.5
288 35 0.681968 0.895879 0.5
528 33 0.729491 0.844227 0.5
29 29 0.771405 0.862711 0.5
327 31 0.771104 0.892291 0.5
184 27 0.799234 0.869407 0.5
857 39 0.804305 0.90339 0.5
986 28 0.827869 0.871665 0.5
545 38 0.895594 0.881987 0.5
300 36 0.92733 0.896239 0.5
464 30 0.957836 0.898392 0.5
482 29 0.915524 0.853571 0.5
223 19 0.969692 0.854876 0.5
313 33 0.996949 0.854552 0.5
745 35 0.982498 0.881679 0.5
424 23 0.0273279 0.863011 0.5
163 26 0.0171628 0.912566 0.5
395 28 0.0472293 0.885432 0.5
388 26 0.0370776 0.943332 0.5
366 29 0.109873 0.891992 0.5
700 26 0.0746898 0.903169 0.5
791 27 0.0461692 0.913365 0.5
890 33 0.142129 0.890386 0.5
414 34 0.153172 0.917779 0.5
239 35 0.174131 0.944192 0.5
217 32 0.203705 0.963859 0.5
234 34 0.242536 0.954062 0.5
722 33 0.21879 0.933727 0.5
842 28 0.270732 0.965411 0.5
123 18 0.306315 0.926631 0.5
60 27 0.336612 0.958645 0.5
286 31 0.310876 0.898673 0.5
377 27 0.271167 0.936826 0.5
379 27 0.366436 0.915871 0.5
387 29 0.408955 0.927495 0.5
523 22 0.388785 0.887837 0.5
423 34 0.47429 0.911057 0.5
323 30 0.441743 0.95423 0.5
969 29 0.435772 0.923002 0.5
977 35 0.503949 0.899219 0.5
489 22 0.507709 0.931143 0.5
136 37 0.534391 0.918299 0.5
61 32 0.535829 0.886543 0.5
390 32 0.56755 0.902724 0.5
883 35 0.598908 0.896628 0.5
392 30 0.596294 0.927021 0.5
662 32 0.63011 0.895236 0.5
688 27 0.628226 0.925681 0.5
224 30 0.654553 0.913849 0.5
825 36 0.654033 0.956889 0.5
797 31 0.67978 0.931816 0.5
47 31 0.742822 0.879684 0.5
894 27 0.743509 0.910042 0.5
406 30 0.714177 0.923662 0.5
853 20 0.745943 0.949834 0.5
940 27 0.766875 0.923784 0.5
783 26 0.799839 0.932932 0.5
458 36 0.856953 0.888063 0.5
280 38 0.836708 0.922557 0.5
717 30 0.898224 0.91521 0.5
488 26 0.856992 0.947798 0.5
495 33 0.867236 0.9187 0.5
693 29 0.922268 0.938364 0.5
456 31 0.952845 0.926857 0.5
39 27 0.989251 0.910755 0.5
654 25 0.0348848 0.970151 0.5
686 30 0.0101656 0.936705 0.5
83 31 0.980577 0.938316 0.5
199 36 0.0181242 1.00422 0.5
544 28 0.0991042 0.946281 0.5
673 27 0.0645504 0.00822653 0.5
727 36 0.0677887 0.962491 0.5
647 30 0.0733726 0.931022 0.5
14 29 0.116961 0.92151 0.5
875 34 0.13949 0.974478 0.5
120 30 0.136591 0.943886 0.5
659 35 0.170932 0.980668 0.5
813 30 0.152713 0.00797664 0.5
822 35 0.201714 0.995294 0.5
510 35 0.233873 0.0119166 0.5
612 27 0.22695 0.981682 0.5
241 33 0.262157 0.995441 0.5
419 33 0.301693 0.952934 0.5
925 23 0.292872 0.988788 0.5
328 23 0.321128 0.982497 0.5
811 26 0.347504 0.988794 0.5
276 35 0.380276 0.986411 0.5
318 35 0.364976 0.949567 0.5
910 30 0.394308 0.954744 0.5
225 34 0.411943 0.979069 0.5
314 31 0.467458 0.970654 0.5
158 35 0.478001 0.941967 0.5
384 41 0.501343 0.969574 0.5
73 31 0.53515 0.974961 0.5
839 27 0.529424 0.94858 0.5
588 26 0.570094 0.946247 0.5
666 32 0.566819 0.977017 0.5
358 28 0.622931 0.956239 0.5
778 24 0.580757 0.022874 0.5
522 35 0.594581 0.964113 0.5
634 18 0.641092 0.0271938 0.5
980 28 0.662233 0.987812 0.5
393 38 0.633074 0.984951 0.5
167 27 0.689177 0.993562 0.5
558 31 0.686225 0.964206 0.5
657 25 0.721012 0.949069 0.5
317 37 0.738424 0.976475 0.5
416 34 0.776889 0.952467 0.5
492 39 0.792066 0.0080596 0.5
640 37 0.801688 0.971923 0.5
455 31 0.831624 0.960176 0.5
584 25 0.872951 0.979011 0.5
173 30 0.852316 0.997461 0.5
926 34 0.891531 0.944994 0.5
344 21 0.941252 0.987612 0.5
790 32 0.946284 0.956593 0.5
371 29 0.971192 0.996691 0.5
651 24 0.974472 0.969125 0.5
906 38 1.0033 0.967775 0.5
