ITEM: TIMESTEP
1500000
ITEM: NUMBER OF ATOMS
1000
ITEM: BOX BOUNDS pp pp pp
-1.7574559000000001e+01 1.7574559000000001e+01
-1.7574559000000001e+01 1.7574559000000001e+01
-5.0000000000000000e-01 5.0000000000000000e-01
ITEM: ATOMS id type xs ys zs
79 37 0.0283788 0.016795 0.5
150 38 0.993384 0.0166396 0.5
776 31 0.0522665 0.041772 0.5
349 40 0.0840396 0.0347873 0.5
131 28 0.113499 0.0332913 0.5
951 29 0.157007 0.0551127 0.5
979 35 0.204751 0.0164553 0.5
241 33 0.203906 0.983768 0.5
106 20 0.246411 0.0389655 0.5
272 36 0.23874 0.988173 0.5
963 27 0.225968 0.0503037 0.5
787 27 0.268345 0.0438977 0.5
633 30 0.26179 0.0142439 0.5
510 35 0.294105 0.0160291 0.5
291 27 0.332592 0.0113837 0.5
985 25 0.294735 0.0622766 0.5
318 35 0.351213 0.0415206 0.5
910 30 0.361605 0.0128129 0.5
530 29 0.392132 0.0120387 0.5
811 26 0.406902 0.0434869 0.5
419 33 0.383132 0.978562 0.5
508 28 0.41942 1.00324 0.5
286 31 0.437837 0.0342502 0.5
276 35 0.436317 0.0674183 0.5
30 32 0.468212 0.0319717 0.5
534 33 0.495672 0.0189212 0.5
423 34 0.487163 0.0539105 0.5
666 32 0.525487 0.0291073 0.5
934 25 0.55285 0.0496939 0.5
778 24 0.590123 0.992729 0.5
168 36 0.611961 0.015905 0.5
522 35 0.621273 0.981564 0.5
577 36 0.581383 0.0220499 0.5
357 36 0.615449 0.058012 0.5
860 30 0.642416 0.042405 0.5
24 29 0.669325 0.021065 0.5
962 46 0.705013 0.0726482 0.5
308 26 0.726673 0.0336156 0.5
816 32 0.698548 0.0383797 0.5
564 27 0.735463 0.0594816 0.5
718 20 0.757934 0.0399718 0.5
416 34 0.838724 0.0471911 0.5
446 28 0.782249 0.0216077 0.5
88 41 0.791454 0.0502558 0.5
406 30 0.808517 0.0261901 0.5
317 37 0.850049 0.0176758 0.5
853 20 0.877348 0.00353481 0.5
926 34 0.902171 0.0199357 0.5
280 38 0.914873 0.990746 0.5
790 32 0.939066 0.0123275 0.5
966 25 0.963047 0.0265677 0.5
756 28 0.969191 0.995828 0.5
743 32 0.0131727 0.0449752 0.5
921 37 0.0376174 0.0689704 0.5
806 27 0.0751733 0.0761063 0.5
141 32 0.106563 0.067613 0.5
664 32 0.0543208 0.0995881 0.5
20 35 0.138777 0.0785899 0.5
434 24 0.177294 0.0326134 0.5
457 37 0.14785 0.108457 0.5
112 25 0.101625 0.0979217 0.5
361 33 0.19504 0.0563399 0.5
672 31 0.173183 0.0834568 0.5
10 29 0.190886 0.112228 0.5
85 23 0.201258 0.0840267 0.5
214 34 0.237648 0.0823939 0.5
736 26 0.21994 0.112525 0.5
993 30 0.271968 0.0853572 0.5
95 32 0.331354 0.0979209 0.5
805 27 0.303399 0.0862149 0.5
271 30 0.318596 0.0403752 0.5
369 35 0.351463 0.0751292 0.5
799 27 0.380659 0.0359383 0.5
387 29 0.403167 0.0753535 0.5
328 23 0.378145 0.064737 0.5
680 29 0.412799 0.102683 0.5
407 26 0.441408 0.0949005 0.5
511 37 0.444077 0.123799 0.5
377 27 0.467042 0.0765443 0.5
225 34 0.473016 0.136383 0.5
314 31 0.479161 0.105755 0.5
158 35 0.520944 0.0578601 0.5
73 31 0.560685 0.0895991 0.5
943 44 0.593058 0.0880091 0.5
61 32 0.580846 0.0575088 0.5
372 27 0.649264 0.0830861 0.5
682 36 0.670869 0.0589649 0.5
987 35 0.675321 0.0955003 0.5
64 31 0.74154 0.0903552 0.5
767 39 0.711226 0.108607 0.5
580 27 0.783703 0.114456 0.5
293 35 0.767671 0.0701767 0.5
768 31 0.752156 0.114635 0.5
433 25 0.796611 0.0831876 0.5
103 33 0.824426 0.0730391 0.5
871 28 0.841981 0.0974539 0.5
410 40 0.868029 0.0755771 0.5
344 21 0.889175 0.0547461 0.5
609 30 0.951227 0.0610032 0.5
894 27 0.86593 0.0410156 0.5
537 27 0.928118 0.0411255 0.5
622 28 0.0075508 0.0721684 0.5
741 34 0.981659 0.0540241 0.5
491 30 0.983547 0.148766 0.5
938 23 0.0201028 0.129002 0.5
957 36 0.0234825 0.0966575 0.5
650 29 0.0489677 0.131491 0.5
193 28 0.0498244 0.160423 0.5
180 33 0.0790044 0.114649 0.5
619 32 0.110718 0.124251 0.5
256 33 0.14031 0.140431 0.5
198 35 0.202196 0.140999 0.5
449 26 0.145103 0.170658 0.5
723 29 0.253404 0.112115 0.5
566 31 0.227663 0.169067 0.5
238 25 0.236658 0.134695 0.5
523 22 0.354996 0.108188 0.5
111 28 0.315586 0.122236 0.5
192 36 0.285865 0.112495 0.5
976 23 0.295548 0.140907 0.5
663 33 0.262399 0.147259 0.5
53 35 0.344161 0.138857 0.5
603 29 0.334761 0.165393 0.5
323 30 0.380638 0.0959519 0.5
6 15 0.389437 0.183004 0.5
639 22 0.406037 0.164313 0.5
380 38 0.38113 0.129705 0.5
854 28 0.369962 0.158832 0.5
139 29 0.411161 0.129524 0.5
649 35 0.458325 0.163288 0.5
781 29 0.502302 0.12985 0.5
195 37 0.495851 0.167565 0.5
684 25 0.525789 0.14544 0.5
384 41 0.507889 0.0927904 0.5
711 34 0.559183 0.134716 0.5
162 32 0.536736 0.113365 0.5
536 28 0.577085 0.113062 0.5
705 29 0.588713 0.142939 0.5
254 33 0.623437 0.098417 0.5
459 36 0.624049 0.134004 0.5
570 34 0.64819 0.117547 0.5
101 27 0.709941 0.141862 0.5
749 28 0.68595 0.127188 0.5
777 27 0.739459 0.145773 0.5
71 34 0.72452 0.171 0.5
37 29 0.785568 0.174776 0.5
470 29 0.754234 0.178476 0.5
466 42 0.775145 0.14389 0.5
595 35 0.814867 0.110648 0.5
222 33 0.816438 0.144362 0.5
413 26 0.893898 0.100556 0.5
371 29 0.916275 0.0746628 0.5
199 36 0.943549 0.090388 0.5
285 30 0.932577 0.12578 0.5
455 31 0.898402 0.128017 0.5
613 27 0.942103 0.166503 0.5
708 26 0.982067 0.0828482 0.5
124 28 0.961348 0.112812 0.5
401 25 0.999555 0.113903 0.5
391 25 0.958363 0.140353 0.5
353 29 0.01767 0.199263 0.5
991 33 0.998469 0.176349 0.5
159 34 0.0811822 0.160472 0.5
2 28 0.0216253 0.157259 0.5
417 25 0.0630167 0.184831 0.5
863 26 0.16543 0.229658 0.5
687 33 0.158744 0.197907 0.5
512 31 0.124872 0.195895 0.5
538 34 0.134371 0.222391 0.5
213 32 0.113442 0.167755 0.5
802 35 0.189593 0.205459 0.5
601 31 0.259058 0.178499 0.5
1000 35 0.1866 0.171135 0.5
284 35 0.22674 0.196765 0.5
707 45 0.292421 0.174106 0.5
868 38 0.327912 0.20888 0.5
737 34 0.361248 0.186908 0.5
671 25 0.353477 0.224432 0.5
691 38 0.292333 0.253296 0.5
298 38 0.38185 0.210259 0.5
939 37 0.431013 0.183303 0.5
515 29 0.430616 0.152862 0.5
8 25 0.480138 0.194372 0.5
191 36 0.452446 0.205061 0.5
365 27 0.524873 0.171174 0.5
56 27 0.482994 0.221181 0.5
712 29 0.550001 0.188147 0.5
525 26 0.548618 0.160129 0.5
97 23 0.572032 0.207498 0.5
877 29 0.596712 0.19828 0.5
174 31 0.609894 0.167564 0.5
927 32 0.651399 0.153019 0.5
539 31 0.681639 0.154754 0.5
971 20 0.697733 0.181232 0.5
262 32 0.669718 0.180934 0.5
541 33 0.732065 0.20477 0.5
176 33 0.764875 0.204855 0.5
210 28 0.796644 0.207122 0.5
872 39 0.821532 0.184426 0.5
203 39 0.852071 0.127524 0.5
38 29 0.875212 0.148739 0.5
128 31 0.842248 0.158286 0.5
255 29 0.88741 0.177543 0.5
76 26 0.907263 0.156051 0.5
864 25 0.940185 0.20008 0.5
347 44 0.955159 0.22685 0.5
295 33 0.975105 0.201753 0.5
19 28 0.969476 0.172748 0.5
23 28 0.987776 0.229116 0.5
42 40 0.987446 0.26157 0.5
448 32 0.0188461 0.229257 0.5
967 24 0.0489052 0.245926 0.5
552 30 0.0869628 0.195518 0.5
677 38 0.0531863 0.214288 0.5
431 31 0.0821428 0.238871 0.5
471 25 0.105455 0.218808 0.5
618 35 0.120537 0.254259 0.5
596 27 0.220925 0.225762 0.5
852 34 0.192487 0.241368 0.5
5 33 0.271941 0.209194 0.5
624 24 0.24639 0.219719 0.5
889 28 0.215429 0.262218 0.5
555 30 0.24125 0.248841 0.5
364 32 0.29866 0.224301 0.5
908 21 0.267472 0.237226 0.5
362 32 0.326836 0.243219 0.5
273 28 0.411769 0.208221 0.5
428 28 0.351086 0.2658 0.5
403 25 0.374102 0.282678 0.5
290 31 0.431869 0.231725 0.5
608 29 0.463687 0.245179 0.5
21 31 0.398867 0.239186 0.5
759 36 0.51861 0.201755 0.5
615 28 0.533297 0.230339 0.5
746 24 0.560841 0.229172 0.5
807 23 0.550273 0.253504 0.5
215 28 0.60011 0.224923 0.5
310 33 0.580221 0.171117 0.5
505 33 0.626601 0.241767 0.5
483 28 0.626879 0.211494 0.5
535 25 0.632513 0.186596 0.5
559 33 0.657252 0.207141 0.5
668 23 0.68126 0.250488 0.5
725 38 0.690151 0.210125 0.5
31 23 0.702601 0.237574 0.5
812 27 0.725521 0.245575 0.5
675 27 0.777582 0.230264 0.5
80 29 0.759374 0.258574 0.5
733 37 0.80695 0.236526 0.5
484 34 0.766639 0.288846 0.5
551 30 0.852806 0.207788 0.5
574 22 0.827142 0.212832 0.5
550 25 0.832634 0.247692 0.5
757 38 0.884469 0.2087 0.5
339 36 0.856419 0.237301 0.5
126 32 0.888832 0.240332 0.5
360 18 0.918148 0.186372 0.5
698 21 0.918874 0.212455 0.5
569 33 0.919412 0.238804 0.5
620 28 0.0558534 0.304885 0.5
104 25 0.0299228 0.265556 0.5
629 25 0.0650754 0.278106 0.5
269 32 0.0956206 0.33289 0.5
500 41 0.0898397 0.299695 0.5
45 28 0.0934865 0.265589 0.5
68 31 0.121979 0.313349 0.5
321 31 0.117278 0.284857 0.5
436 31 0.153224 0.258613 0.5
565 27 0.149181 0.288895 0.5
194 31 0.177009 0.282943 0.5
346 29 0.185765 0.31279 0.5
896 29 0.208461 0.290932 0.5
504 39 0.238507 0.2847 0.5
177 24 0.237062 0.326774 0.5
334 33 0.269025 0.272828 0.5
697 36 0.289835 0.296462 0.5
270 31 0.312266 0.277067 0.5
17 27 0.337438 0.290925 0.5
763 34 0.359406 0.310617 0.5
709 30 0.401827 0.274509 0.5
954 24 0.433644 0.281256 0.5
947 33 0.348495 0.3372 0.5
340 22 0.424852 0.256329 0.5
161 27 0.450526 0.303633 0.5
879 33 0.499795 0.329525 0.5
937 32 0.474766 0.273766 0.5
94 25 0.504684 0.232508 0.5
242 35 0.506425 0.261614 0.5
89 30 0.557587 0.279731 0.5
108 33 0.527322 0.284195 0.5
342 39 0.58256 0.249237 0.5
319 29 0.489555 0.298465 0.5
12 34 0.584356 0.293174 0.5
888 28 0.607219 0.26768 0.5
498 29 0.62405 0.289506 0.5
432 29 0.650139 0.269515 0.5
898 28 0.658274 0.238449 0.5
385 32 0.655561 0.308597 0.5
309 34 0.682723 0.290567 0.5
44 33 0.705051 0.270929 0.5
117 31 0.710645 0.303502 0.5
683 34 0.690717 0.33124 0.5
170 33 0.735261 0.274656 0.5
912 38 0.741127 0.306561 0.5
575 32 0.800274 0.304296 0.5
373 35 0.791298 0.269512 0.5
593 25 0.801871 0.338582 0.5
699 23 0.848435 0.291155 0.5
65 31 0.827348 0.273058 0.5
69 35 0.866224 0.314295 0.5
251 32 0.883726 0.27105 0.5
729 23 0.882389 0.348751 0.5
119 29 0.895369 0.304866 0.5
378 31 0.915849 0.281319 0.5
98 35 0.942251 0.261577 0.5
653 24 0.927961 0.314211 0.5
631 30 1.00216 0.290675 0.5
881 27 0.0372921 0.32619 0.5
992 37 0.0384538 0.354407 0.5
542 32 0.00929399 0.321262 0.5
732 28 0.064957 0.331707 0.5
820 29 0.11853 0.35399 0.5
186 31 0.0728226 0.357705 0.5
305 30 0.147399 0.367806 0.5
115 23 0.140613 0.338492 0.5
546 32 0.156044 0.318214 0.5
316 38 0.174393 0.345855 0.5
869 32 0.170999 0.382264 0.5
785 33 0.206806 0.334325 0.5
509 27 0.269179 0.373366 0.5
147 30 0.231243 0.356633 0.5
752 26 0.289367 0.336751 0.5
181 32 0.257901 0.34667 0.5
933 29 0.25693 0.30891 0.5
832 41 0.303152 0.370162 0.5
152 34 0.318081 0.340142 0.5
895 29 0.366913 0.368066 0.5
605 24 0.327977 0.314235 0.5
591 26 0.389909 0.3026 0.5
772 32 0.385346 0.335091 0.5
148 34 0.416412 0.307473 0.5
764 37 0.466548 0.328884 0.5
529 28 0.485851 0.356838 0.5
931 30 0.534192 0.342782 0.5
560 29 0.522723 0.369003 0.5
788 33 0.553944 0.320362 0.5
450 24 0.5258 0.317834 0.5
553 32 0.589468 0.343335 0.5
936 25 0.599352 0.31748 0.5
886 28 0.627516 0.319067 0.5
676 31 0.652776 0.373632 0.5
734 32 0.647549 0.340963 0.5
404 31 0.723448 0.332648 0.5
586 42 0.747133 0.355254 0.5
679 42 0.769836 0.32635 0.5
563 35 0.766255 0.391079 0.5
81 27 0.816717 0.362891 0.5
263 29 0.826901 0.314279 0.5
264 31 0.7814 0.357527 0.5
201 34 0.837183 0.38664 0.5
891 33 0.858276 0.362611 0.5
441 30 0.905805 0.373599 0.5
755 25 0.935417 0.362517 0.5
78 20 0.91366 0.348222 0.5
974 26 0.945346 0.336425 0.5
928 33 0.952796 0.299328 0.5
408 28 0.981286 0.328563 0.5
396 31 -0.00174092 0.351193 0.5
125 30 0.00941972 0.377704 0.5
548 36 0.0193962 0.418979 0.5
121 32 0.0573666 0.385362 0.5
100 33 0.0569234 0.416626 0.5
480 26 0.0847218 0.42317 0.5
496 30 0.0962815 0.377799 0.5
307 32 0.117853 0.416344 0.5
583 24 0.143594 0.397881 0.5
350 16 0.122959 0.381595 0.5
856 28 0.203304 0.366314 0.5
179 31 0.209754 0.392728 0.5
218 23 0.182671 0.41731 0.5
48 25 0.240054 0.382589 0.5
454 32 0.236032 0.408883 0.5
151 37 0.266981 0.404173 0.5
519 24 0.327124 0.40177 0.5
779 37 0.335433 0.376438 0.5
57 32 0.355114 0.406475 0.5
216 41 0.371674 0.468936 0.5
623 36 0.373313 0.433626 0.5
140 30 0.400753 0.364463 0.5
477 31 0.453996 0.35921 0.5
445 35 0.420057 0.34289 0.5
240 29 0.466662 0.39322 0.5
400 34 0.541152 0.402779 0.5
949 34 0.432297 0.387909 0.5
329 34 0.566577 0.365741 0.5
394 29 0.598201 0.372322 0.5
753 32 0.622862 0.357428 0.5
91 25 0.620254 0.387084 0.5
354 34 0.688215 0.416 0.5
501 34 0.652501 0.405841 0.5
579 28 0.678743 0.358153 0.5
592 25 0.735946 0.38987 0.5
561 32 0.706864 0.364016 0.5
784 28 0.707678 0.394428 0.5
107 29 0.679228 0.385631 0.5
462 29 0.80051 0.385216 0.5
439 28 0.745757 0.417197 0.5
197 29 0.780607 0.419969 0.5
499 19 0.804985 0.435613 0.5
641 29 0.820065 0.412751 0.5
808 26 0.835132 0.438939 0.5
572 34 0.883381 0.39544 0.5
748 35 0.853351 0.415908 0.5
923 33 0.868735 0.443941 0.5
389 39 0.927805 0.398071 0.5
46 34 0.950754 0.429116 0.5
571 42 0.90348 0.425445 0.5
814 31 0.963103 0.360175 0.5
893 30 0.956952 0.397477 0.5
771 26 0.983165 0.383712 0.5
468 27 0.0731936 0.445865 0.5
821 26 0.0440411 0.502974 0.5
920 29 0.0432215 0.449714 0.5
532 28 0.12689 0.445376 0.5
573 30 0.100679 0.450003 0.5
731 35 0.120792 0.484797 0.5
382 37 0.155813 0.426107 0.5
485 34 0.15479 0.461426 0.5
710 37 0.189806 0.449415 0.5
766 29 0.218935 0.459938 0.5
66 31 0.214999 0.430438 0.5
554 29 0.251682 0.464511 0.5
67 30 0.255074 0.431424 0.5
905 30 0.284366 0.43014 0.5
849 35 0.280452 0.45861 0.5
655 29 0.298594 0.405807 0.5
716 30 0.344333 0.445392 0.5
724 40 0.317565 0.433052 0.5
543 33 0.424747 0.428232 0.5
59 23 0.448939 0.410418 0.5
981 30 0.382195 0.518982 0.5
917 39 0.408396 0.458262 0.5
297 30 0.403057 0.40629 0.5
156 25 0.450592 0.466509 0.5
514 25 0.472207 0.480501 0.5
694 31 0.482356 0.417586 0.5
526 30 0.50321 0.390407 0.5
252 35 0.463746 0.44193 0.5
278 33 0.580804 0.394691 0.5
370 37 0.516706 0.420916 0.5
16 32 0.494492 0.446021 0.5
146 25 0.547877 0.43876 0.5
178 23 0.563114 0.463065 0.5
983 32 0.570235 0.424772 0.5
638 47 0.605987 0.417456 0.5
630 32 0.633111 0.432777 0.5
930 26 0.664741 0.433269 0.5
11 37 0.642969 0.466921 0.5
585 32 0.705253 0.471445 0.5
762 32 0.734261 0.480832 0.5
874 37 0.710796 0.439991 0.5
562 37 0.766775 0.451055 0.5
818 25 0.738715 0.444807 0.5
636 22 0.792338 0.457549 0.5
531 26 0.848915 0.462195 0.5
245 22 0.776929 0.483647 0.5
142 31 0.845906 0.492386 0.5
831 29 0.872153 0.477432 0.5
452 33 0.896164 0.45873 0.5
204 34 0.925393 0.449333 0.5
171 34 0.977666 0.449706 0.5
330 27 0.979922 0.419103 0.5
25 33 0.963413 0.477033 0.5
793 29 0.0112927 0.449063 0.5
867 37 0.00852831 0.50676 0.5
246 33 0.026353 0.478729 0.5
826 30 0.976999 0.509277 0.5
900 25 0.0660749 0.516143 0.5
54 29 0.0563424 0.47684 0.5
444 33 0.0886517 0.479747 0.5
209 26 0.130626 0.515596 0.5
386 36 0.153604 0.494578 0.5
296 30 0.206757 0.493586 0.5
429 27 0.182738 0.477048 0.5
478 29 0.182768 0.508646 0.5
188 31 0.222772 0.525014 0.5
250 30 0.243577 0.491488 0.5
427 31 0.265798 0.516943 0.5
281 25 0.272636 0.486564 0.5
506 37 0.319801 0.46673 0.5
157 32 0.292539 0.508441 0.5
982 32 0.312368 0.529551 0.5
524 33 0.348486 0.489287 0.5
861 35 0.399638 0.492707 0.5
84 27 0.320915 0.495987 0.5
206 32 0.431028 0.494018 0.5
795 35 0.47986 0.50789 0.5
833 33 0.502746 0.480524 0.5
337 29 0.521919 0.455453 0.5
604 22 0.586299 0.50602 0.5
843 34 0.596124 0.479727 0.5
789 28 0.611136 0.45245 0.5
838 23 0.587391 0.445547 0.5
472 27 0.640254 0.511858 0.5
865 22 0.624461 0.487876 0.5
517 36 0.668685 0.497278 0.5
800 23 0.695425 0.498929 0.5
411 31 0.675756 0.466138 0.5
882 36 0.690859 0.528237 0.5
568 31 0.669623 0.567742 0.5
786 38 0.759991 0.506182 0.5
645 33 0.803855 0.488108 0.5
726 29 0.718042 0.514353 0.5
398 37 0.821555 0.513886 0.5
368 33 0.820299 0.461367 0.5
837 33 0.867215 0.514441 0.5
792 31 0.895098 0.52964 0.5
114 26 0.90197 0.499343 0.5
41 31 0.932455 0.555586 0.5
90 39 0.93219 0.480061 0.5
341 25 0.977526 0.55648 0.5
876 31 0.994488 0.478666 0.5
312 38 0.953296 0.52713 0.5
303 29 0.997039 0.537312 0.5
774 33 0.0141005 0.565985 0.5
990 40 0.0410896 0.53523 0.5
144 34 0.0539061 0.573613 0.5
442 35 0.101379 0.514841 0.5
367 28 0.0712081 0.542058 0.5
155 30 0.102514 0.563538 0.5
102 22 0.156634 0.521758 0.5
244 29 0.195339 0.537751 0.5
701 37 0.134594 0.543774 0.5
405 29 0.219849 0.554682 0.5
352 27 0.24759 0.541124 0.5
503 37 0.277224 0.547925 0.5
834 31 0.243566 0.57041 0.5
287 35 0.297897 0.587147 0.5
941 29 0.321755 0.561175 0.5
873 32 0.350847 0.57146 0.5
109 42 0.345688 0.520422 0.5
715 23 0.371407 0.54705 0.5
208 32 0.417274 0.528088 0.5
253 29 0.397507 0.551657 0.5
704 34 0.436634 0.551291 0.5
621 27 0.446309 0.51869 0.5
292 28 0.44888 0.580679 0.5
149 27 0.464079 0.543411 0.5
437 32 0.488954 0.570207 0.5
557 37 0.544666 0.488036 0.5
311 28 0.516867 0.505868 0.5
859 39 0.503398 0.539453 0.5
527 28 0.538374 0.5389 0.5
294 29 0.559688 0.51873 0.5
260 28 0.580713 0.540089 0.5
827 40 0.614897 0.551662 0.5
754 31 0.610307 0.518818 0.5
227 32 0.581696 0.567093 0.5
202 38 0.645879 0.543909 0.5
750 32 0.64185 0.576235 0.5
322 23 0.625602 0.605589 0.5
578 29 0.699537 0.5641 0.5
261 38 0.735361 0.540828 0.5
105 31 0.791305 0.520594 0.5
18 41 0.749343 0.571291 0.5
656 21 0.768365 0.534753 0.5
804 29 0.806294 0.545591 0.5
521 32 0.838526 0.539781 0.5
15 33 0.782994 0.56284 0.5
903 31 0.868292 0.548248 0.5
332 27 0.929732 0.508615 0.5
728 34 0.897684 0.560949 0.5
897 31 0.874413 0.590974 0.5
154 28 0.918269 0.584826 0.5
33 30 6.29118e-05 0.607911 0.5
302 26 0.974754 0.590076 0.5
229 32 0.0726977 0.607853 0.5
333 30 0.0632254 0.638863 0.5
819 30 0.106119 0.601948 0.5
582 28 0.133129 0.616399 0.5
356 25 0.0806237 0.577902 0.5
918 39 0.135362 0.654461 0.5
169 21 0.174593 0.578961 0.5
3 33 0.127611 0.580255 0.5
972 29 0.170406 0.552139 0.5
692 28 0.196797 0.566643 0.5
973 22 0.188872 0.601512 0.5
92 28 0.161193 0.611261 0.5
58 27 0.2497 0.596765 0.5
43 35 0.216417 0.588278 0.5
490 32 0.224315 0.618921 0.5
904 34 0.269706 0.624218 0.5
172 21 0.272046 0.576419 0.5
258 38 0.305525 0.617894 0.5
381 32 0.329918 0.591477 0.5
420 34 0.363081 0.608725 0.5
4 33 0.379526 0.572305 0.5
625 32 0.414618 0.591214 0.5
632 30 0.391553 0.609576 0.5
599 33 0.420616 0.623234 0.5
627 33 0.454895 0.631633 0.5
924 26 0.429113 0.652219 0.5
248 26 0.470994 0.603868 0.5
259 20 0.50555 0.637176 0.5
219 28 0.521889 0.562884 0.5
518 30 0.503879 0.598646 0.5
959 27 0.549746 0.565129 0.5
355 31 0.562619 0.591871 0.5
135 29 0.596242 0.613244 0.5
848 29 0.604217 0.585793 0.5
325 32 0.642569 0.632385 0.5
880 40 0.610021 0.644044 0.5
426 23 0.655703 0.605809 0.5
798 34 0.690435 0.591399 0.5
113 35 0.720471 0.593636 0.5
841 31 0.733554 0.625064 0.5
1 26 0.755517 0.604072 0.5
461 32 0.782748 0.620772 0.5
463 26 0.785224 0.592226 0.5
965 29 0.810588 0.6004 0.5
751 24 0.813672 0.63798 0.5
22 34 0.843898 0.569975 0.5
476 22 0.808395 0.574711 0.5
129 36 0.847431 0.606467 0.5
661 30 0.897634 0.616037 0.5
919 24 0.870638 0.623815 0.5
348 27 0.902828 0.649091 0.5
375 30 0.0337328 0.59751 0.5
678 30 0.946736 0.601234 0.5
443 28 0.0313806 0.625244 0.5
607 37 0.92552 0.628469 0.5
418 34 0.0813142 0.663666 0.5
932 27 -0.00317167 0.63827 0.5
486 37 0.0273558 0.653648 0.5
978 23 0.977345 0.655778 0.5
34 31 0.0991441 0.640008 0.5
50 32 0.0529034 0.673527 0.5
892 23 0.073414 0.690481 0.5
844 33 0.114726 0.680907 0.5
581 23 0.162141 0.636724 0.5
200 34 0.194261 0.633298 0.5
658 35 0.178569 0.66296 0.5
587 36 0.225472 0.648014 0.5
998 31 0.208868 0.676502 0.5
970 22 0.242846 0.675304 0.5
948 36 0.258067 0.654975 0.5
946 30 0.287311 0.654672 0.5
383 35 0.319638 0.65035 0.5
626 35 0.358406 0.640608 0.5
652 41 0.365142 0.673796 0.5
421 34 0.396924 0.657911 0.5
744 33 0.419269 0.680319 0.5
747 24 0.395503 0.698305 0.5
866 29 0.454428 0.66364 0.5
999 36 0.480083 0.678306 0.5
72 26 0.483423 0.650641 0.5
183 28 0.530758 0.633289 0.5
674 28 0.522433 0.66398 0.5
166 30 0.532875 0.591394 0.5
616 30 0.56374 0.681558 0.5
758 22 0.524056 0.726548 0.5
803 31 0.630372 0.668432 0.5
775 33 0.570224 0.624443 0.5
438 27 0.573904 0.655108 0.5
27 33 0.670777 0.64795 0.5
995 25 0.677335 0.617102 0.5
99 25 0.702473 0.646328 0.5
794 31 0.727339 0.655474 0.5
828 29 0.705386 0.619627 0.5
533 35 0.759042 0.647185 0.5
884 36 0.754015 0.681337 0.5
185 36 0.791936 0.655742 0.5
231 32 0.820238 0.708564 0.5
221 23 0.793541 0.692236 0.5
817 35 0.820232 0.676203 0.5
451 33 0.844429 0.64074 0.5
950 32 0.885164 0.671393 0.5
911 29 0.950765 0.642265 0.5
502 25 0.907676 0.687805 0.5
597 24 0.928583 0.660029 0.5
13 31 0.972599 0.62489 0.5
277 26 0.00908932 0.703816 0.5
374 34 0.0407812 0.705961 0.5
32 22 0.00305619 0.73247 0.5
190 39 0.0378891 0.748101 0.5
230 31 0.0675853 0.720091 0.5
235 35 0.101636 0.710392 0.5
922 36 0.123783 0.735448 0.5
447 36 0.138163 0.70309 0.5
412 29 0.166305 0.690908 0.5
267 27 0.172531 0.724371 0.5
164 33 0.202916 0.73035 0.5
836 29 0.193383 0.700032 0.5
549 30 0.253634 0.712277 0.5
479 21 0.226065 0.704644 0.5
249 34 0.275259 0.687462 0.5
122 30 0.322622 0.720729 0.5
958 23 0.289024 0.717654 0.5
304 28 0.305393 0.683925 0.5
667 27 0.340812 0.69317 0.5
320 33 0.357383 0.730545 0.5
988 20 0.371848 0.700178 0.5
226 31 0.449273 0.690927 0.5
205 27 0.410792 0.724977 0.5
487 30 0.444472 0.723458 0.5
138 31 0.441544 0.752994 0.5
887 32 0.475644 0.7106 0.5
160 29 0.505195 0.695053 0.5
600 35 0.512801 0.76219 0.5
465 27 0.532968 0.698526 0.5
86 30 0.557728 0.713614 0.5
994 28 0.494399 0.737976 0.5
610 30 0.59746 0.700103 0.5
118 26 0.587106 0.726187 0.5
902 30 0.628211 0.718213 0.5
885 25 0.595056 0.671711 0.5
275 32 0.676648 0.676718 0.5
635 23 0.652391 0.691769 0.5
665 41 0.660387 0.724314 0.5
840 26 0.696795 0.710315 0.5
909 28 0.706108 0.673638 0.5
824 31 0.720944 0.744022 0.5
740 34 0.726198 0.707511 0.5
702 28 0.768554 0.70526 0.5
145 25 0.755929 0.729145 0.5
283 36 0.853052 0.672111 0.5
110 30 0.834949 0.7327 0.5
556 29 0.792506 0.724836 0.5
916 25 0.814924 0.758787 0.5
730 31 0.884844 0.712329 0.5
153 37 0.853162 0.703541 0.5
870 30 0.913836 0.713982 0.5
721 27 0.895611 0.739398 0.5
460 34 0.952517 0.686935 0.5
9 28 0.946506 0.72032 0.5
628 31 0.988641 0.684117 0.5
363 25 0.0232315 0.681733 0.5
127 23 0.982132 0.718962 0.5
62 28 0.982139 0.749492 0.5
274 27 0.996181 0.781306 0.5
695 21 0.0114694 0.761049 0.5
953 29 0.0796228 0.774132 0.5
929 33 0.0852683 0.744137 0.5
714 29 0.150272 0.749706 0.5
647 30 0.131846 0.770628 0.5
960 40 0.167318 0.783822 0.5
611 36 0.180717 0.753032 0.5
132 31 0.19897 0.792247 0.5
467 31 0.210608 0.763175 0.5
211 19 0.228403 0.733169 0.5
997 34 0.268599 0.739181 0.5
257 33 0.29884 0.74519 0.5
493 25 0.329147 0.757473 0.5
435 23 0.353225 0.758339 0.5
228 27 0.383578 0.72423 0.5
35 37 0.363759 0.804356 0.5
956 33 0.40741 0.752579 0.5
823 28 0.37921 0.759876 0.5
782 28 0.472392 0.754363 0.5
376 40 0.404763 0.783488 0.5
643 28 0.446227 0.782498 0.5
961 30 0.49049 0.784206 0.5
669 40 0.529961 0.800957 0.5
770 41 0.55208 0.746779 0.5
850 23 0.536622 0.772106 0.5
136 37 0.562141 0.784902 0.5
719 23 0.610694 0.74891 0.5
207 31 0.584911 0.759825 0.5
706 32 0.691905 0.744138 0.5
598 34 0.639433 0.751484 0.5
915 27 0.621137 0.781833 0.5
968 37 0.705308 0.801424 0.5
182 33 0.684929 0.775278 0.5
809 27 0.719112 0.771889 0.5
63 29 0.767105 0.797079 0.5
440 39 0.754016 0.769074 0.5
829 25 0.775765 0.74708 0.5
40 39 0.791543 0.775842 0.5
846 33 0.845526 0.761685 0.5
944 29 0.862488 0.735144 0.5
327 31 0.830317 0.788727 0.5
830 29 0.870453 0.772569 0.5
901 37 0.923698 0.742294 0.5
984 32 0.9009 0.768612 0.5
482 29 0.930466 0.777552 0.5
646 28 0.965482 0.823149 0.5
306 27 0.95621 0.796051 0.5
453 25 0.970662 0.773884 0.5
648 25 0.949922 0.749383 0.5
366 29 0.0211968 0.804209 0.5
769 29 0.993944 0.808331 0.5
913 29 0.0517089 0.779413 0.5
474 28 0.0692173 0.80557 0.5
415 24 0.0939376 0.797745 0.5
7 35 0.120584 0.800353 0.5
134 34 0.0900415 0.826467 0.5
243 33 0.153184 0.821897 0.5
791 27 0.183893 0.814336 0.5
835 33 0.24504 0.78917 0.5
75 21 0.222327 0.814104 0.5
796 26 0.239342 0.762629 0.5
299 25 0.271648 0.803408 0.5
644 30 0.273447 0.767257 0.5
520 31 0.307148 0.774213 0.5
338 29 0.25412 0.82216 0.5
315 28 0.333243 0.78926 0.5
594 33 0.314009 0.8487 0.5
220 30 0.339857 0.819898 0.5
602 25 0.412265 0.831797 0.5
345 32 0.391469 0.813893 0.5
858 33 0.432089 0.807639 0.5
324 38 0.47001 0.808562 0.5
617 33 0.506296 0.863309 0.5
52 37 0.51376 0.829569 0.5
233 27 0.544399 0.833182 0.5
883 35 0.574022 0.866549 0.5
660 28 0.59204 0.793743 0.5
735 28 0.573306 0.829356 0.5
964 33 0.602472 0.825344 0.5
189 13 0.626972 0.805604 0.5
282 27 0.65465 0.774607 0.5
576 33 0.666843 0.800677 0.5
815 30 0.646858 0.82227 0.5
862 25 0.686665 0.826292 0.5
393 38 0.726511 0.83748 0.5
49 27 0.736483 0.806046 0.5
29 29 0.807428 0.806974 0.5
279 32 0.757023 0.825592 0.5
670 34 0.831473 0.82676 0.5
547 33 0.837705 0.858135 0.5
940 27 0.805817 0.845737 0.5
567 29 0.88848 0.796183 0.5
87 28 0.889962 0.826321 0.5
300 36 0.862124 0.80979 0.5
545 38 0.91674 0.809536 0.5
717 30 0.913855 0.852315 0.5
637 28 0.0259763 0.833826 0.5
760 26 0.937045 0.833323 0.5
388 26 0.96109 0.850732 0.5
955 28 0.0660356 0.847684 0.5
223 19 0.0431771 0.866824 0.5
773 21 0.029986 0.887865 0.5
313 33 0.065842 0.890422 0.5
738 32 0.0964818 0.859666 0.5
395 28 0.0833513 0.920211 0.5
899 23 0.0507869 0.828045 0.5
855 31 0.0978942 0.894737 0.5
143 30 0.126903 0.83843 0.5
654 25 0.146312 0.885457 0.5
494 23 0.121321 0.872698 0.5
507 29 0.171181 0.912294 0.5
727 36 0.151393 0.852881 0.5
700 26 0.173469 0.879564 0.5
606 34 0.235151 0.851214 0.5
813 30 0.209682 0.867813 0.5
414 34 0.195271 0.842424 0.5
120 30 0.277805 0.857498 0.5
742 31 0.308083 0.810699 0.5
425 32 0.284758 0.830291 0.5
266 35 0.302295 0.878459 0.5
878 32 0.334048 0.88051 0.5
614 29 0.344717 0.851373 0.5
975 27 0.373556 0.840044 0.5
720 28 0.45247 0.837634 0.5
847 37 0.433957 0.863199 0.5
335 33 0.404535 0.858876 0.5
703 30 0.479056 0.840209 0.5
516 40 0.473565 0.870225 0.5
390 32 0.538934 0.867304 0.5
942 26 0.48545 0.901088 0.5
268 43 0.52443 0.904464 0.5
839 27 0.556128 0.892279 0.5
473 31 0.604641 0.856279 0.5
175 43 0.590895 0.898746 0.5
765 24 0.638926 0.846331 0.5
51 31 0.629017 0.876433 0.5
28 27 0.652422 0.895656 0.5
167 27 0.668843 0.87557 0.5
133 32 0.681404 0.91269 0.5
358 28 0.665242 0.848513 0.5
26 39 0.726891 0.874963 0.5
196 31 0.69956 0.8557 0.5
469 36 0.753662 0.855544 0.5
688 27 0.762084 0.884669 0.5
55 28 0.786801 0.895566 0.5
464 30 0.785243 0.827392 0.5
980 28 0.818131 0.903963 0.5
289 22 0.785035 0.862354 0.5
986 28 0.861764 0.843493 0.5
488 26 0.860727 0.870352 0.5
528 33 0.814305 0.876871 0.5
184 27 0.885861 0.859608 0.5
906 38 0.910749 0.886499 0.5
686 30 0.938552 0.868494 0.5
851 31 0.988456 0.856645 0.5
801 26 0.0162221 0.863638 0.5
693 29 0.965492 0.879069 0.5
584 25 0.00470058 0.888959 0.5
93 42 0.0321777 0.946375 0.5
540 35 0.0661929 0.943076 0.5
359 34 0.051714 0.91632 0.5
70 28 0.0945938 0.954331 0.5
247 24 0.110143 0.924543 0.5
351 31 0.125795 0.959859 0.5
481 30 0.138719 0.914927 0.5
36 37 0.152785 0.941865 0.5
890 33 0.22844 0.898761 0.5
685 30 0.197664 0.893508 0.5
82 33 0.236164 0.929135 0.5
409 30 0.266276 0.896856 0.5
217 32 0.292924 0.916553 0.5
761 29 0.26681 0.931442 0.5
810 31 0.358386 0.899848 0.5
780 29 0.323807 0.907357 0.5
237 35 0.389011 0.900231 0.5
845 27 0.376869 0.869134 0.5
137 33 0.419096 0.891573 0.5
589 24 0.455333 0.892927 0.5
430 33 0.434863 0.924677 0.5
422 30 0.466381 0.921441 0.5
977 35 0.492185 0.937228 0.5
489 22 0.505562 0.963555 0.5
588 26 0.548692 0.926129 0.5
232 27 0.524411 0.944959 0.5
696 27 0.568749 0.952209 0.5
392 30 0.598141 0.932165 0.5
558 31 0.621757 0.946446 0.5
397 32 0.625383 0.907465 0.5
343 33 0.648557 0.966385 0.5
634 18 0.651529 0.933247 0.5
74 35 0.695922 0.886178 0.5
590 25 0.710379 0.927758 0.5
331 26 0.72151 0.904304 0.5
662 32 0.750725 0.919674 0.5
690 27 0.782546 0.921482 0.5
989 34 0.811844 0.934837 0.5
224 30 0.844952 0.898453 0.5
47 31 0.831215 0.96527 0.5
288 35 0.844886 0.938541 0.5
783 26 0.876806 0.927362 0.5
495 33 0.911171 0.918345 0.5
640 37 0.878266 0.897078 0.5
458 36 0.980928 0.911186 0.5
745 35 0.943834 0.902168 0.5
651 24 0.012029 0.915953 0.5
673 27 0.0239891 0.979418 0.5
77 20 0.0561186 0.968575 0.5
236 41 0.0595787 0.00730339 0.5
642 31 0.122082 0.991642 0.5
996 26 0.100901 0.0081352 0.5
952 34 0.0836619 0.983069 0.5
265 41 0.143413 0.0259156 0.5
713 37 0.152061 0.977933 0.5
326 43 0.174914 1.00022 0.5
875 34 0.188839 0.949022 0.5
935 25 0.219366 0.955929 0.5
822 35 0.205846 0.923668 0.5
14 29 0.252961 0.957512 0.5
612 27 0.298433 0.986754 0.5
544 28 0.291795 0.953121 0.5
130 28 0.331486 0.980652 0.5
659 35 0.323832 0.952593 0.5
722 33 0.358059 0.962142 0.5
925 23 0.338719 0.927958 0.5
239 35 0.368477 0.929371 0.5
513 27 0.389242 0.950565 0.5
914 25 0.404933 0.927978 0.5
123 18 0.449663 0.947775 0.5
96 30 0.444921 0.977238 0.5
234 34 0.4163 0.968228 0.5
379 27 0.448162 0.00705325 0.5
402 37 0.474795 0.962934 0.5
60 27 0.478951 0.993101 0.5
842 28 0.520984 -0.00104551 0.5
969 29 0.553229 0.00867446 0.5
165 22 0.528291 0.974574 0.5
475 26 0.56063 0.97874 0.5
187 33 0.59531 0.96472 0.5
945 34 0.647605 0.99793 0.5
336 35 0.674084 0.941138 0.5
212 25 0.69599 0.99792 0.5
907 27 0.674701 0.982426 0.5
116 23 0.697297 0.958015 0.5
681 24 0.735086 0.942157 0.5
739 42 0.753084 0.966147 0.5
399 34 0.717845 0.976846 0.5
301 36 0.738623 0.00208366 0.5
689 30 0.778225 0.949193 0.5
797 31 0.802486 0.963292 0.5
492 39 0.775361 0.991386 0.5
657 25 0.823861 0.991856 0.5
173 30 0.869673 0.95569 0.5
825 36 0.857677 0.984578 0.5
857 39 0.901298 0.960211 0.5
83 31 0.935864 0.931836 0.5
39 27 0.936622 0.967437 0.5
456 31 0.964755 0.965728 0.5
497 32 0.993389 0.973725 0.5
163 26 0.999601 0.941647 0.5
424 23 0.96275 0.933356 0.5
