ITEM: TIMESTEP
250000
ITEM: NUMBER OF ATOMS
1000
ITEM: BOX BOUNDS pp pp pp
-1.7574559000000001e+01 1.7574559000000001e+01
-1.7574559000000001e+01 1.7574559000000001e+01
-5.0000000000000000e-01 5.0000000000000000e-01
ITEM: ATOMS id type xs ys zs
473 31 0.0327951 0.036926 0.5
803 31 0.0620756 0.00894849 0.5
280 38 0.0287969 1.00225 0.5
668 23 0.0883283 0.0223895 0.5
652 41 0.0912602 0.989408 0.5
511 37 0.120431 0.0317973 0.5
809 27 0.124316 1.00006 0.5
427 31 0.149881 0.0191051 0.5
279 32 0.173886 0.999036 0.5
40 39 0.189077 0.0482802 0.5
927 32 0.203158 0.0171364 0.5
706 32 0.226966 0.0471986 0.5
556 29 0.247755 0.0207461 0.5
592 25 0.228206 -0.00118761 0.5
608 29 0.277626 0.0246776 0.5
425 32 0.293896 0.995641 0.5
690 27 0.348237 0.0211066 0.5
55 28 0.379478 0.0265416 0.5
693 29 0.326477 0.993348 0.5
733 37 0.391157 0.990572 0.5
246 33 0.394827 0.0532979 0.5
366 29 0.423136 0.982162 0.5
17 27 0.408701 0.0162574 0.5
621 27 0.439688 0.0109822 0.5
558 31 0.472402 0.000320717 0.5
175 43 0.463453 0.0394439 0.5
383 35 0.504517 0.0221363 0.5
875 34 0.524834 0.0497484 0.5
4 33 0.544828 0.0224333 0.5
843 34 0.577266 0.0205302 0.5
368 33 0.608408 0.0475385 0.5
329 34 0.611572 0.0140243 0.5
864 25 0.644815 0.00166952 0.5
707 45 0.647266 0.0381474 0.5
72 26 0.702634 0.00793509 0.5
553 32 0.681908 0.045319 0.5
911 29 0.716301 0.0358432 0.5
265 41 0.735673 0.00705972 0.5
470 29 0.774696 0.0471584 0.5
499 19 0.744938 0.0423334 0.5
901 37 0.808318 0.0328242 0.5
418 34 0.845059 0.0282181 0.5
210 28 0.83505 0.0574569 0.5
802 35 0.876215 0.00384528 0.5
596 27 0.876596 0.0373136 0.5
239 35 0.905903 0.0201846 0.5
748 35 0.93694 0.037548 0.5
815 30 0.901353 0.0529405 0.5
54 29 0.935442 0.00482978 0.5
723 29 0.969527 0.0141484 0.5
12 34 0.998429 0.0275568 0.5
121 32 0.992436 0.990428 0.5
905 30 0.0647822 0.0397253 0.5
331 26 0.0699461 0.073103 0.5
720 28 0.0422071 0.0654898 0.5
846 33 0.0943114 0.0537203 0.5
216 41 0.100059 0.0874454 0.5
433 25 0.122611 0.0630185 0.5
786 38 0.153277 0.0533216 0.5
991 33 0.145415 0.0884676 0.5
934 25 0.210134 0.0714703 0.5
506 37 0.179293 0.082419 0.5
709 30 0.20935 0.0999943 0.5
296 30 0.256573 0.0514361 0.5
313 33 0.238998 0.0778937 0.5
162 32 0.271892 0.0803259 0.5
140 30 0.29635 0.0515425 0.5
923 33 0.312975 0.0253254 0.5
457 37 0.307634 0.0826664 0.5
799 27 0.329469 0.0546985 0.5
71 34 0.325755 0.111153 0.5
57 32 0.360905 0.0526508 0.5
196 31 0.349561 0.0897112 0.5
798 34 0.382223 0.0847513 0.5
6 15 0.360477 0.118244 0.5
856 28 0.413389 0.0845679 0.5
966 25 0.440694 0.071579 0.5
440 39 0.393351 0.119454 0.5
73 31 0.42929 0.0448271 0.5
734 32 0.471857 0.0758339 0.5
443 28 0.501867 0.0840918 0.5
549 30 0.494368 0.0551239 0.5
402 37 0.572288 0.0603519 0.5
545 38 0.521407 0.110781 0.5
104 25 0.60432 0.0823369 0.5
855 31 0.544511 0.0766951 0.5
583 24 0.628633 0.0989467 0.5
590 25 0.630565 0.0692927 0.5
364 32 0.659189 0.0776418 0.5
950 32 0.688464 0.098842 0.5
753 32 0.705938 0.0673672 0.5
350 16 0.732356 0.0738176 0.5
105 31 0.721414 0.103664 0.5
101 27 0.799029 0.0623895 0.5
850 23 0.756449 0.0665422 0.5
392 30 0.78451 0.0894631 0.5
971 20 0.861825 0.0605967 0.5
849 35 0.852034 0.087126 0.5
714 29 0.818099 0.0895894 0.5
528 33 0.882663 0.0784489 0.5
179 31 0.918857 0.0787516 0.5
645 33 0.872763 0.118847 0.5
66 31 0.952171 0.0740146 0.5
712 29 0.941829 0.103284 0.5
171 34 0.970657 0.0490759 0.5
532 28 0.985307 0.0841221 0.5
770 41 0.00690404 0.0599948 0.5
120 30 0.0126705 0.0941615 0.5
14 29 0.0434594 0.0951109 0.5
833 33 0.0491836 0.126626 0.5
964 33 0.0157412 0.133477 0.5
787 27 0.0708502 0.106206 0.5
701 37 0.0938586 0.1271 0.5
133 32 0.126346 0.114788 0.5
548 36 0.120102 0.151819 0.5
352 27 0.168574 0.112576 0.5
212 25 0.194162 0.124022 0.5
524 33 0.17852 0.148698 0.5
889 28 0.148084 0.136186 0.5
897 31 0.248462 0.110008 0.5
145 25 0.223452 0.127729 0.5
488 26 0.266327 0.134631 0.5
186 31 0.242646 0.153327 0.5
114 26 0.286242 0.106859 0.5
74 35 0.274356 0.164169 0.5
152 34 0.302226 0.133822 0.5
942 26 0.334318 0.142518 0.5
410 40 0.367586 0.145894 0.5
399 34 0.346024 0.173577 0.5
563 35 0.380538 0.181712 0.5
307 32 0.402532 0.151756 0.5
1 26 0.449947 0.101763 0.5
771 26 0.426123 0.113208 0.5
785 33 0.452807 0.138146 0.5
990 40 0.481058 0.116885 0.5
513 27 0.50474 0.139049 0.5
504 39 0.542012 0.140905 0.5
371 29 0.554318 0.106654 0.5
83 31 0.584365 0.102188 0.5
656 21 0.644864 0.138696 0.5
774 33 0.655905 0.109037 0.5
529 28 0.672641 0.137939 0.5
138 31 0.704854 0.130206 0.5
928 33 0.738135 0.134188 0.5
278 33 0.690623 0.166508 0.5
381 32 0.753886 0.0971111 0.5
963 27 0.759777 0.164093 0.5
419 33 0.770084 0.125478 0.5
191 36 0.803255 0.120038 0.5
288 35 0.839683 0.120727 0.5
593 25 0.818942 0.147277 0.5
616 30 0.893146 0.143729 0.5
917 39 0.909627 0.112707 0.5
586 42 0.939302 0.137804 0.5
283 36 0.91743 0.16622 0.5
965 29 0.980164 0.115171 0.5
423 34 0.980029 0.147878 0.5
702 28 0.0399548 0.161829 0.5
233 27 0.011983 0.193852 0.5
574 22 0.00882206 0.164744 0.5
273 28 0.0680298 0.150733 0.5
967 24 0.0664459 0.182572 0.5
269 32 0.0922319 0.169439 0.5
956 33 0.154404 0.171588 0.5
304 28 0.124328 0.18512 0.5
542 32 0.208431 0.159012 0.5
149 27 0.185638 0.179022 0.5
476 22 0.176388 0.213607 0.5
776 31 0.212518 0.190119 0.5
202 38 0.245831 0.186557 0.5
347 44 0.28938 0.200191 0.5
503 37 0.312499 0.165335 0.5
167 27 0.326032 0.197125 0.5
116 23 0.308838 0.232231 0.5
390 32 0.356947 0.207336 0.5
111 28 0.388367 0.216552 0.5
8 25 0.400386 0.242277 0.5
801 26 0.411704 0.186181 0.5
823 28 0.438605 0.164914 0.5
58 27 0.439604 0.195947 0.5
24 29 0.479187 0.155432 0.5
434 24 0.514295 0.164685 0.5
899 23 0.462536 0.178771 0.5
386 36 0.494935 0.189566 0.5
426 23 0.567449 0.15889 0.5
317 37 0.543399 0.177845 0.5
637 28 0.57798 0.184391 0.5
794 31 0.573824 0.130907 0.5
95 32 0.596695 0.159794 0.5
607 37 0.610962 0.127606 0.5
254 33 0.651949 0.176879 0.5
471 25 0.625956 0.156012 0.5
582 28 0.645211 0.205295 0.5
27 33 0.727131 0.170487 0.5
874 37 0.67746 0.198503 0.5
335 33 0.712434 0.203564 0.5
772 32 0.750404 0.193017 0.5
736 26 0.7857 0.155284 0.5
762 32 0.783254 0.188249 0.5
519 24 0.810705 0.173682 0.5
791 27 0.822333 0.200084 0.5
428 28 0.864318 0.150816 0.5
326 43 0.880957 0.181614 0.5
375 30 0.842176 0.174126 0.5
188 31 0.948462 0.17451 0.5
422 30 0.926903 0.199648 0.5
346 29 0.957328 0.207726 0.5
495 33 0.979396 0.181053 0.5
160 29 0.0435103 0.197581 0.5
190 39 0.0263737 0.232133 0.5
576 33 0.0214406 0.273035 0.5
983 32 0.0931289 0.201365 0.5
638 47 0.0636798 0.226859 0.5
687 33 0.14735 0.205998 0.5
618 35 0.101779 0.237026 0.5
634 18 0.121945 0.213297 0.5
86 30 0.13461 0.24081 0.5
512 31 0.206621 0.223891 0.5
667 27 0.181847 0.263857 0.5
807 23 0.165945 0.240783 0.5
284 35 0.216468 0.256254 0.5
925 23 0.235971 0.216876 0.5
344 21 0.255386 0.257772 0.5
132 31 0.264986 0.226531 0.5
626 35 0.284507 0.284023 0.5
935 25 0.283392 0.253915 0.5
765 24 0.326111 0.256366 0.5
353 29 0.334502 0.225933 0.5
376 40 0.32284 0.289096 0.5
995 25 0.353078 0.272949 0.5
458 36 0.364439 0.242667 0.5
23 28 0.385856 0.269233 0.5
692 28 0.421491 0.265964 0.5
820 29 0.41963 0.220074 0.5
20 35 0.444121 0.24201 0.5
949 34 0.469774 0.212618 0.5
292 28 0.476688 0.243039 0.5
573 30 0.498806 0.22263 0.5
263 29 0.511633 0.251977 0.5
431 31 0.526293 0.206314 0.5
497 32 0.560304 0.208464 0.5
36 37 0.545846 0.240017 0.5
201 34 0.61719 0.186741 0.5
653 24 0.594496 0.208031 0.5
550 25 0.620313 0.21934 0.5
587 36 0.58266 0.238308 0.5
689 30 0.648359 0.235353 0.5
793 29 0.679203 0.233877 0.5
615 28 0.709185 0.236016 0.5
39 27 0.690912 0.271301 0.5
893 30 0.735872 0.254912 0.5
544 28 0.737779 0.222721 0.5
9 28 0.769177 0.251184 0.5
237 35 0.7712 0.219852 0.5
611 36 0.837746 0.241468 0.5
751 24 0.807822 0.223242 0.5
768 31 0.793972 0.283545 0.5
625 32 0.871582 0.2294 0.5
294 29 0.851605 0.203644 0.5
680 29 0.903348 0.242157 0.5
628 31 0.897658 0.211258 0.5
906 38 0.863958 0.266704 0.5
29 29 0.933803 0.230213 0.5
724 40 0.990916 0.219621 0.5
343 33 0.964093 0.242598 0.5
303 29 0.997115 0.252706 0.5
41 31 0.990127 0.285085 0.5
909 28 0.0138743 0.303857 0.5
286 31 0.055159 0.264237 0.5
959 27 0.087671 0.266663 0.5
341 25 0.0737623 0.292914 0.5
721 27 0.0443806 0.293247 0.5
830 29 0.1067 0.29411 0.5
405 29 0.120129 0.268412 0.5
585 32 0.140274 0.297341 0.5
848 29 0.15056 0.26739 0.5
472 27 0.17098 0.290755 0.5
351 31 0.239203 0.282684 0.5
594 33 0.203118 0.287668 0.5
194 31 0.225006 0.313047 0.5
77 20 0.294582 0.311951 0.5
90 39 0.261867 0.312198 0.5
361 33 0.320589 0.323284 0.5
493 25 0.37163 0.293403 0.5
131 28 0.349599 0.313501 0.5
948 36 0.403469 0.295475 0.5
910 30 0.436433 0.291671 0.5
727 36 0.409763 0.33014 0.5
908 21 0.437262 0.319151 0.5
394 29 0.460264 0.270594 0.5
540 35 0.493253 0.278469 0.5
151 37 0.505457 0.312584 0.5
42 40 0.528266 0.280379 0.5
311 28 0.560271 0.268071 0.5
35 37 0.539902 0.31439 0.5
266 35 0.591645 0.273603 0.5
885 25 0.569261 0.296886 0.5
92 28 0.624781 0.289826 0.5
764 37 0.620213 0.253183 0.5
600 35 0.658447 0.26861 0.5
840 26 0.653485 0.300136 0.5
308 26 0.720227 0.28522 0.5
658 35 0.686894 0.302587 0.5
126 32 0.719574 0.315558 0.5
93 42 0.75438 0.283682 0.5
578 29 0.749945 0.318031 0.5
777 27 0.804802 0.250258 0.5
306 27 0.816193 0.306135 0.5
19 28 0.779062 0.311124 0.5
521 32 0.826552 0.27259 0.5
165 22 0.87999 0.300595 0.5
320 33 0.848247 0.298641 0.5
784 28 0.927016 0.261623 0.5
21 31 0.899777 0.278981 0.5
7 35 0.930793 0.292167 0.5
141 32 0.95961 0.274792 0.5
447 36 0.98982 0.340233 0.5
755 25 0.0154759 0.361162 0.5
123 18 0.0186643 0.331942 0.5
518 30 0.959694 0.349827 0.5
597 24 0.0580448 0.316081 0.5
552 30 0.078015 0.348955 0.5
946 30 0.0449986 0.345815 0.5
60 27 0.0876974 0.318612 0.5
683 34 0.121999 0.325355 0.5
933 29 0.107704 0.352236 0.5
691 38 0.161599 0.325773 0.5
249 34 0.142526 0.352357 0.5
26 39 0.178967 0.356718 0.5
323 30 0.210245 0.344557 0.5
641 29 0.193484 0.316442 0.5
184 27 0.207073 0.375699 0.5
804 29 0.260061 0.359098 0.5
882 36 0.286256 0.340609 0.5
747 24 0.239411 0.338449 0.5
411 31 0.29607 0.379651 0.5
674 28 0.317244 0.355949 0.5
646 28 0.350281 0.350874 0.5
406 30 0.375841 0.328514 0.5
287 35 0.390042 0.358132 0.5
902 30 0.452401 0.343302 0.5
500 41 0.466653 0.308748 0.5
661 30 0.422324 0.360652 0.5
454 32 0.478988 0.369283 0.5
78 20 0.478659 0.338384 0.5
206 32 0.506337 0.349756 0.5
997 34 0.541969 0.356388 0.5
620 28 0.577286 0.368042 0.5
333 30 0.570029 0.332217 0.5
976 23 0.602984 0.343435 0.5
51 31 0.596883 0.309571 0.5
740 34 0.628665 0.326491 0.5
980 28 0.665814 0.326999 0.5
861 35 0.63036 0.360575 0.5
696 27 0.66584 0.358279 0.5
533 35 0.698832 0.341092 0.5
853 20 0.727249 0.377952 0.5
445 35 0.732736 0.347097 0.5
112 25 0.771162 0.340422 0.5
468 27 0.789164 0.362552 0.5
485 34 0.801475 0.333865 0.5
713 37 0.82241 0.363399 0.5
349 40 0.839346 0.330606 0.5
972 29 0.873226 0.329294 0.5
610 30 0.859685 0.358126 0.5
398 37 0.904757 0.319338 0.5
46 34 0.896452 0.353058 0.5
643 28 0.938441 0.327105 0.5
868 38 0.966115 0.308295 0.5
826 30 0.956406 0.380448 0.5
465 27 0.00499456 0.400022 0.5
738 32 0.987899 0.374507 0.5
913 29 0.035254 0.38942 0.5
970 22 0.0597366 0.369663 0.5
222 33 0.0657488 0.406991 0.5
969 29 0.0861904 0.379484 0.5
891 33 0.120538 0.381279 0.5
811 26 0.100271 0.406933 0.5
262 32 0.154651 0.386755 0.5
441 30 0.129158 0.411629 0.5
453 25 0.160106 0.419594 0.5
462 29 0.185412 0.396576 0.5
282 27 0.235632 0.3846 0.5
568 31 0.215388 0.405447 0.5
297 30 0.266301 0.38915 0.5
605 24 0.313112 0.405527 0.5
475 26 0.333501 0.379277 0.5
543 33 0.34318 0.410359 0.5
82 33 0.364384 0.386572 0.5
1000 35 0.375911 0.415304 0.5
429 27 0.395173 0.389208 0.5
664 32 0.409932 0.416215 0.5
973 22 0.449723 0.371529 0.5
76 26 0.426094 0.389787 0.5
275 32 0.469134 0.399564 0.5
384 41 0.511425 0.386422 0.5
810 31 0.530232 0.415363 0.5
251 32 0.550292 0.387679 0.5
241 33 0.564085 0.420687 0.5
523 22 0.592272 0.412511 0.5
117 31 0.60306 0.381976 0.5
479 21 0.611308 0.428884 0.5
678 30 0.66047 0.392308 0.5
158 35 0.684113 0.419446 0.5
228 27 0.650774 0.42239 0.5
157 32 0.695474 0.375606 0.5
268 43 0.719805 0.436958 0.5
49 27 0.71449 0.403698 0.5
866 29 0.743189 0.409801 0.5
584 25 0.757045 0.43854 0.5
951 29 0.75438 0.371037 0.5
955 28 0.773702 0.39695 0.5
718 20 0.802121 0.391152 0.5
697 36 0.790811 0.423778 0.5
665 41 0.848055 0.389781 0.5
109 42 0.884852 0.383665 0.5
281 25 0.846276 0.430952 0.5
876 31 0.92036 0.383301 0.5
450 24 0.928898 0.353891 0.5
359 34 0.94033 0.409799 0.5
204 34 0.973741 0.409007 0.5
960 40 0.965084 0.442805 0.5
872 39 1.00149 0.431157 0.5
673 27 0.0503932 0.474884 0.5
648 25 0.033128 0.420744 0.5
328 23 0.0438928 0.446899 0.5
124 28 0.0729951 0.438881 0.5
61 32 0.115509 0.469616 0.5
627 33 0.105208 0.437181 0.5
45 28 0.148694 0.475425 0.5
572 34 0.137575 0.443635 0.5
985 25 0.170168 0.452608 0.5
566 31 0.188263 0.429039 0.5
48 25 0.175463 0.483934 0.5
370 37 0.225831 0.438738 0.5
617 33 0.199667 0.461341 0.5
535 25 0.246744 0.41341 0.5
595 35 0.285255 0.416758 0.5
43 35 0.26031 0.442767 0.5
873 32 0.2926 0.449522 0.5
65 31 0.32207 0.43651 0.5
13 31 0.331831 0.464503 0.5
789 28 0.351412 0.440525 0.5
522 35 0.387117 0.449095 0.5
156 25 0.363445 0.469194 0.5
154 28 0.441036 0.413761 0.5
185 36 0.424181 0.445054 0.5
277 26 0.451544 0.463715 0.5
415 24 0.458633 0.43657 0.5
226 31 0.496846 0.418129 0.5
444 33 0.485335 0.451253 0.5
531 26 0.560293 0.454175 0.5
446 28 0.58702 0.441293 0.5
666 32 0.575683 0.478216 0.5
348 27 0.627987 0.400713 0.5
842 28 0.63823 0.454406 0.5
599 33 0.60763 0.465284 0.5
259 20 0.663769 0.444603 0.5
932 27 0.659986 0.474986 0.5
632 30 0.689018 0.45525 0.5
633 30 0.717889 0.473006 0.5
480 26 0.780068 0.482678 0.5
916 25 0.754421 0.468957 0.5
894 27 0.780891 0.454124 0.5
783 26 0.816078 0.442069 0.5
11 37 0.843194 0.467417 0.5
579 28 0.820676 0.411061 0.5
660 28 0.869495 0.447693 0.5
514 25 0.908725 0.410107 0.5
460 34 0.876085 0.417477 0.5
85 23 0.897425 0.443836 0.5
915 27 0.912073 0.467356 0.5
613 27 0.944861 0.468771 0.5
575 32 0.926054 0.440945 0.5
56 27 0.98413 0.467801 0.5
672 31 -0.00104538 0.496089 0.5
38 29 0.0299093 0.498089 0.5
992 37 0.0165624 0.463635 0.5
947 33 0.0814813 0.467145 0.5
257 33 0.0666572 0.501146 0.5
477 31 0.0983653 0.506351 0.5
766 29 0.130947 0.49956 0.5
565 27 0.110727 0.538943 0.5
25 33 0.163941 0.514464 0.5
936 25 0.135929 0.527751 0.5
560 29 0.192722 0.536677 0.5
401 25 0.191629 0.507008 0.5
70 28 0.237999 0.47136 0.5
978 23 0.217138 0.494146 0.5
455 31 0.220373 0.522816 0.5
962 46 0.25275 0.507024 0.5
10 29 0.272838 0.478192 0.5
412 29 0.287155 0.505565 0.5
958 23 0.35388 0.495594 0.5
520 31 0.304665 0.478948 0.5
507 29 0.325232 0.503883 0.5
373 35 0.414536 0.476911 0.5
954 24 0.379341 0.491474 0.5
62 28 0.405022 0.508322 0.5
271 30 0.475299 0.489875 0.5
432 29 0.444797 0.493253 0.5
327 31 0.493415 0.518901 0.5
318 35 0.505766 0.486206 0.5
30 32 0.542696 0.532888 0.5
459 36 0.524167 0.44721 0.5
393 38 0.541398 0.479101 0.5
315 28 0.577521 0.529148 0.5
421 34 0.598415 0.503778 0.5
654 25 0.632535 0.521179 0.5
767 39 0.629998 0.488998 0.5
209 26 0.662248 0.508811 0.5
52 37 0.656393 0.542371 0.5
778 24 0.738862 0.492253 0.5
484 34 0.691962 0.496689 0.5
240 29 0.720715 0.513689 0.5
224 30 0.686567 0.527743 0.5
999 36 0.797327 0.510196 0.5
302 26 0.759857 0.511276 0.5
137 33 0.780455 0.538545 0.5
974 26 0.809518 0.474686 0.5
854 28 0.815183 0.537795 0.5
176 33 0.829029 0.49903 0.5
396 31 0.883736 0.47457 0.5
22 34 0.879059 0.525134 0.5
142 31 0.861897 0.496481 0.5
466 42 0.908318 0.503517 0.5
295 33 0.914226 0.538253 0.5
379 27 0.965471 0.489065 0.5
517 36 0.945564 0.518289 0.5
858 33 0.0115386 0.527327 0.5
183 28 0.0434628 0.527919 0.5
235 35 0.0316065 0.556662 0.5
880 40 0.0784417 0.537179 0.5
538 34 0.0599029 0.571061 0.5
205 27 0.0958285 0.564409 0.5
129 36 0.13131 0.564041 0.5
541 33 0.162246 0.548625 0.5
510 35 0.216091 0.557651 0.5
657 25 0.272552 0.559903 0.5
388 26 0.245763 0.541472 0.5
863 26 0.274636 0.532783 0.5
996 26 0.29069 0.588731 0.5
498 29 0.301304 0.562196 0.5
877 29 0.308958 0.528691 0.5
481 30 0.348162 0.525692 0.5
526 30 0.328217 0.55095 0.5
217 32 0.379047 0.52129 0.5
602 25 0.360203 0.555927 0.5
435 23 0.387271 0.560121 0.5
688 27 0.4326 0.51968 0.5
821 26 0.461052 0.522415 0.5
365 27 0.438825 0.549839 0.5
629 25 0.524381 0.508711 0.5
780 29 0.509606 0.544771 0.5
739 42 0.47481 0.553428 0.5
128 31 0.560033 0.558908 0.5
125 30 0.558493 0.505576 0.5
248 26 0.527455 0.567752 0.5
812 27 0.605496 0.532915 0.5
134 34 0.591359 0.569725 0.5
316 38 0.626228 0.560661 0.5
878 32 0.684256 0.560858 0.5
159 34 0.710369 0.581353 0.5
338 29 0.71276 0.54471 0.5
729 23 0.737554 0.567868 0.5
200 34 0.748307 0.539146 0.5
166 30 0.766362 0.565692 0.5
609 30 0.752367 0.593009 0.5
337 29 0.785629 0.593528 0.5
515 29 0.797816 0.564984 0.5
818 25 0.814273 0.592566 0.5
319 29 0.845379 0.530229 0.5
695 21 0.825669 0.563669 0.5
119 29 0.858002 0.557824 0.5
439 28 0.843648 0.584377 0.5
612 27 0.874384 0.583862 0.5
806 27 0.888903 0.558605 0.5
221 23 0.915386 0.569271 0.5
588 26 0.979416 0.517403 0.5
591 26 0.941093 0.554157 0.5
781 29 0.999875 0.565196 0.5
218 23 0.967598 0.542817 0.5
290 31 0.990466 0.594926 0.5
99 25 0.0193981 0.585547 0.5
527 28 0.0133297 0.620852 0.5
261 38 0.0779107 0.60333 0.5
900 25 0.0767152 0.634399 0.5
525 26 0.103702 0.621314 0.5
929 33 0.109758 0.591374 0.5
819 30 0.133659 0.615506 0.5
884 36 0.157359 0.591291 0.5
536 28 0.183282 0.569562 0.5
53 35 0.190513 0.603341 0.5
773 21 0.217855 0.590736 0.5
47 31 0.246278 0.572803 0.5
814 31 0.251643 0.604152 0.5
234 34 0.312837 0.618549 0.5
223 19 0.352127 0.58024 0.5
757 38 0.357206 0.611127 0.5
180 33 0.323647 0.586442 0.5
865 22 0.402599 0.617149 0.5
675 27 0.42243 0.636103 0.5
567 29 0.38644 0.589695 0.5
321 31 0.409223 0.5422 0.5
782 28 0.415821 0.57213 0.5
44 33 0.446168 0.580992 0.5
914 25 0.450576 0.626979 0.5
829 25 0.498299 0.576587 0.5
746 24 0.476134 0.617362 0.5
635 23 0.476562 0.591127 0.5
619 32 0.502586 0.606988 0.5
467 31 0.533988 0.601552 0.5
509 27 0.562627 0.591595 0.5
463 26 0.55844 0.620851 0.5
236 41 0.591679 0.608576 0.5
456 31 0.619052 0.630196 0.5
655 29 0.625563 0.595953 0.5
195 37 0.654976 0.58142 0.5
98 35 0.65437 0.616598 0.5
679 42 0.722429 0.613278 0.5
715 23 0.715124 0.645611 0.5
926 34 0.686315 0.604946 0.5
904 34 0.766959 0.621053 0.5
84 27 0.74428 0.643594 0.5
918 39 0.802871 0.625398 0.5
828 29 0.835158 0.61511 0.5
97 23 0.829348 0.651346 0.5
907 27 0.853149 0.638423 0.5
813 30 0.879502 0.61721 0.5
922 36 0.90692 0.602191 0.5
478 29 0.928798 0.625214 0.5
622 28 0.966997 0.570906 0.5
355 31 0.961868 0.609917 0.5
883 35 0.939099 0.586793 0.5
164 33 0.95528 0.646713 0.5
650 29 0.0450009 0.597914 0.5
662 32 0.0442594 0.632774 0.5
888 28 0.0731101 0.66387 0.5
979 35 0.103624 0.653469 0.5
631 30 0.16277 0.626763 0.5
449 26 0.136154 0.647037 0.5
213 32 0.130524 0.677265 0.5
836 29 0.165409 0.657627 0.5
324 38 0.221153 0.620958 0.5
546 32 0.196251 0.646445 0.5
197 29 0.192119 0.681729 0.5
989 34 0.256429 0.63642 0.5
389 39 0.225349 0.66339 0.5
896 29 0.263237 0.667241 0.5
163 26 0.282123 0.618118 0.5
890 33 0.327629 0.649311 0.5
300 36 0.294098 0.650742 0.5
805 27 0.310171 0.675816 0.5
220 30 0.428995 0.606348 0.5
717 30 0.359679 0.644461 0.5
937 32 0.38199 0.66951 0.5
417 25 0.388996 0.641378 0.5
494 23 0.41157 0.66686 0.5
15 33 0.440769 0.662112 0.5
474 28 0.470145 0.647687 0.5
862 25 0.467197 0.678719 0.5
372 27 0.502968 0.639989 0.5
301 36 0.497038 0.670893 0.5
482 29 0.532845 0.632795 0.5
539 31 0.529433 0.66515 0.5
486 37 0.559987 0.653646 0.5
824 31 0.587931 0.680023 0.5
944 29 0.59211 0.648096 0.5
790 32 0.618013 0.668348 0.5
759 36 0.647562 0.652102 0.5
534 33 0.683381 0.638453 0.5
50 32 0.671769 0.680544 0.5
530 29 0.706216 0.675767 0.5
340 22 0.696033 0.710663 0.5
943 44 0.776493 0.657008 0.5
436 31 0.746085 0.67583 0.5
737 34 0.809386 0.673898 0.5
238 25 0.838336 0.692818 0.5
501 34 0.779412 0.692099 0.5
639 22 0.851429 0.669498 0.5
822 35 0.879343 0.65811 0.5
589 24 0.869812 0.694393 0.5
869 32 0.89764 0.685479 0.5
59 23 0.900962 0.634654 0.5
703 30 0.919465 0.657055 0.5
113 35 0.985439 0.633583 0.5
161 27 0.947346 0.675116 0.5
81 27 0.0445451 0.666296 0.5
291 27 0.0329168 0.69404 0.5
380 38 0.0104358 0.660423 0.5
649 35 0.0958133 0.689084 0.5
387 29 0.0618815 0.692219 0.5
79 37 0.0813499 0.721359 0.5
96 30 0.113929 0.717342 0.5
385 32 0.16133 0.688212 0.5
178 23 0.143149 0.712812 0.5
169 21 0.164197 0.731449 0.5
682 36 0.186725 0.712447 0.5
207 31 0.219154 0.697712 0.5
243 33 0.253086 0.700137 0.5
711 34 0.307383 0.711058 0.5
752 26 0.282742 0.691826 0.5
496 30 0.276026 0.72203 0.5
920 29 0.348692 0.675712 0.5
975 27 0.338757 0.707978 0.5
354 34 0.358543 0.731974 0.5
437 32 0.371342 0.700951 0.5
189 13 0.400792 0.69628 0.5
601 31 0.419609 0.718493 0.5
839 27 0.390628 0.724333 0.5
489 22 0.423707 0.691646 0.5
3 33 0.453904 0.708286 0.5
250 30 0.518684 0.694837 0.5
413 26 0.486299 0.700755 0.5
570 34 0.509133 0.729331 0.5
69 35 0.55045 0.69137 0.5
993 30 0.539746 0.722235 0.5
108 33 0.577382 0.712006 0.5
775 33 0.610805 0.701286 0.5
636 22 0.616209 0.759693 0.5
270 31 0.667015 0.710472 0.5
91 25 0.641082 0.691767 0.5
452 33 0.686301 0.739709 0.5
745 35 0.634438 0.724782 0.5
832 41 0.719723 0.732026 0.5
115 23 0.724733 0.697747 0.5
624 24 0.766581 0.751673 0.5
285 30 0.757553 0.719937 0.5
561 32 0.739197 0.761056 0.5
912 38 0.790112 0.730362 0.5
756 28 0.809552 0.704885 0.5
940 27 0.825817 0.733783 0.5
603 29 0.852033 0.717429 0.5
640 37 0.857206 0.749667 0.5
276 35 0.88428 0.720749 0.5
127 23 0.892882 0.754581 0.5
867 37 0.914916 0.735455 0.5
797 31 0.927136 0.698179 0.5
299 25 0.946106 0.723677 0.5
146 25 0.979005 0.674112 0.5
215 28 0.961495 0.700169 0.5
182 33 0.988209 0.719922 0.5
37 29 0.00278228 0.692301 0.5
953 29 0.0145004 0.779761 0.5
5 33 0.0193659 0.728594 0.5
808 26 0.0494978 0.72577 0.5
987 35 0.0714035 0.75963 0.5
404 31 0.100887 0.746336 0.5
247 24 0.0983667 0.778626 0.5
198 35 0.135412 0.741853 0.5
330 27 0.158985 0.766222 0.5
420 34 0.18736 0.750934 0.5
148 34 0.1907 0.784035 0.5
816 32 0.213621 0.730019 0.5
669 40 0.223197 0.763202 0.5
870 30 0.2466 0.73224 0.5
16 32 0.261625 0.760242 0.5
827 40 0.298162 0.750054 0.5
732 28 0.328431 0.736679 0.5
339 36 0.343579 0.764242 0.5
838 23 0.316689 0.778433 0.5
267 27 0.383286 0.751532 0.5
800 23 0.411091 0.747997 0.5
150 38 0.430662 0.771016 0.5
547 33 0.443557 0.739275 0.5
741 34 0.467991 0.766625 0.5
102 22 0.491543 0.792568 0.5
844 33 0.475664 0.730649 0.5
722 33 0.500816 0.76198 0.5
930 26 0.529796 0.753994 0.5
464 30 0.553194 0.775434 0.5
642 31 0.561768 0.742311 0.5
569 33 0.601583 0.734064 0.5
336 35 0.63829 0.780772 0.5
310 33 0.585358 0.765706 0.5
961 30 0.65386 0.751266 0.5
817 35 0.661941 0.805602 0.5
986 28 0.674054 0.773253 0.5
749 28 0.704908 0.762777 0.5
945 34 0.724481 0.789295 0.5
606 34 0.756827 0.790321 0.5
952 34 0.789876 0.77545 0.5
322 23 0.816196 0.790149 0.5
244 29 0.817265 0.762975 0.5
63 29 0.842184 0.782306 0.5
684 25 0.822728 0.816108 0.5
193 28 0.851599 0.81423 0.5
451 33 0.87196 0.781306 0.5
231 32 0.906942 0.779666 0.5
32 22 0.929177 0.762856 0.5
502 25 0.94688 0.782499 0.5
448 32 0.96113 0.75106 0.5
743 32 0.99803 0.753041 0.5
110 30 0.97816 0.778343 0.5
659 35 0.0381077 0.75891 0.5
483 28 0.0230404 0.818077 0.5
769 29 0.0215521 0.849519 0.5
245 22 0.0477152 0.830817 0.5
881 27 0.0431247 0.793425 0.5
903 31 0.0735109 0.797173 0.5
298 38 0.112842 0.806015 0.5
898 28 0.131352 0.775155 0.5
442 35 0.143837 0.819736 0.5
31 23 0.178915 0.812591 0.5
172 21 0.158961 0.792218 0.5
670 34 0.217172 0.804022 0.5
559 33 0.234637 0.83236 0.5
230 31 0.252661 0.790641 0.5
256 33 0.268852 0.818327 0.5
342 39 0.286989 0.785943 0.5
845 27 0.300854 0.814406 0.5
430 33 0.341923 0.796268 0.5
305 30 0.373888 0.780805 0.5
988 20 0.39983 0.775619 0.5
735 28 0.429542 0.808872 0.5
676 31 0.398105 0.803307 0.5
192 36 0.461223 0.803586 0.5
122 30 0.411591 0.833269 0.5
681 24 0.449171 0.832418 0.5
796 26 0.514888 0.844307 0.5
537 27 0.505383 0.817495 0.5
921 37 0.522412 0.789999 0.5
153 37 0.537948 0.819044 0.5
362 32 0.568137 0.803434 0.5
395 28 0.597767 0.813688 0.5
919 24 0.607544 0.784504 0.5
994 28 0.631255 0.811617 0.5
758 22 0.650765 0.835829 0.5
699 23 0.616576 0.834864 0.5
89 30 0.691254 0.79888 0.5
229 32 0.714405 0.826475 0.5
147 30 0.701255 0.858032 0.5
685 30 0.748744 0.824456 0.5
260 28 0.731454 0.853329 0.5
242 35 0.789618 0.80877 0.5
377 27 0.801561 0.839266 0.5
356 25 0.83027 0.881118 0.5
705 29 0.805054 0.868685 0.5
88 41 0.889559 0.810379 0.5
516 40 0.832675 0.847791 0.5
100 33 0.910695 0.84155 0.5
663 33 0.927342 0.806074 0.5
647 30 0.94226 0.840176 0.5
754 31 0.995745 0.804046 0.5
203 39 0.961796 0.811386 0.5
139 29 0.0288341 0.883657 0.5
577 36 0.0770435 0.831697 0.5
255 29 0.0531793 0.85843 0.5
710 37 0.107978 0.842746 0.5
860 30 0.139706 0.852842 0.5
181 32 0.117735 0.875599 0.5
763 34 0.15111 0.883746 0.5
623 36 0.169419 0.842856 0.5
274 27 0.17858 0.901096 0.5
977 35 0.19743 0.874399 0.5
461 32 0.201846 0.837446 0.5
214 34 0.230155 0.86447 0.5
174 31 0.290989 0.843242 0.5
564 27 0.261163 0.848202 0.5
75 21 0.317274 0.854155 0.5
598 34 0.293622 0.876531 0.5
852 34 0.330761 0.827922 0.5
555 30 0.347884 0.855229 0.5
130 28 0.331405 0.879485 0.5
957 36 0.369679 0.816243 0.5
671 25 0.418101 0.865986 0.5
795 35 0.381796 0.8495 0.5
825 36 0.456327 0.862368 0.5
704 34 0.439183 0.890679 0.5
562 37 0.481547 0.838569 0.5
334 33 0.526902 0.879553 0.5
491 30 0.495078 0.868434 0.5
981 30 0.546236 0.852192 0.5
397 32 0.557475 0.903895 0.5
173 30 0.571779 0.876229 0.5
788 33 0.578758 0.840878 0.5
551 30 0.60433 0.860274 0.5
857 39 0.624878 0.896621 0.5
895 29 0.591312 0.900766 0.5
408 28 0.680851 0.833314 0.5
968 37 0.636862 0.862905 0.5
694 31 0.68964 0.887105 0.5
314 31 0.668991 0.861226 0.5
312 38 0.729414 0.885537 0.5
416 34 0.766504 0.881012 0.5
686 30 0.770155 0.847372 0.5
931 30 0.778781 0.922286 0.5
407 26 0.795206 0.89767 0.5
18 41 0.814644 0.935543 0.5
360 18 0.820103 0.904729 0.5
859 39 0.872084 0.840677 0.5
505 33 0.860616 0.874327 0.5
382 37 0.847307 0.917134 0.5
199 36 0.894298 0.873387 0.5
369 35 0.930892 0.870007 0.5
219 28 0.994477 0.865706 0.5
68 31 0.985186 0.837684 0.5
851 31 0.964106 0.860219 0.5
614 29 0.0615323 0.886957 0.5
87 28 0.0367813 0.913513 0.5
170 33 0.0832458 0.866698 0.5
67 30 0.0927792 0.897919 0.5
837 33 0.0676109 0.920054 0.5
400 34 0.10718 0.935277 0.5
403 25 0.153423 0.918523 0.5
984 32 0.12284 0.908906 0.5
731 35 0.179974 0.932883 0.5
939 37 0.206241 0.914612 0.5
253 29 0.234167 0.89689 0.5
469 36 0.236133 0.929444 0.5
841 31 0.258947 0.878842 0.5
357 36 0.273157 0.909271 0.5
144 34 0.310294 0.905689 0.5
941 29 0.328382 0.93664 0.5
834 31 0.342344 0.909866 0.5
554 29 0.36211 0.882763 0.5
232 27 0.360402 0.933769 0.5
211 19 0.371334 0.908578 0.5
630 32 0.394865 0.88609 0.5
761 29 0.372587 0.962578 0.5
358 28 0.392107 0.93176 0.5
414 34 0.473352 0.893667 0.5
742 31 0.414229 0.912646 0.5
831 29 0.502315 0.903154 0.5
106 20 0.530514 0.907389 0.5
835 33 0.481937 0.926799 0.5
155 30 0.54389 0.932862 0.5
730 31 0.579446 0.931832 0.5
982 32 0.610761 0.930045 0.5
168 36 0.566753 0.960487 0.5
187 33 0.658861 0.894002 0.5
924 26 0.642027 0.925243 0.5
644 30 0.662094 0.95019 0.5
64 31 0.675564 0.921292 0.5
779 37 0.708406 0.918275 0.5
378 31 0.745616 0.915824 0.5
938 23 0.756476 0.949269 0.5
208 32 0.787509 0.957515 0.5
438 27 0.843782 0.949574 0.5
604 22 0.821256 0.966271 0.5
487 30 0.874183 0.940677 0.5
143 30 0.879018 0.904311 0.5
719 23 0.898623 0.926422 0.5
490 32 0.915841 0.898817 0.5
700 26 0.92676 0.929266 0.5
557 37 0.948912 0.905212 0.5
258 38 0.011094 0.93833 0.5
28 27 0.00501574 0.904276 0.5
367 28 0.976998 0.891355 0.5
34 31 0.0470016 0.946844 0.5
80 29 0.0508815 0.978076 0.5
391 25 0.0122444 0.968941 0.5
272 36 0.0790247 0.955449 0.5
728 34 0.117645 0.966377 0.5
750 32 0.144831 0.94705 0.5
33 30 0.147367 0.979205 0.5
792 31 0.175963 0.965413 0.5
325 32 0.205659 0.951709 0.5
744 33 0.20154 0.983987 0.5
374 34 0.23899 0.963518 0.5
492 39 0.268166 0.947475 0.5
847 37 0.26144 0.990694 0.5
580 27 0.297174 0.932049 0.5
227 32 0.307677 0.964801 0.5
887 32 0.33946 0.965462 0.5
103 33 0.35819 0.991209 0.5
409 30 0.403009 0.960622 0.5
571 42 0.457384 0.967656 0.5
225 34 0.429959 0.945755 0.5
651 24 0.452675 0.91923 0.5
136 37 0.492008 0.958641 0.5
708 26 0.513277 0.931088 0.5
698 21 0.500887 0.987005 0.5
725 38 0.531488 0.965688 0.5
107 29 0.525617 0.997913 0.5
871 28 0.558348 0.992081 0.5
293 35 0.590035 0.98914 0.5
581 23 0.597776 0.956493 0.5
508 28 0.671229 0.0131313 0.5
726 29 0.630041 0.953607 0.5
363 25 0.621719 0.983745 0.5
424 23 0.647648 0.975004 0.5
879 33 0.695749 0.953962 0.5
2 28 0.676827 0.980592 0.5
289 22 0.704898 0.980453 0.5
94 25 0.72898 0.940962 0.5
677 38 0.771551 0.0154283 0.5
264 31 0.760697 0.97921 0.5
118 26 0.731252 0.974226 0.5
760 26 0.82069 -0.00110585 0.5
716 30 0.792974 0.988572 0.5
252 35 0.847581 0.981222 0.5
892 23 0.877198 0.971178 0.5
332 27 0.901211 0.955149 0.5
345 32 0.908863 0.985996 0.5
309 34 0.934837 0.964581 0.5
135 29 0.960351 0.985514 0.5
886 28 0.980852 0.920403 0.5
177 24 0.95592 0.936788 0.5
998 31 0.978957 0.959295 0.5
