ITEM: TIMESTEP
250000
ITEM: NUMBER OF ATOMS
1000
ITEM: BOX BOUNDS pp pp pp
-1.5987059000000000e+01 1.5987059000000000e+01
-1.5987059000000000e+01 1.5987059000000000e+01
-5.0000000000000000e-01 5.0000000000000000e-01
ITEM: ATOMS id type xs ys zs
120 30 0.0449341 0.0333124 0.5
428 28 0.00815904 0.0308284 0.5
202 39 0.0277682 0.000919327 0.5
936 24 0.0606336 0.00870944 0.5
87 28 0.0777787 0.0356651 0.5
848 28 0.108427 0.0354705 0.5
171 34 0.0916277 0.00458318 0.5
995 25 0.124598 0.00808859 0.5
376 41 0.144252 0.0370253 0.5
458 37 0.181522 0.0455963 0.5
403 25 0.16767 0.0148786 0.5
140 30 0.21663 0.0398864 0.5
162 32 0.198799 0.0116368 0.5
54 29 0.231347 0.00461294 0.5
728 34 0.249986 0.0307368 0.5
740 34 0.271342 0.0576577 0.5
785 33 0.283301 0.0237965 0.5
802 35 0.319167 0.0165871 0.5
977 36 0.307021 0.0511049 0.5
914 25 0.339296 0.0440877 0.5
464 30 0.352576 0.00995174 0.5
476 21 0.370574 0.0339741 0.5
457 38 0.398299 0.05414 0.5
944 29 0.415795 0.0264357 0.5
368 33 0.38674 0.00916773 0.5
434 24 0.444639 0.015944 0.5
424 22 0.436362 0.0475013 0.5
508 27 0.464933 0.0383116 0.5
950 32 0.475143 0.00844356 0.5
603 29 0.499383 0.0292326 0.5
103 33 0.534713 0.0231229 0.5
485 35 0.511789 -0.00136725 0.5
402 38 0.568497 0.017344 0.5
91 24 0.554659 0.0479985 0.5
988 18 0.587947 0.0420776 0.5
679 43 0.610461 0.0189279 0.5
277 26 0.638201 0.0441529 0.5
136 38 0.651307 0.00936227 0.5
360 16 0.683945 0.0195188 0.5
521 32 0.669396 0.0453017 0.5
416 34 0.705648 0.0405239 0.5
307 33 0.712626 0.00823647 0.5
615 28 0.738355 0.0289951 0.5
661 30 0.772587 0.0186441 0.5
803 31 0.796535 0.043212 0.5
353 29 0.8278 0.0342723 0.5
365 27 0.80374 0.00966759 0.5
574 21 0.867239 0.0241569 0.5
544 28 0.852122 0.0501627 0.5
244 29 0.886548 0.0493773 0.5
901 37 0.839894 0.00560485 0.5
252 36 0.900478 0.0173705 0.5
662 32 0.918145 0.0506459 0.5
2 28 0.937625 0.0264242 0.5
881 26 0.925269 -0.00189113 0.5
199 37 0.973844 0.0318406 0.5
367 27 0.990541 0.00315313 0.5
983 32 0.957949 -0.00106101 0.5
345 32 0.0259031 0.062383 0.5
628 31 0.0593373 0.0632315 0.5
405 28 0.0423951 0.0896295 0.5
259 19 0.00476436 0.0827384 0.5
132 31 0.0923825 0.0642351 0.5
902 30 0.122828 0.0663297 0.5
706 32 0.0760335 0.0938707 0.5
555 30 0.108751 0.0958357 0.5
564 26 0.155338 0.068146 0.5
293 36 0.143775 0.0997084 0.5
273 28 0.177052 0.086425 0.5
834 31 0.238953 0.0658358 0.5
96 30 0.204855 0.0705583 0.5
331 26 0.200235 0.102018 0.5
888 28 0.228861 0.0964282 0.5
361 33 0.260587 0.0916211 0.5
73 31 0.292832 0.0846179 0.5
607 38 0.333189 0.0801119 0.5
707 46 0.317556 0.113388 0.5
175 44 0.359131 0.107734 0.5
645 33 0.364627 0.0651487 0.5
734 32 0.389522 0.0872236 0.5
440 40 0.424568 0.0813326 0.5
581 23 0.455906 0.103862 0.5
497 32 0.457206 0.0694631 0.5
666 33 0.490212 0.0606379 0.5
121 32 0.522776 0.0555904 0.5
72 25 0.481977 0.0907698 0.5
566 31 0.512537 0.0878454 0.5
225 35 0.57799 0.0711799 0.5
744 33 0.545621 0.0801944 0.5
658 36 0.56962 0.10568 0.5
329 34 0.61078 0.0598029 0.5
383 36 0.603392 0.0960199 0.5
251 32 0.636371 0.0822854 0.5
217 32 0.667366 0.0772702 0.5
12 35 0.690218 0.102914 0.5
443 28 0.700096 0.0714232 0.5
264 31 0.730085 0.0634303 0.5
141 33 0.761727 0.0512978 0.5
156 24 0.722138 0.0946724 0.5
363 25 0.752537 0.0846845 0.5
283 37 0.821753 0.069048 0.5
557 38 0.786301 0.0768223 0.5
652 42 0.811934 0.106467 0.5
723 28 0.844424 0.0938373 0.5
97 22 0.868764 0.0743755 0.5
776 31 0.877629 0.104636 0.5
618 36 0.898628 0.0801259 0.5
545 39 0.91275 0.115484 0.5
548 37 0.934222 0.0823451 0.5
85 22 0.946373 0.111333 0.5
729 22 0.949435 0.0523619 0.5
233 27 0.994217 0.0580167 0.5
313 33 0.968467 0.0765726 0.5
929 34 0.980953 0.109844 0.5
917 39 0.0172107 0.114062 0.5
26 40 0.053271 0.122737 0.5
787 26 0.0290672 0.148269 0.5
720 28 0.0611268 0.155258 0.5
967 24 0.0893767 0.124181 0.5
815 30 0.119987 0.126663 0.5
687 33 0.0932573 0.156496 0.5
750 33 0.12606 0.159065 0.5
532 28 0.175333 0.118644 0.5
783 26 0.150152 0.135224 0.5
636 22 0.157514 0.165543 0.5
303 28 0.178471 0.1497 0.5
36 37 0.2102 0.134524 0.5
794 31 0.204732 0.16951 0.5
966 24 0.235588 0.157811 0.5
201 34 0.244003 0.125002 0.5
357 37 0.281181 0.12026 0.5
875 34 0.267115 0.150199 0.5
491 29 0.304479 0.145074 0.5
232 27 0.290901 0.172766 0.5
275 32 0.32426 0.16969 0.5
893 30 0.34051 0.140899 0.5
549 30 0.358503 0.169455 0.5
348 27 0.39444 0.117605 0.5
105 31 0.375153 0.141861 0.5
333 30 0.405811 0.145209 0.5
21 31 0.425571 0.116782 0.5
593 24 0.436497 0.150011 0.5
4 33 0.463728 0.135965 0.5
500 42 0.498136 0.12049 0.5
421 34 0.536412 0.11393 0.5
730 32 0.490193 0.155891 0.5
531 26 0.524902 0.144942 0.5
426 22 0.558302 0.136872 0.5
70 27 0.579507 0.159298 0.5
887 33 0.595286 0.131245 0.5
176 33 0.626468 0.116491 0.5
529 28 0.657855 0.111247 0.5
267 26 0.617974 0.151385 0.5
166 30 0.648777 0.142356 0.5
100 33 0.712688 0.127705 0.5
17 27 0.678781 0.136047 0.5
980 28 0.668603 0.167999 0.5
478 29 0.701289 0.159287 0.5
519 23 0.742535 0.115668 0.5
530 29 0.772038 0.108624 0.5
553 32 0.733854 0.15262 0.5
471 24 0.762134 0.139619 0.5
165 22 0.789113 0.133585 0.5
375 30 0.785479 0.161428 0.5
829 24 0.81457 0.14558 0.5
326 44 0.848332 0.128404 0.5
6 13 0.885553 0.130438 0.5
177 24 0.838196 0.163967 0.5
879 34 0.872237 0.156267 0.5
41 31 0.905868 0.152142 0.5
698 20 0.934093 0.138943 0.5
973 21 0.945091 0.162796 0.5
951 29 0.997836 0.142264 0.5
288 36 0.965901 0.137987 0.5
716 30 0.976425 0.16991 0.5
792 31 0.0402315 0.179013 0.5
336 36 0.017358 0.205609 0.5
812 27 0.0503583 0.210357 0.5
897 31 0.0724137 0.186228 0.5
111 28 0.106763 0.187818 0.5
542 32 0.0873101 0.217032 0.5
407 26 0.119669 0.214285 0.5
179 31 0.139973 0.191138 0.5
51 31 0.151643 0.221655 0.5
882 36 0.175852 0.191572 0.5
586 43 0.185075 0.230839 0.5
668 22 0.206398 0.201059 0.5
616 29 0.221972 0.225258 0.5
885 24 0.231375 0.1901 0.5
556 29 0.259723 0.182987 0.5
928 33 0.252374 0.215474 0.5
228 27 0.282321 0.20421 0.5
77 19 0.309343 0.194443 0.5
664 32 0.339898 0.199823 0.5
384 43 0.31293 0.226521 0.5
765 23 0.34881 0.228037 0.5
674 27 0.390136 0.172527 0.5
504 40 0.37542 0.204 0.5
296 30 0.40974 0.208748 0.5
587 36 0.423616 0.180119 0.5
665 42 0.458132 0.175749 0.5
864 24 0.444736 0.207363 0.5
446 28 0.474878 0.210099 0.5
112 25 0.516332 0.176251 0.5
94 24 0.48965 0.185341 0.5
431 31 0.508266 0.207844 0.5
206 32 0.540571 0.203879 0.5
278 33 0.548511 0.167141 0.5
727 36 0.572079 0.191983 0.5
9 27 0.596505 0.213077 0.5
952 34 0.604546 0.180026 0.5
821 26 0.638381 0.172514 0.5
309 34 0.627941 0.203731 0.5
590 24 0.661094 0.198716 0.5
805 27 0.681952 0.222719 0.5
578 29 0.691567 0.19092 0.5
625 32 0.713566 0.218219 0.5
418 34 0.756825 0.177032 0.5
606 34 0.723692 0.187042 0.5
999 37 0.749364 0.214709 0.5
364 33 0.809038 0.180646 0.5
974 25 0.781729 0.198802 0.5
911 29 0.808128 0.215819 0.5
971 19 0.85783 0.182113 0.5
188 31 0.890906 0.184061 0.5
438 27 0.83525 0.200527 0.5
191 37 0.867308 0.21018 0.5
196 31 0.921743 0.181398 0.5
480 25 0.898379 0.219173 0.5
764 37 0.931441 0.213375 0.5
84 27 1.00816 0.172038 0.5
781 29 0.98465 0.198481 0.5
686 30 0.954192 0.191367 0.5
512 31 0.965692 0.222936 0.5
154 28 0.0297363 0.235258 0.5
972 29 0.0618032 0.239135 0.5
631 30 0.0419264 0.264714 0.5
8 25 0.126145 0.242128 0.5
524 34 0.0956482 0.251571 0.5
925 22 0.0708407 0.268612 0.5
833 33 0.125648 0.274932 0.5
475 26 0.152378 0.255521 0.5
714 29 0.156067 0.287265 0.5
693 28 0.181506 0.266766 0.5
709 30 0.212541 0.256746 0.5
92 27 0.20586 0.287294 0.5
786 39 0.239628 0.281275 0.5
563 36 0.279027 0.24024 0.5
690 26 0.246325 0.248107 0.5
412 29 0.273621 0.272609 0.5
11 38 0.307715 0.265962 0.5
958 22 0.339854 0.255674 0.5
62 28 0.332316 0.292112 0.5
692 28 0.392056 0.235484 0.5
306 27 0.368066 0.252406 0.5
128 31 0.36274 0.281465 0.5
347 45 0.400177 0.2723 0.5
626 35 0.427973 0.235958 0.5
560 28 0.461931 0.238939 0.5
349 41 0.440866 0.269607 0.5
406 30 0.476674 0.26828 0.5
133 32 0.492596 0.237929 0.5
101 27 0.526316 0.236251 0.5
771 25 0.512547 0.263756 0.5
47 31 0.5633 0.230336 0.5
892 22 0.591549 0.241609 0.5
910 30 0.54623 0.261244 0.5
289 22 0.578766 0.265775 0.5
866 28 0.620348 0.23569 0.5
23 27 0.651511 0.228156 0.5
688 26 0.608623 0.264335 0.5
381 32 0.64157 0.260817 0.5
39 26 0.704991 0.247366 0.5
981 29 0.673068 0.253275 0.5
338 28 0.662009 0.287741 0.5
318 36 0.692649 0.27976 0.5
282 27 0.749201 0.247583 0.5
778 24 0.726185 0.267373 0.5
916 25 0.749288 0.284635 0.5
632 30 0.77783 0.230283 0.5
575 33 0.777516 0.265431 0.5
343 34 0.80799 0.249973 0.5
585 32 0.809829 0.284308 0.5
533 35 0.839121 0.232525 0.5
960 41 0.876578 0.248155 0.5
822 35 0.841592 0.267015 0.5
503 38 0.872699 0.286672 0.5
959 27 0.913896 0.245336 0.5
862 24 0.942603 0.243103 0.5
807 22 0.902708 0.271359 0.5
962 48 0.93776 0.281849 0.5
777 26 0.997599 0.232188 0.5
60 26 1.01048 0.260169 0.5
190 40 0.974052 0.259146 0.5
793 28 0.0247732 0.289903 0.5
472 26 0.0554141 0.295287 0.5
212 24 0.0340605 0.319178 0.5
579 27 0.012678 0.339954 0.5
410 41 0.0931997 0.294147 0.5
422 30 0.0672357 0.324787 0.5
748 35 0.09916 0.333495 0.5
550 24 0.181577 0.300141 0.5
186 32 0.12781 0.310085 0.5
872 39 0.161053 0.324083 0.5
129 37 0.130431 0.346688 0.5
620 27 0.202892 0.317211 0.5
541 33 0.188214 0.345485 0.5
796 26 0.220942 0.343186 0.5
702 27 0.234022 0.314732 0.5
423 34 0.298002 0.298163 0.5
965 29 0.265481 0.305538 0.5
65 31 0.253568 0.337466 0.5
956 33 0.287072 0.330375 0.5
20 35 0.322695 0.324578 0.5
79 38 0.356277 0.315951 0.5
767 40 0.391875 0.309857 0.5
948 37 0.382483 0.34583 0.5
479 20 0.412291 0.336297 0.5
324 39 0.426863 0.305633 0.5
814 31 0.462567 0.297506 0.5
394 29 0.44799 0.328785 0.5
820 29 0.495464 0.293905 0.5
619 32 0.527686 0.291475 0.5
281 25 0.515175 0.321637 0.5
108 33 0.483977 0.325849 0.5
899 22 0.532295 0.346579 0.5
157 32 0.562255 0.292252 0.5
404 31 0.594185 0.292799 0.5
83 31 0.546235 0.320935 0.5
46 34 0.579098 0.325288 0.5
816 32 0.629393 0.291255 0.5
522 36 0.613379 0.321283 0.5
43 35 0.65028 0.319102 0.5
35 38 0.687381 0.317867 0.5
137 33 0.720974 0.300434 0.5
784 28 0.721662 0.332754 0.5
341 25 0.749548 0.315334 0.5
853 18 0.748204 0.343923 0.5
633 30 0.777297 0.298815 0.5
271 30 0.806925 0.318078 0.5
295 33 0.776617 0.333384 0.5
110 30 0.83991 0.300829 0.5
818 25 0.834355 0.330418 0.5
109 43 0.869561 0.324487 0.5
135 29 0.9046 0.303239 0.5
696 27 0.903306 0.335241 0.5
601 31 0.931616 0.322728 0.5
713 37 0.989945 0.289893 0.5
789 28 0.960793 0.308136 0.5
95 32 0.986375 0.325624 0.5
854 28 0.957563 0.340989 0.5
234 34 0.044661 0.349761 0.5
680 29 0.017015 0.371131 0.5
401 24 0.0234514 0.401742 0.5
465 27 0.0478587 0.382043 0.5
641 29 0.0768299 0.357791 0.5
534 34 0.0801207 0.391946 0.5
441 30 0.107154 0.369048 0.5
543 34 0.114208 0.401154 0.5
826 30 0.161981 0.36084 0.5
985 24 0.138211 0.380194 0.5
576 33 0.171182 0.392689 0.5
151 38 0.202359 0.376886 0.5
235 36 0.227239 0.405632 0.5
10 29 0.27459 0.363345 0.5
7 35 0.239712 0.371531 0.5
226 31 0.262199 0.400845 0.5
486 38 0.296227 0.39098 0.5
506 37 0.312574 0.356982 0.5
371 29 0.347898 0.353702 0.5
470 29 0.334156 0.381847 0.5
117 31 0.356097 0.404648 0.5
25 33 0.408159 0.370887 0.5
45 28 0.373964 0.377851 0.5
266 35 0.39773 0.404168 0.5
758 21 0.46625 0.351766 0.5
732 28 0.437813 0.359429 0.5
595 36 0.435002 0.393783 0.5
691 39 0.468319 0.382431 0.5
42 41 0.499529 0.358162 0.5
125 30 0.503796 0.395411 0.5
870 30 0.53019 0.377403 0.5
711 34 0.561235 0.357988 0.5
604 21 0.557114 0.389302 0.5
118 26 0.586677 0.384091 0.5
1000 36 0.597448 0.353793 0.5
904 34 0.634787 0.351221 0.5
573 30 0.61882 0.382868 0.5
64 31 0.65267 0.38151 0.5
772 33 0.668976 0.349233 0.5
584 25 0.699236 0.356024 0.5
322 22 0.681767 0.378698 0.5
392 30 0.710199 0.386153 0.5
760 26 0.731498 0.365222 0.5
119 28 0.740142 0.399007 0.5
968 38 0.764305 0.371407 0.5
918 40 0.807722 0.353617 0.5
675 27 0.795381 0.385409 0.5
725 39 0.847496 0.35991 0.5
294 29 0.881734 0.359649 0.5
869 32 0.826738 0.390009 0.5
495 33 0.86423 0.391221 0.5
906 39 0.925765 0.358808 0.5
231 32 0.900056 0.386169 0.5
187 33 0.933616 0.395543 0.5
791 26 0.987575 0.358273 0.5
600 36 0.990306 0.39192 0.5
790 32 0.960259 0.374359 0.5
1 25 0.0541037 0.411911 0.5
450 23 0.0324572 0.430268 0.5
74 35 0.0355997 0.46647 0.5
909 27 0.06085 0.443801 0.5
22 34 0.0854249 0.424809 0.5
29 29 0.0897686 0.457053 0.5
287 36 0.117222 0.437545 0.5
204 34 0.14468 0.413678 0.5
942 25 0.177052 0.427926 0.5
594 33 0.151518 0.447558 0.5
634 17 0.19696 0.409264 0.5
32 21 0.181715 0.457993 0.5
722 33 0.209463 0.437467 0.5
126 32 0.284153 0.424442 0.5
300 37 0.249885 0.435907 0.5
284 35 0.279295 0.459737 0.5
386 37 0.320511 0.41454 0.5
804 29 0.311026 0.448301 0.5
547 33 0.34399 0.439997 0.5
526 30 0.398615 0.441153 0.5
127 22 0.373773 0.427151 0.5
246 33 0.369496 0.459669 0.5
152 34 0.397476 0.475184 0.5
184 26 0.423129 0.424082 0.5
388 26 0.427324 0.456719 0.5
915 26 0.452841 0.437424 0.5
432 29 0.476123 0.415791 0.5
602 25 0.503899 0.427928 0.5
978 22 0.480679 0.447545 0.5
49 27 0.509281 0.459085 0.5
932 27 0.534522 0.409695 0.5
454 32 0.572171 0.417195 0.5
209 26 0.532217 0.439664 0.5
311 27 0.562293 0.448257 0.5
323 30 0.604848 0.411778 0.5
496 30 0.639468 0.410211 0.5
354 35 0.594292 0.445398 0.5
163 25 0.626014 0.437742 0.5
123 17 0.634422 0.462076 0.5
599 33 0.676491 0.410861 0.5
463 26 0.655815 0.438221 0.5
142 31 0.688596 0.444341 0.5
254 33 0.71182 0.419138 0.5
867 37 0.748596 0.43345 0.5
436 31 0.720931 0.453242 0.5
842 28 0.758708 0.467128 0.5
269 32 0.773569 0.407648 0.5
861 35 0.804432 0.418683 0.5
997 35 0.782706 0.443209 0.5
93 43 0.821007 0.45369 0.5
237 35 0.842163 0.419109 0.5
827 41 0.888184 0.419017 0.5
868 39 0.864291 0.448059 0.5
913 29 0.898073 0.454631 0.5
447 37 0.927547 0.430628 0.5
643 27 0.925639 0.464786 0.5
398 38 0.96445 0.416854 0.5
970 22 0.952333 0.454414 0.5
320 33 1.00107 0.425058 0.5
344 20 1.00679 0.454479 0.5
240 28 0.978922 0.44773 0.5
19 28 0.0660083 0.47747 0.5
205 27 0.0401637 0.501175 0.5
610 30 0.0136719 0.520604 0.5
359 34 0.00965565 0.486293 0.5
116 22 0.121158 0.468755 0.5
439 28 0.0711095 0.510608 0.5
399 34 0.0958794 0.48897 0.5
131 27 0.102119 0.52079 0.5
194 31 0.125117 0.49847 0.5
40 40 0.152957 0.481136 0.5
460 35 0.168252 0.513271 0.5
82 34 0.211837 0.473367 0.5
865 21 0.183249 0.484682 0.5
220 30 0.203483 0.50674 0.5
449 26 0.237649 0.50316 0.5
286 31 0.245716 0.471535 0.5
13 31 0.272738 0.494425 0.5
507 29 0.298913 0.515703 0.5
667 26 0.339287 0.472497 0.5
640 37 0.306605 0.482555 0.5
69 35 0.334048 0.506139 0.5
572 34 0.367143 0.493586 0.5
198 36 0.40039 0.509973 0.5
800 22 0.454188 0.46901 0.5
883 36 0.430989 0.489068 0.5
481 30 0.432676 0.52451 0.5
417 25 0.461297 0.502915 0.5
3 33 0.483989 0.479984 0.5
321 31 0.490662 0.51454 0.5
782 27 0.514133 0.494567 0.5
411 31 0.53761 0.471633 0.5
638 49 0.575473 0.483995 0.5
297 30 0.544328 0.50703 0.5
678 30 0.583332 0.521838 0.5
635 22 0.611161 0.474416 0.5
850 23 0.608267 0.5025 0.5
474 28 0.637032 0.491398 0.5
908 20 0.646536 0.520544 0.5
843 35 0.664114 0.469985 0.5
276 35 0.697536 0.479298 0.5
147 30 0.670628 0.502043 0.5
880 41 0.704317 0.515135 0.5
759 36 0.729839 0.487193 0.5
319 29 0.736196 0.522477 0.5
200 35 0.763409 0.50158 0.5
683 34 0.791033 0.478129 0.5
630 32 0.791386 0.51652 0.5
546 32 0.817006 0.497102 0.5
946 30 0.881865 0.479869 0.5
134 34 0.848146 0.481439 0.5
489 21 0.864622 0.507801 0.5
654 24 0.838929 0.519672 0.5
514 25 0.893015 0.513526 0.5
801 26 0.911604 0.491256 0.5
477 31 0.924723 0.521051 0.5
684 25 0.977925 0.477833 0.5
724 41 0.948366 0.494345 0.5
830 29 0.982711 0.508354 0.5
907 27 0.045753 0.531091 0.5
342 40 0.0175207 0.55587 0.5
160 29 0.0511797 0.563797 0.5
552 30 0.0780223 0.542096 0.5
351 31 0.0828309 0.573241 0.5
145 24 0.107756 0.551174 0.5
989 35 0.135971 0.530661 0.5
462 29 0.137132 0.564416 0.5
391 24 0.164501 0.550038 0.5
731 35 0.185378 0.578047 0.5
291 27 0.222003 0.529966 0.5
717 30 0.191214 0.538258 0.5
48 25 0.213875 0.560434 0.5
86 30 0.236015 0.58359 0.5
639 21 0.239901 0.552768 0.5
739 43 0.264149 0.529844 0.5
941 29 0.265421 0.567278 0.5
304 27 0.293723 0.549019 0.5
627 33 0.294566 0.585542 0.5
15 34 0.325644 0.538194 0.5
78 19 0.317161 0.56428 0.5
670 34 0.347207 0.566685 0.5
268 45 0.366279 0.533664 0.5
890 34 0.404099 0.546327 0.5
222 33 0.37918 0.569785 0.5
494 22 0.408905 0.577596 0.5
337 29 0.464951 0.535129 0.5
825 37 0.43869 0.557458 0.5
437 32 0.47063 0.569197 0.5
292 28 0.520354 0.527616 0.5
840 25 0.496328 0.548549 0.5
735 27 0.499786 0.584124 0.5
30 33 0.525419 0.560218 0.5
185 37 0.553581 0.540291 0.5
159 34 0.559649 0.575812 0.5
741 34 0.588659 0.553509 0.5
50 33 0.617442 0.531845 0.5
335 34 0.621557 0.568478 0.5
334 33 0.649959 0.551643 0.5
221 22 0.676421 0.534646 0.5
681 23 0.677508 0.566827 0.5
299 24 0.704139 0.549011 0.5
975 27 0.705113 0.579213 0.5
588 26 0.763552 0.536928 0.5
945 35 0.733504 0.553302 0.5
969 28 0.763977 0.568292 0.5
695 20 0.814137 0.536071 0.5
76 26 0.790388 0.551184 0.5
605 24 0.816206 0.565181 0.5
839 27 0.871629 0.535411 0.5
285 30 0.844225 0.550062 0.5
435 23 0.844442 0.581602 0.5
539 31 0.873506 0.568544 0.5
98 35 0.902255 0.546868 0.5
207 31 0.935114 0.553664 0.5
617 33 0.957941 0.529827 0.5
624 23 0.988608 0.538604 0.5
236 42 0.968481 0.564908 0.5
510 35 0.0290544 0.589767 0.5
647 30 0.0600998 0.59968 0.5
433 24 0.0359962 0.621783 0.5
567 29 0.114103 0.5825 0.5
352 27 0.0696879 0.628266 0.5
248 25 0.0930349 0.604738 0.5
255 29 0.100992 0.635442 0.5
339 36 0.153239 0.593154 0.5
419 33 0.123708 0.614203 0.5
197 29 0.153537 0.629489 0.5
554 29 0.182093 0.612755 0.5
218 22 0.208875 0.600098 0.5
387 29 0.209654 0.631189 0.5
330 27 0.236561 0.616666 0.5
53 35 0.265528 0.601238 0.5
535 24 0.263748 0.63372 0.5
99 25 0.325877 0.591134 0.5
316 39 0.300046 0.621535 0.5
509 26 0.33558 0.620111 0.5
863 26 0.391662 0.599506 0.5
937 32 0.358545 0.59956 0.5
773 20 0.378801 0.623349 0.5
362 32 0.412389 0.621275 0.5
370 37 0.43907 0.590831 0.5
59 23 0.475043 0.601408 0.5
192 36 0.447445 0.62504 0.5
979 35 0.531398 0.595327 0.5
453 25 0.505199 0.614931 0.5
817 36 0.480551 0.635835 0.5
373 35 0.536145 0.629535 0.5
195 37 0.592714 0.591871 0.5
520 32 0.564476 0.611337 0.5
420 34 0.566929 0.64659 0.5
810 31 0.594746 0.627615 0.5
774 34 0.626158 0.605446 0.5
669 41 0.628262 0.641623 0.5
570 34 0.652703 0.585511 0.5
919 23 0.681349 0.597659 0.5
746 24 0.65677 0.618033 0.5
243 33 0.684941 0.63304 0.5
183 28 0.709979 0.610541 0.5
858 33 0.735936 0.588431 0.5
483 28 0.767255 0.60065 0.5
501 34 0.744065 0.62216 0.5
612 27 0.792578 0.582351 0.5
726 29 0.820391 0.598663 0.5
314 32 0.775448 0.635341 0.5
718 19 0.794064 0.610856 0.5
583 24 0.80833 0.633532 0.5
88 42 0.843267 0.627076 0.5
878 32 0.869419 0.600984 0.5
780 29 0.878382 0.636725 0.5
992 37 0.907119 0.583038 0.5
747 23 0.940442 0.585358 0.5
149 27 0.89798 0.614364 0.5
238 24 0.916476 0.637123 0.5
146 24 0.928227 0.611862 0.5
468 27 0.995723 0.585093 0.5
697 37 0.95035 0.63512 0.5
987 35 1.00383 0.615231 0.5
261 38 0.969163 0.603282 0.5
894 27 0.0150776 0.645062 0.5
315 28 0.0450648 0.65075 0.5
223 18 0.0267238 0.672998 0.5
891 33 0.0507842 0.687003 0.5
466 44 0.0779057 0.662222 0.5
775 33 0.112339 0.673978 0.5
954 23 0.127218 0.646027 0.5
657 24 0.153036 0.658504 0.5
947 34 0.14527 0.689119 0.5
903 31 0.178122 0.679899 0.5
984 32 0.181247 0.646591 0.5
565 27 0.234628 0.647412 0.5
257 34 0.209862 0.666518 0.5
623 37 0.237859 0.689948 0.5
884 37 0.289019 0.656809 0.5
247 23 0.258545 0.663588 0.5
148 34 0.273697 0.690627 0.5
122 30 0.321748 0.64948 0.5
467 32 0.357098 0.644427 0.5
256 33 0.307776 0.683584 0.5
414 34 0.341459 0.675183 0.5
808 26 0.392582 0.645885 0.5
982 32 0.374971 0.674318 0.5
31 23 0.392045 0.701973 0.5
537 27 0.405602 0.674538 0.5
755 25 0.423137 0.649219 0.5
173 30 0.45518 0.65748 0.5
102 22 0.432734 0.676933 0.5
993 29 0.459019 0.69085 0.5
877 29 0.5112 0.652476 0.5
527 28 0.485488 0.671216 0.5
708 25 0.514694 0.687027 0.5
327 31 0.540873 0.666313 0.5
482 29 0.543813 0.698395 0.5
395 27 0.572959 0.677704 0.5
56 27 0.598524 0.661474 0.5
250 30 0.607477 0.690586 0.5
415 24 0.634357 0.674074 0.5
836 29 0.661837 0.656159 0.5
660 27 0.666906 0.687831 0.5
703 30 0.691559 0.667243 0.5
153 38 0.719338 0.644452 0.5
955 28 0.72193 0.67822 0.5
55 28 0.752034 0.695504 0.5
229 32 0.751753 0.66116 0.5
719 23 0.79457 0.659088 0.5
613 27 0.825163 0.661022 0.5
75 20 0.776724 0.680879 0.5
182 33 0.806808 0.68777 0.5
219 27 0.856942 0.661065 0.5
224 30 0.841099 0.689205 0.5
642 31 0.876737 0.688403 0.5
876 31 0.897326 0.662327 0.5
308 25 0.911547 0.691549 0.5
213 32 0.930537 0.66549 0.5
828 29 0.942482 0.694591 0.5
515 29 0.98306 0.640312 0.5
161 27 0.997776 0.671927 0.5
905 30 0.963599 0.66661 0.5
459 36 0.977425 0.699724 0.5
710 37 0.0170604 0.704 0.5
505 33 0.0538422 0.719754 0.5
743 33 0.0246069 0.737988 0.5
81 27 0.0832004 0.698776 0.5
290 31 0.111624 0.709069 0.5
67 30 0.0865268 0.731313 0.5
380 39 0.124326 0.748542 0.5
721 27 0.171715 0.711708 0.5
811 26 0.141335 0.718839 0.5
469 37 0.160892 0.745303 0.5
37 28 0.203399 0.702146 0.5
738 32 0.193984 0.734193 0.5
921 37 0.229905 0.724232 0.5
650 29 0.264545 0.723267 0.5
844 33 0.298459 0.715669 0.5
819 30 0.252949 0.752646 0.5
896 29 0.287477 0.748918 0.5
451 33 0.331806 0.710024 0.5
682 36 0.319409 0.743075 0.5
835 33 0.354204 0.736858 0.5
525 25 0.363664 0.705427 0.5
230 31 0.384478 0.729783 0.5
523 21 0.402443 0.75282 0.5
189 11 0.415483 0.732536 0.5
5 34 0.424314 0.705116 0.5
253 29 0.432287 0.753748 0.5
150 39 0.454018 0.726233 0.5
390 32 0.464306 0.761008 0.5
302 26 0.489209 0.702593 0.5
930 25 0.516371 0.717884 0.5
598 34 0.490182 0.735794 0.5
366 29 0.521304 0.748802 0.5
562 37 0.577632 0.709089 0.5
52 38 0.549141 0.732257 0.5
561 32 0.585245 0.74262 0.5
158 35 0.64001 0.705499 0.5
551 30 0.61058 0.724008 0.5
838 22 0.614779 0.757337 0.5
214 34 0.642422 0.740631 0.5
655 29 0.696946 0.698781 0.5
270 32 0.673138 0.721731 0.5
528 33 0.674828 0.755513 0.5
990 41 0.708166 0.736979 0.5
340 21 0.725562 0.707365 0.5
895 29 0.746932 0.728627 0.5
931 29 0.768369 0.751011 0.5
258 39 0.78087 0.714024 0.5
656 20 0.797301 0.74315 0.5
757 39 0.819788 0.720609 0.5
89 30 0.821979 0.757596 0.5
262 32 0.857908 0.716259 0.5
328 22 0.844042 0.74318 0.5
38 29 0.874911 0.746212 0.5
502 25 0.890581 0.716559 0.5
113 36 0.924093 0.723988 0.5
172 20 0.904015 0.749095 0.5
889 28 0.937685 0.752997 0.5
490 32 0.991132 0.73154 0.5
700 26 0.957476 0.728225 0.5
685 30 0.969655 0.756674 0.5
518 30 0.0607129 0.752651 0.5
498 29 0.0319708 0.770361 0.5
516 41 0.0167291 0.800688 0.5
215 27 0.050511 0.796831 0.5
24 29 0.0923428 0.761983 0.5
813 30 0.0822283 0.792786 0.5
694 31 0.104977 0.817943 0.5
461 33 0.115414 0.785386 0.5
860 30 0.181426 0.767876 0.5
455 31 0.147928 0.776575 0.5
180 33 0.139742 0.811549 0.5
227 32 0.172627 0.800985 0.5
754 31 0.218654 0.759801 0.5
659 35 0.207301 0.793163 0.5
852 34 0.241437 0.784267 0.5
374 35 0.276633 0.779671 0.5
14 28 0.264639 0.811577 0.5
58 27 0.297043 0.807815 0.5
831 29 0.340092 0.768048 0.5
473 31 0.308945 0.777667 0.5
900 24 0.328652 0.802133 0.5
592 24 0.356601 0.793825 0.5
763 34 0.374418 0.766338 0.5
961 30 0.411153 0.780903 0.5
57 33 0.386578 0.800775 0.5
629 25 0.416945 0.810995 0.5
752 26 0.441861 0.784672 0.5
898 28 0.446716 0.817411 0.5
16 32 0.471986 0.794204 0.5
444 34 0.497616 0.77069 0.5
582 28 0.504643 0.803928 0.5
355 31 0.529802 0.78195 0.5
926 34 0.534296 0.818049 0.5
107 29 0.558333 0.763418 0.5
824 32 0.587727 0.776061 0.5
591 25 0.559204 0.794241 0.5
484 34 0.587804 0.809799 0.5
241 33 0.646748 0.772726 0.5
558 32 0.618281 0.79206 0.5
768 31 0.648518 0.807935 0.5
689 30 0.703898 0.774051 0.5
332 26 0.675674 0.790176 0.5
922 37 0.704196 0.808018 0.5
378 32 0.736376 0.761619 0.5
924 25 0.735782 0.79333 0.5
68 32 0.761445 0.815362 0.5
622 28 0.765314 0.783938 0.5
139 29 0.794255 0.771949 0.5
396 31 0.793885 0.804552 0.5
34 31 0.823851 0.789028 0.5
143 30 0.852187 0.773424 0.5
33 30 0.883852 0.776472 0.5
943 45 0.859674 0.80883 0.5
538 34 0.917787 0.778295 0.5
873 32 0.900119 0.812156 0.5
350 15 0.927272 0.804588 0.5
712 29 0.947887 0.784227 0.5
513 27 1.00104 0.762252 0.5
846 34 0.982242 0.789683 0.5
487 30 0.0400457 0.828376 0.5
245 21 0.0284522 0.868818 0.5
66 32 0.0552901 0.856696 0.5
193 28 0.0706519 0.822862 0.5
298 39 0.0920704 0.850441 0.5
511 38 0.130867 0.84479 0.5
442 35 0.16479 0.83695 0.5
260 28 0.154981 0.871008 0.5
279 32 0.188158 0.866426 0.5
18 42 0.199023 0.828066 0.5
61 32 0.233044 0.818246 0.5
389 40 0.224336 0.854423 0.5
167 27 0.245977 0.877679 0.5
953 29 0.257615 0.844577 0.5
325 32 0.275889 0.873203 0.5
203 40 0.290422 0.837928 0.5
559 33 0.325658 0.834175 0.5
699 23 0.356574 0.823792 0.5
991 33 0.309393 0.869302 0.5
996 26 0.340091 0.865093 0.5
798 35 0.395682 0.834852 0.5
769 28 0.367493 0.850775 0.5
715 22 0.427319 0.839387 0.5
649 36 0.433268 0.871558 0.5
413 26 0.457313 0.846574 0.5
934 24 0.466763 0.873443 0.5
609 30 0.480858 0.825938 0.5
499 17 0.509219 0.829898 0.5
445 36 0.495262 0.858302 0.5
301 37 0.530615 0.853007 0.5
704 35 0.563386 0.836427 0.5
211 18 0.593523 0.83868 0.5
580 27 0.55399 0.875773 0.5
568 31 0.584456 0.865867 0.5
138 31 0.619609 0.824073 0.5
994 28 0.616426 0.857542 0.5
986 28 0.645309 0.842802 0.5
737 34 0.642249 0.87728 0.5
63 28 0.674925 0.826653 0.5
745 35 0.673875 0.861714 0.5
356 24 0.70281 0.842502 0.5
940 27 0.731822 0.829516 0.5
317 37 0.725095 0.863188 0.5
397 33 0.758394 0.848102 0.5
998 31 0.822593 0.820338 0.5
589 23 0.787631 0.833821 0.5
164 34 0.784326 0.867964 0.5
663 33 0.815903 0.852585 0.5
115 22 0.88251 0.837308 0.5
849 36 0.849502 0.844779 0.5
379 26 0.925971 0.832029 0.5
242 36 0.90688 0.860699 0.5
210 27 0.944548 0.854546 0.5
272 37 0.957075 0.818641 0.5
648 24 0.989881 0.820111 0.5
964 33 1.01102 0.843638 0.5
249 34 0.998261 0.876367 0.5
170 33 0.977057 0.848554 0.5
673 27 0.0484383 0.891119 0.5
851 31 0.0208006 0.901915 0.5
705 29 0.0422819 0.925062 0.5
369 35 0.00900742 0.934995 0.5
216 42 0.0810142 0.88465 0.5
823 28 0.116605 0.878555 0.5
28 27 0.0744953 0.918873 0.5
448 33 0.106758 0.910999 0.5
927 32 0.17562 0.896814 0.5
239 36 0.14037 0.903122 0.5
280 38 0.165257 0.931237 0.5
168 37 0.213707 0.892576 0.5
71 34 0.19828 0.923668 0.5
169 20 0.228929 0.921323 0.5
577 37 0.258107 0.909874 0.5
621 27 0.28369 0.934837 0.5
847 38 0.295432 0.902516 0.5
181 32 0.33121 0.89601 0.5
646 27 0.318959 0.927704 0.5
841 31 0.352399 0.917795 0.5
701 38 0.394986 0.871273 0.5
409 30 0.363179 0.886092 0.5
671 25 0.383172 0.908359 0.5
493 24 0.407419 0.935306 0.5
492 40 0.415814 0.903272 0.5
536 27 0.451935 0.899159 0.5
358 28 0.440691 0.928275 0.5
871 28 0.475426 0.920114 0.5
372 26 0.520909 0.884528 0.5
104 25 0.490403 0.89077 0.5
788 34 0.512456 0.917051 0.5
425 32 0.546609 0.905197 0.5
178 22 0.569754 0.92728 0.5
305 29 0.578286 0.897686 0.5
208 32 0.610649 0.88956 0.5
677 39 0.63322 0.914029 0.5
749 28 0.600092 0.926 0.5
832 42 0.699283 0.890633 0.5
797 31 0.665257 0.898946 0.5
963 26 0.686604 0.920929 0.5
27 33 0.658169 0.937105 0.5
456 31 0.754411 0.884157 0.5
106 19 0.731367 0.900122 0.5
779 38 0.719213 0.930801 0.5
569 33 0.75461 0.919787 0.5
806 27 0.813443 0.884669 0.5
393 39 0.786118 0.903919 0.5
733 38 0.823923 0.914142 0.5
377 27 0.874148 0.87082 0.5
644 30 0.844577 0.879999 0.5
976 22 0.8682 0.89931 0.5
855 31 0.888611 0.924368 0.5
920 28 0.931803 0.88299 0.5
155 30 0.898444 0.893008 0.5
80 29 0.919408 0.917243 0.5
596 27 0.965804 0.878773 0.5
766 28 0.987025 0.907381 0.5
939 38 0.952876 0.909617 0.5
736 25 0.0651183 0.948398 0.5
886 28 0.0330268 0.958429 0.5
130 28 0.0545058 0.979219 0.5
124 27 0.0951688 0.94402 0.5
427 31 0.0850521 0.973169 0.5
517 37 0.120247 0.972064 0.5
837 33 0.127185 0.938155 0.5
597 24 0.1484 0.990997 0.5
608 29 0.155743 0.962293 0.5
856 27 0.177341 0.986017 0.5
385 32 0.220214 0.950349 0.5
809 27 0.187933 0.957855 0.5
429 27 0.20957 0.980243 0.5
756 28 0.241844 0.975338 0.5
274 27 0.253153 0.944644 0.5
935 25 0.262367 0.998818 0.5
263 29 0.274181 0.968506 0.5
651 24 0.295699 0.991491 0.5
753 32 0.342908 0.951566 0.5
949 34 0.329828 0.98304 0.5
400 35 0.308571 0.958829 0.5
430 33 0.376542 0.941807 0.5
144 34 0.365209 0.977959 0.5
114 25 0.396565 0.966365 0.5
90 40 0.418808 0.992388 0.5
761 29 0.462955 0.950605 0.5
174 31 0.42676 0.959415 0.5
957 36 0.451991 0.983486 0.5
452 33 0.498022 0.944569 0.5
845 27 0.540532 0.936078 0.5
637 28 0.485658 0.975992 0.5
795 36 0.522603 0.96605 0.5
408 27 0.593949 0.955003 0.5
799 27 0.54221 0.990902 0.5
912 39 0.561411 0.962949 0.5
44 33 0.585424 0.989176 0.5
742 31 0.626 0.947482 0.5
265 42 0.621093 0.981929 0.5
540 35 0.654823 0.971236 0.5
676 31 0.682578 0.989428 0.5
874 38 0.68815 0.954209 0.5
312 39 0.716426 0.972291 0.5
859 40 0.746285 0.993947 0.5
857 40 0.751368 0.955972 0.5
571 44 0.791108 0.943599 0.5
653 24 0.828783 0.946769 0.5
382 38 0.780396 0.984172 0.5
611 37 0.814375 0.976883 0.5
933 29 0.85383 0.928754 0.5
346 29 0.848551 0.972364 0.5
762 33 0.874449 0.993108 0.5
310 33 0.877435 0.954299 0.5
938 22 0.942843 0.940541 0.5
751 24 0.912025 0.946043 0.5
672 31 0.901859 0.975934 0.5
614 29 0.933435 0.968701 0.5
923 34 0.974735 0.939443 0.5
770 42 0.998609 0.970936 0.5
488 25 0.963525 0.968959 0.5
