ITEM: TIMESTEP
2250000
ITEM: NUMBER OF ATOMS
1000
ITEM: BOX BOUNDS pp pp pp
-1.5987059000000000e+01 1.5987059000000000e+01
-1.5987059000000000e+01 1.5987059000000000e+01
-5.0000000000000000e-01 5.0000000000000000e-01
ITEM: ATOMS id type xs ys zs
889 28 0.0299596 0.0278897 0.5
172 20 -0.00252705 0.0240755 0.5
712 29 0.038707 0.0593026 0.5
538 34 0.0065666 0.0526698 0.5
685 30 0.0616474 0.0335559 0.5
490 32 0.0829412 0.00856253 0.5
513 27 0.0929882 0.0415759 0.5
743 33 0.117792 0.0146644 0.5
518 30 0.150753 0.0302076 0.5
498 29 0.123991 0.046915 0.5
67 30 0.179841 0.00536086 0.5
24 29 0.18187 0.0375812 0.5
380 39 0.214103 0.0218182 0.5
461 33 0.206361 0.0589586 0.5
469 37 0.251146 0.019333 0.5
738 32 0.28478 0.00883681 0.5
860 30 0.276435 0.041599 0.5
455 31 0.239021 0.0521736 0.5
754 31 0.308682 0.0327588 0.5
819 30 0.342448 0.0253167 0.5
852 34 0.333063 0.0582088 0.5
896 29 0.37652 0.0194321 0.5
374 35 0.365788 0.0503156 0.5
473 31 0.399945 0.0484276 0.5
682 36 0.411424 0.0170475 0.5
835 33 0.44631 0.0132749 0.5
831 29 0.430933 0.044297 0.5
763 34 0.466048 0.0442555 0.5
189 11 0.504709 0.00742339 0.5
523 21 0.492331 0.0271674 0.5
253 29 0.521984 0.0278435 0.5
961 30 0.499412 0.0552117 0.5
390 32 0.554334 0.0342407 0.5
598 34 0.579996 0.00928117 0.5
752 26 0.530162 0.0590532 0.5
444 34 0.58731 0.0430925 0.5
366 29 0.612033 0.0221436 0.5
355 31 0.619891 0.0566576 0.5
107 29 0.646004 0.0386628 0.5
561 32 0.674876 0.0182654 0.5
824 32 0.677628 0.0499473 0.5
838 22 0.705299 0.0345864 0.5
214 34 0.734708 0.0174062 0.5
241 33 0.737824 0.0506386 0.5
528 33 0.767483 0.0330366 0.5
990 41 0.798179 0.013298 0.5
689 30 0.798552 0.0508789 0.5
378 32 0.829476 0.0355002 0.5
931 29 0.862175 0.0247277 0.5
622 28 0.855121 0.0567254 0.5
656 20 0.88917 0.0163901 0.5
89 30 0.913808 0.0325885 0.5
139 29 0.885801 0.0465512 0.5
34 31 0.913791 0.0648831 0.5
328 22 0.939846 0.0188133 0.5
38 29 0.968459 0.0198652 0.5
143 30 0.941052 0.0479806 0.5
33 30 0.972577 0.0544889 0.5
350 15 0.0197027 0.0794618 0.5
272 37 0.0465264 0.0945714 0.5
379 26 0.0129179 0.105269 0.5
846 34 0.0711004 0.0665647 0.5
648 24 0.0801577 0.0969944 0.5
516 41 0.106585 0.077955 0.5
964 33 0.10181 0.12056 0.5
215 27 0.140659 0.0726294 0.5
813 30 0.17173 0.0667567 0.5
487 30 0.13105 0.104413 0.5
193 28 0.162031 0.0968101 0.5
694 31 0.195017 0.0902119 0.5
180 33 0.229803 0.0845289 0.5
511 38 0.217871 0.11844 0.5
227 32 0.26355 0.0750282 0.5
18 42 0.288594 0.101538 0.5
442 35 0.252917 0.111319 0.5
659 35 0.29819 0.0660833 0.5
61 32 0.324283 0.0911881 0.5
14 28 0.355699 0.0838367 0.5
58 27 0.386205 0.0769147 0.5
953 29 0.347919 0.116933 0.5
203 40 0.381811 0.110517 0.5
900 24 0.417188 0.0756532 0.5
592 24 0.445417 0.0698402 0.5
699 23 0.449167 0.0984773 0.5
559 33 0.418069 0.107462 0.5
57 33 0.476319 0.0795404 0.5
629 25 0.509514 0.0849367 0.5
798 35 0.489844 0.111319 0.5
715 22 0.521507 0.111716 0.5
16 32 0.561229 0.0659 0.5
898 28 0.539273 0.0892589 0.5
609 30 0.571541 0.0977755 0.5
413 26 0.549666 0.118173 0.5
582 28 0.594277 0.0770568 0.5
926 34 0.625604 0.090015 0.5
499 17 0.599556 0.103768 0.5
591 25 0.651143 0.0678368 0.5
484 34 0.678117 0.0841756 0.5
704 35 0.654308 0.110839 0.5
211 18 0.684109 0.11265 0.5
558 32 0.708117 0.0650538 0.5
768 31 0.740094 0.0857599 0.5
138 31 0.709631 0.0994692 0.5
986 28 0.735978 0.118319 0.5
63 28 0.765914 0.103711 0.5
332 26 0.767088 0.0658026 0.5
922 37 0.795923 0.0858423 0.5
356 24 0.7919 0.119872 0.5
924 25 0.826266 0.0687645 0.5
68 32 0.852433 0.0877371 0.5
940 27 0.824376 0.10289 0.5
396 31 0.884362 0.078906 0.5
998 31 0.912803 0.0976199 0.5
589 23 0.883043 0.110198 0.5
943 45 0.9492 0.0840256 0.5
873 32 0.988406 0.0833231 0.5
849 36 0.947675 0.122797 0.5
115 22 0.976872 0.111491 0.5
210 27 0.0314384 0.129987 0.5
596 27 0.0538005 0.153891 0.5
920 28 0.0222195 0.161543 0.5
242 36 -0.000601618 0.134899 0.5
170 33 0.0665207 0.125147 0.5
249 34 0.0871897 0.15425 0.5
851 31 0.11104 0.177241 0.5
245 21 0.117885 0.147647 0.5
66 32 0.145224 0.134744 0.5
673 27 0.141203 0.167628 0.5
216 42 0.174379 0.160535 0.5
298 39 0.180964 0.124191 0.5
823 28 0.209087 0.152382 0.5
239 36 0.232935 0.175046 0.5
260 28 0.245083 0.143613 0.5
279 32 0.277187 0.137255 0.5
927 32 0.268093 0.169957 0.5
389 40 0.315053 0.128449 0.5
168 37 0.30385 0.162694 0.5
167 27 0.336728 0.155264 0.5
325 32 0.367183 0.145681 0.5
991 33 0.401429 0.141066 0.5
847 38 0.388626 0.175826 0.5
996 26 0.432475 0.136333 0.5
769 28 0.460381 0.126458 0.5
409 30 0.45496 0.160241 0.5
181 32 0.422872 0.167914 0.5
701 38 0.487643 0.147312 0.5
649 36 0.52339 0.142324 0.5
934 24 0.555172 0.146934 0.5
536 27 0.546757 0.174468 0.5
104 25 0.577773 0.164572 0.5
445 36 0.583563 0.131077 0.5
301 37 0.621347 0.125183 0.5
372 26 0.608071 0.156697 0.5
580 27 0.642441 0.149705 0.5
568 31 0.672827 0.140831 0.5
208 32 0.696818 0.162701 0.5
305 29 0.664713 0.172898 0.5
994 28 0.704821 0.130797 0.5
737 34 0.730332 0.150873 0.5
797 31 0.755901 0.17264 0.5
745 35 0.763139 0.138643 0.5
832 42 0.791787 0.163615 0.5
317 37 0.821092 0.137381 0.5
397 33 0.853062 0.121093 0.5
164 34 0.880532 0.141652 0.5
456 31 0.850277 0.156853 0.5
106 19 0.823724 0.168409 0.5
663 33 0.913587 0.129767 0.5
806 27 0.906237 0.161318 0.5
644 30 0.937336 0.157509 0.5
393 39 0.878549 0.178987 0.5
377 27 0.967568 0.149825 0.5
155 30 0.991851 0.168843 0.5
976 22 0.958201 0.180018 0.5
939 38 0.0461707 0.186152 0.5
80 29 0.0123343 0.193097 0.5
938 22 0.0324308 0.214871 0.5
751 24 0.00552067 0.224331 0.5
766 28 0.0796572 0.187267 0.5
369 35 0.101434 0.211168 0.5
923 34 0.0645223 0.219509 0.5
705 29 0.134479 0.200654 0.5
28 27 0.166632 0.194551 0.5
886 28 0.126832 0.231421 0.5
736 25 0.156436 0.224011 0.5
448 33 0.200346 0.18633 0.5
124 27 0.189505 0.216752 0.5
837 33 0.222576 0.212572 0.5
280 38 0.257881 0.202794 0.5
71 34 0.292444 0.196557 0.5
608 29 0.247393 0.236279 0.5
809 27 0.280166 0.228752 0.5
169 20 0.322167 0.190408 0.5
385 32 0.313867 0.22126 0.5
274 27 0.345628 0.216973 0.5
577 37 0.352957 0.184311 0.5
621 27 0.377799 0.207924 0.5
400 35 0.40178 0.230809 0.5
646 27 0.413682 0.199623 0.5
841 31 0.446644 0.191646 0.5
753 32 0.435311 0.22385 0.5
430 33 0.471945 0.215098 0.5
671 25 0.478004 0.183042 0.5
492 40 0.511072 0.177701 0.5
493 24 0.504261 0.210325 0.5
174 31 0.525987 0.232942 0.5
358 28 0.537444 0.203366 0.5
871 28 0.568526 0.196642 0.5
761 29 0.559029 0.22751 0.5
788 34 0.60004 0.187945 0.5
425 32 0.632942 0.179277 0.5
845 27 0.625176 0.21014 0.5
452 33 0.591558 0.220574 0.5
178 22 0.659428 0.201463 0.5
749 28 0.688678 0.195427 0.5
912 39 0.652781 0.232677 0.5
408 27 0.686466 0.22884 0.5
677 39 0.721393 0.186601 0.5
27 33 0.749235 0.207808 0.5
742 31 0.717712 0.221569 0.5
963 26 0.777487 0.194207 0.5
779 38 0.810571 0.203923 0.5
874 38 0.779888 0.228088 0.5
569 33 0.844112 0.191106 0.5
857 40 0.84679 0.227651 0.5
733 38 0.922479 0.19051 0.5
571 44 0.887677 0.217635 0.5
653 24 0.921364 0.222819 0.5
855 31 0.980352 0.200422 0.5
933 29 0.949629 0.211761 0.5
310 33 0.974437 0.233576 0.5
614 29 0.0312388 0.244325 0.5
881 26 0.025555 0.274793 0.5
983 32 0.0555612 0.28104 0.5
672 31 0.00103499 0.25544 0.5
488 25 0.0603288 0.250222 0.5
770 42 0.0944886 0.248144 0.5
367 27 0.0870562 0.282398 0.5
130 28 0.147521 0.254828 0.5
202 39 0.120718 0.276806 0.5
936 24 0.153475 0.283426 0.5
427 31 0.177654 0.246885 0.5
517 37 0.212877 0.247953 0.5
171 34 0.183592 0.279895 0.5
995 25 0.21516 0.280085 0.5
597 24 0.241151 0.26511 0.5
856 27 0.270239 0.257753 0.5
403 25 0.261034 0.285822 0.5
162 32 0.291351 0.282823 0.5
429 27 0.302825 0.251022 0.5
756 28 0.33586 0.246376 0.5
54 29 0.321854 0.276034 0.5
935 25 0.355288 0.270424 0.5
263 29 0.367847 0.241896 0.5
651 24 0.391781 0.263119 0.5
785 33 0.378225 0.293999 0.5
949 34 0.426062 0.255958 0.5
144 34 0.461379 0.249538 0.5
802 35 0.413328 0.288525 0.5
464 30 0.447832 0.282653 0.5
114 25 0.495099 0.23871 0.5
90 40 0.512836 0.266596 0.5
368 33 0.480559 0.285268 0.5
957 36 0.549159 0.260508 0.5
637 28 0.58296 0.252641 0.5
434 24 0.543348 0.291858 0.5
950 32 0.574144 0.284137 0.5
795 36 0.617939 0.243413 0.5
799 27 0.642205 0.267919 0.5
485 35 0.607651 0.276823 0.5
44 33 0.675924 0.260821 0.5
402 38 0.666801 0.294376 0.5
540 35 0.745279 0.24286 0.5
265 42 0.712467 0.260387 0.5
679 43 0.705164 0.30007 0.5
136 38 0.741568 0.28703 0.5
676 31 0.772773 0.263203 0.5
312 39 0.81255 0.242082 0.5
307 33 0.802306 0.278007 0.5
360 16 0.775107 0.291088 0.5
859 40 0.837963 0.268394 0.5
382 38 0.873032 0.255425 0.5
661 30 0.864054 0.292612 0.5
611 37 0.909625 0.254269 0.5
901 37 0.935933 0.279843 0.5
365 27 0.894329 0.283367 0.5
346 29 0.94304 0.244294 0.5
762 33 0.968497 0.266425 0.5
252 36 0.995149 0.293352 0.5
574 21 0.962545 0.295841 0.5
2 28 0.0323606 0.303348 0.5
662 32 0.00970892 0.326372 0.5
729 22 0.0429072 0.331382 0.5
199 37 0.0688014 0.312588 0.5
428 28 0.103087 0.308975 0.5
233 27 0.0882045 0.340173 0.5
313 33 0.0603029 0.357175 0.5
120 30 0.136577 0.308931 0.5
87 28 0.170002 0.310462 0.5
345 32 0.120281 0.338559 0.5
628 31 0.153447 0.338362 0.5
848 28 0.201162 0.308615 0.5
132 31 0.187131 0.339442 0.5
902 30 0.219293 0.339716 0.5
376 41 0.235369 0.308209 0.5
458 37 0.273755 0.31766 0.5
564 26 0.249762 0.339235 0.5
140 30 0.309987 0.309781 0.5
728 34 0.342662 0.301686 0.5
834 31 0.331782 0.334266 0.5
96 30 0.299002 0.341285 0.5
740 34 0.36589 0.327386 0.5
977 36 0.400734 0.321317 0.5
914 25 0.434036 0.315833 0.5
476 21 0.461705 0.308544 0.5
645 33 0.456703 0.340403 0.5
607 38 0.422947 0.348715 0.5
944 29 0.514437 0.301066 0.5
457 38 0.48947 0.325313 0.5
424 22 0.535059 0.32052 0.5
508 27 0.564902 0.313626 0.5
666 33 0.585787 0.338754 0.5
497 32 0.553755 0.34564 0.5
103 33 0.632501 0.300509 0.5
603 29 0.596927 0.307344 0.5
121 32 0.61991 0.332431 0.5
91 24 0.652318 0.325561 0.5
988 18 0.679502 0.322671 0.5
225 35 0.673191 0.350839 0.5
329 34 0.705891 0.338889 0.5
277 26 0.733762 0.323831 0.5
217 32 0.760997 0.351602 0.5
521 32 0.763587 0.316973 0.5
416 34 0.79661 0.312222 0.5
443 28 0.792384 0.345782 0.5
264 31 0.822355 0.335077 0.5
615 28 0.828403 0.302832 0.5
141 33 0.85327 0.32492 0.5
363 25 0.844404 0.358732 0.5
353 29 0.916388 0.305722 0.5
803 31 0.886159 0.31644 0.5
557 38 0.878586 0.350102 0.5
283 37 0.915675 0.339587 0.5
544 28 0.944959 0.320088 0.5
244 29 0.976536 0.322891 0.5
618 36 0.989935 0.354845 0.5
97 22 0.958644 0.347233 0.5
548 37 0.0247787 0.358366 0.5
85 22 0.0379776 0.38634 0.5
545 39 0.00367308 0.389708 0.5
698 20 0.0255543 0.412117 0.5
259 19 0.104937 0.363921 0.5
929 34 0.080809 0.383832 0.5
917 39 0.116126 0.394003 0.5
288 36 0.057604 0.41161 0.5
405 28 0.136171 0.366718 0.5
706 32 0.169614 0.367624 0.5
26 40 0.152614 0.398646 0.5
555 30 0.20372 0.368705 0.5
967 24 0.18552 0.395777 0.5
815 30 0.214887 0.400085 0.5
273 28 0.271939 0.36065 0.5
293 36 0.237666 0.372558 0.5
532 28 0.266845 0.391267 0.5
783 26 0.243763 0.412383 0.5
888 28 0.320855 0.36533 0.5
331 26 0.294718 0.38074 0.5
201 34 0.334799 0.394525 0.5
36 37 0.304175 0.412765 0.5
361 33 0.352829 0.360437 0.5
73 31 0.386261 0.354832 0.5
357 37 0.370491 0.390021 0.5
707 46 0.409778 0.385819 0.5
175 44 0.451041 0.379671 0.5
893 30 0.434334 0.413827 0.5
734 32 0.482995 0.36027 0.5
440 40 0.519382 0.351979 0.5
348 27 0.487826 0.391128 0.5
21 31 0.519393 0.391181 0.5
72 25 0.574594 0.36986 0.5
581 23 0.54719 0.377211 0.5
4 33 0.558872 0.407387 0.5
566 31 0.606987 0.364375 0.5
744 33 0.639909 0.358112 0.5
500 42 0.593751 0.397779 0.5
421 34 0.629562 0.392528 0.5
658 36 0.662882 0.386422 0.5
383 36 0.696512 0.375743 0.5
426 22 0.651307 0.416253 0.5
887 33 0.688568 0.409951 0.5
251 32 0.729918 0.365069 0.5
529 28 0.753023 0.387713 0.5
176 33 0.722152 0.398512 0.5
12 35 0.785017 0.378357 0.5
156 24 0.817525 0.36731 0.5
17 27 0.777395 0.410824 0.5
100 33 0.809717 0.403818 0.5
519 23 0.836787 0.389274 0.5
530 29 0.866644 0.381834 0.5
471 24 0.856052 0.411231 0.5
652 42 0.903847 0.377831 0.5
723 28 0.936287 0.365763 0.5
165 22 0.883954 0.405722 0.5
326 44 0.936069 0.403051 0.5
776 31 0.966258 0.379189 0.5
6 13 0.978859 0.404392 0.5
973 21 0.0368986 0.436154 0.5
196 31 0.013489 0.45573 0.5
41 31 -0.00153755 0.425349 0.5
686 30 0.0465482 0.466411 0.5
951 29 0.0913773 0.41755 0.5
716 30 0.0683706 0.444037 0.5
84 27 0.0990404 0.45008 0.5
787 26 0.120968 0.427514 0.5
720 28 0.151623 0.432765 0.5
792 31 0.131762 0.457312 0.5
897 31 0.166278 0.462597 0.5
687 33 0.183422 0.427679 0.5
750 33 0.21869 0.434029 0.5
111 28 0.197543 0.459168 0.5
179 31 0.229271 0.466246 0.5
303 28 0.272732 0.423987 0.5
636 22 0.249033 0.442224 0.5
882 36 0.265164 0.469025 0.5
794 31 0.297873 0.447486 0.5
966 24 0.327751 0.43614 0.5
885 24 0.32316 0.464599 0.5
875 34 0.356931 0.423345 0.5
491 29 0.390607 0.418374 0.5
232 27 0.381363 0.447359 0.5
556 29 0.351623 0.456359 0.5
77 19 0.402538 0.466713 0.5
275 32 0.416804 0.44125 0.5
549 30 0.449606 0.444686 0.5
664 32 0.43246 0.472758 0.5
105 31 0.466944 0.415913 0.5
333 30 0.500439 0.419465 0.5
674 27 0.482239 0.4459 0.5
587 36 0.51595 0.449328 0.5
593 24 0.530787 0.420879 0.5
665 42 0.554427 0.447075 0.5
94 24 0.584626 0.462827 0.5
730 32 0.589398 0.432497 0.5
531 26 0.619659 0.423901 0.5
278 33 0.641845 0.446681 0.5
112 25 0.612482 0.455757 0.5
70 27 0.671967 0.437283 0.5
952 34 0.699234 0.457094 0.5
727 36 0.666491 0.471478 0.5
166 30 0.747015 0.420878 0.5
267 26 0.713942 0.429127 0.5
821 26 0.736448 0.450291 0.5
980 28 0.766856 0.445433 0.5
478 29 0.796698 0.435377 0.5
578 29 0.785693 0.469248 0.5
606 34 0.817346 0.462148 0.5
553 32 0.830794 0.429875 0.5
375 30 0.876545 0.434358 0.5
418 34 0.852619 0.455527 0.5
829 24 0.906132 0.423743 0.5
177 24 0.930898 0.43723 0.5
364 33 0.901964 0.455149 0.5
438 27 0.929079 0.471998 0.5
879 34 0.964225 0.427696 0.5
188 31 0.980163 0.457569 0.5
971 19 0.950449 0.454499 0.5
764 37 0.0242369 0.491775 0.5
862 24 0.0344992 0.521634 0.5
959 27 0.00346183 0.519162 0.5
512 31 0.0581251 0.498019 0.5
781 29 0.0776324 0.474171 0.5
336 36 0.110042 0.483429 0.5
777 26 0.0892586 0.509124 0.5
154 28 0.120193 0.514486 0.5
812 27 0.143828 0.486778 0.5
972 29 0.152529 0.518246 0.5
542 32 0.175982 0.49448 0.5
407 26 0.207849 0.489226 0.5
524 34 0.18645 0.526431 0.5
8 25 0.218262 0.518201 0.5
51 31 0.241381 0.496281 0.5
586 43 0.276954 0.505613 0.5
475 26 0.24575 0.52821 0.5
668 22 0.296608 0.478 0.5
616 29 0.313533 0.500626 0.5
928 33 0.344416 0.489637 0.5
690 26 0.337637 0.521311 0.5
709 30 0.305217 0.532722 0.5
228 27 0.376159 0.478533 0.5
563 36 0.371944 0.513488 0.5
384 43 0.407297 0.499874 0.5
765 23 0.442225 0.502377 0.5
958 22 0.431374 0.531944 0.5
306 27 0.461495 0.526074 0.5
504 40 0.467148 0.47733 0.5
296 30 0.503562 0.479262 0.5
692 28 0.48524 0.506917 0.5
626 35 0.52014 0.510379 0.5
864 24 0.535169 0.478809 0.5
446 28 0.56472 0.48546 0.5
560 28 0.553636 0.514099 0.5
431 31 0.601366 0.486261 0.5
206 32 0.633678 0.480293 0.5
101 27 0.621749 0.511521 0.5
133 32 0.58598 0.515285 0.5
47 31 0.655209 0.509224 0.5
9 27 0.692653 0.490152 0.5
892 22 0.684459 0.518248 0.5
309 34 0.724535 0.480216 0.5
23 27 0.74568 0.506119 0.5
590 24 0.756813 0.478052 0.5
866 28 0.71457 0.511544 0.5
805 27 0.77632 0.501914 0.5
625 32 0.807964 0.496572 0.5
981 29 0.765662 0.531799 0.5
39 26 0.79542 0.525639 0.5
999 37 0.842457 0.488852 0.5
632 30 0.871621 0.507976 0.5
974 25 0.875849 0.475809 0.5
282 27 0.842289 0.523429 0.5
911 29 0.903359 0.488879 0.5
533 35 0.933151 0.505876 0.5
343 34 0.901499 0.523724 0.5
480 25 0.991867 0.489324 0.5
191 37 0.960202 0.484673 0.5
960 41 0.967886 0.521676 0.5
962 48 0.026076 0.556184 0.5
789 28 0.0523238 0.582177 0.5
190 40 0.0658321 0.534942 0.5
60 26 0.100011 0.539006 0.5
713 37 0.0824098 0.568355 0.5
793 28 0.116695 0.569253 0.5
631 30 0.132652 0.543043 0.5
925 22 0.161786 0.546805 0.5
472 26 0.14828 0.571797 0.5
833 33 0.212547 0.549839 0.5
410 41 0.184014 0.573443 0.5
186 32 0.22126 0.584702 0.5
693 28 0.273628 0.541345 0.5
714 29 0.244102 0.559905 0.5
550 24 0.27152 0.569674 0.5
92 27 0.299893 0.563473 0.5
786 39 0.332417 0.554722 0.5
702 27 0.3219 0.588126 0.5
11 38 0.399664 0.537997 0.5
412 29 0.364598 0.545564 0.5
423 34 0.386596 0.571044 0.5
965 29 0.355281 0.580547 0.5
62 28 0.422674 0.5634 0.5
128 31 0.455408 0.555511 0.5
79 38 0.445247 0.59107 0.5
347 45 0.493939 0.543052 0.5
767 40 0.48149 0.580547 0.5
324 39 0.517818 0.578228 0.5
349 41 0.534936 0.543724 0.5
406 30 0.570959 0.544068 0.5
814 31 0.555581 0.572872 0.5
820 29 0.587744 0.571648 0.5
771 25 0.606486 0.539804 0.5
910 30 0.637622 0.537974 0.5
619 32 0.620161 0.568787 0.5
289 22 0.668793 0.541021 0.5
404 31 0.688105 0.569371 0.5
157 32 0.654425 0.568603 0.5
688 26 0.702419 0.540471 0.5
381 32 0.734197 0.536323 0.5
338 28 0.754841 0.562207 0.5
816 32 0.721933 0.567168 0.5
318 36 0.788269 0.558443 0.5
778 24 0.820216 0.542105 0.5
137 33 0.817971 0.576551 0.5
575 33 0.872115 0.542026 0.5
916 25 0.844889 0.55968 0.5
633 30 0.871883 0.575797 0.5
341 25 0.844688 0.59325 0.5
585 32 0.901009 0.558881 0.5
822 35 0.933468 0.541252 0.5
110 30 0.929613 0.57471 0.5
271 30 0.899572 0.592642 0.5
807 22 0.992172 0.546575 0.5
503 38 0.963707 0.562072 0.5
135 29 0.994782 0.579246 0.5
601 31 0.0235588 0.59613 0.5
854 28 0.0474603 0.617658 0.5
906 39 0.018715 0.635836 0.5
790 32 0.0537692 0.651286 0.5
95 32 0.0774752 0.602605 0.5
579 27 0.107577 0.615323 0.5
791 26 0.0808019 0.634584 0.5
680 29 0.110925 0.646466 0.5
212 24 0.129431 0.594996 0.5
422 30 0.160133 0.600606 0.5
234 34 0.137369 0.625421 0.5
641 29 0.169093 0.632561 0.5
748 35 0.194121 0.610375 0.5
129 37 0.227952 0.622556 0.5
441 30 0.198176 0.643888 0.5
872 39 0.255634 0.596978 0.5
541 33 0.280591 0.622963 0.5
826 30 0.256269 0.644261 0.5
620 27 0.291018 0.593105 0.5
796 26 0.312407 0.618703 0.5
65 31 0.343861 0.611452 0.5
7 35 0.33286 0.644262 0.5
956 33 0.376533 0.604867 0.5
506 37 0.403808 0.628802 0.5
10 29 0.366335 0.636441 0.5
20 35 0.41029 0.594803 0.5
371 29 0.437985 0.626479 0.5
45 28 0.463702 0.648741 0.5
948 37 0.472607 0.616059 0.5
479 20 0.508859 0.610082 0.5
25 33 0.496925 0.641137 0.5
732 28 0.52919 0.631717 0.5
394 29 0.542132 0.602556 0.5
108 33 0.575361 0.602722 0.5
758 21 0.557379 0.628741 0.5
281 25 0.60584 0.598323 0.5
899 22 0.621879 0.623705 0.5
83 31 0.636392 0.596901 0.5
42 41 0.59065 0.637199 0.5
46 34 0.670319 0.601265 0.5
711 34 0.651688 0.631832 0.5
1000 36 0.689316 0.631012 0.5
522 36 0.70727 0.599039 0.5
43 35 0.74256 0.594626 0.5
904 34 0.726714 0.627634 0.5
772 33 0.761667 0.623818 0.5
35 38 0.783206 0.594806 0.5
784 28 0.816508 0.609022 0.5
584 25 0.79509 0.630696 0.5
853 18 0.842682 0.619915 0.5
295 33 0.872411 0.611682 0.5
760 26 0.824309 0.639895 0.5
968 38 0.858958 0.647379 0.5
818 25 0.926473 0.604626 0.5
918 40 0.903695 0.629529 0.5
725 39 0.94244 0.634382 0.5
696 27 0.996324 0.610653 0.5
109 43 0.962557 0.600595 0.5
294 29 0.976169 0.637684 0.5
187 33 0.0265184 0.672427 0.5
447 37 0.014049 0.705752 0.5
398 38 0.0557494 0.691864 0.5
600 36 0.084186 0.667406 0.5
401 24 0.115835 0.678417 0.5
320 33 0.0929002 0.701222 0.5
465 27 0.138964 0.659001 0.5
534 34 0.17137 0.665726 0.5
1 25 0.145778 0.688327 0.5
450 23 0.124037 0.707303 0.5
543 34 0.203124 0.677614 0.5
985 24 0.228286 0.65491 0.5
22 34 0.176619 0.699877 0.5
204 34 0.236827 0.685867 0.5
576 33 0.26849 0.674093 0.5
942 25 0.277728 0.705565 0.5
634 17 0.295677 0.685702 0.5
151 38 0.298764 0.653893 0.5
235 36 0.323808 0.680481 0.5
226 31 0.356376 0.669723 0.5
486 38 0.39068 0.661781 0.5
126 32 0.380983 0.697341 0.5
386 37 0.41484 0.688003 0.5
470 29 0.425179 0.655721 0.5
117 31 0.450283 0.678028 0.5
266 35 0.486687 0.67647 0.5
595 36 0.523814 0.666553 0.5
127 22 0.467183 0.702819 0.5
184 26 0.520228 0.699218 0.5
691 39 0.55937 0.661456 0.5
432 29 0.569571 0.694044 0.5
870 30 0.622728 0.653888 0.5
125 30 0.596779 0.674457 0.5
932 27 0.62637 0.685972 0.5
602 25 0.598993 0.706896 0.5
118 26 0.679225 0.663543 0.5
604 21 0.650926 0.664364 0.5
454 32 0.66457 0.69197 0.5
323 30 0.699249 0.688367 0.5
573 30 0.711899 0.657434 0.5
64 31 0.746639 0.654989 0.5
496 30 0.733239 0.685027 0.5
322 22 0.776133 0.651691 0.5
392 30 0.803103 0.663289 0.5
599 33 0.771065 0.684312 0.5
254 33 0.805622 0.696278 0.5
119 28 0.83405 0.670887 0.5
269 32 0.86701 0.681848 0.5
867 37 0.840649 0.704856 0.5
675 27 0.890985 0.659808 0.5
869 32 0.92291 0.662179 0.5
861 35 0.901944 0.691151 0.5
231 32 0.994217 0.664955 0.5
495 33 0.958965 0.66658 0.5
237 35 0.937661 0.695709 0.5
827 41 0.97746 0.697158 0.5
970 22 0.0416664 0.722249 0.5
643 27 0.0210114 0.74165 0.5
724 41 0.0398615 0.769191 0.5
801 26 0.00381969 0.766026 0.5
240 28 0.0699993 0.72295 0.5
344 20 0.0965095 0.731651 0.5
684 25 0.069203 0.752627 0.5
359 34 0.09984 0.762431 0.5
909 27 0.152141 0.719795 0.5
74 35 0.126039 0.739567 0.5
19 28 0.155085 0.753043 0.5
287 36 0.212012 0.712491 0.5
29 29 0.184323 0.732654 0.5
116 22 0.21333 0.743687 0.5
399 34 0.184664 0.766109 0.5
594 33 0.247748 0.718445 0.5
32 21 0.279069 0.732861 0.5
40 40 0.24559 0.754108 0.5
865 21 0.277593 0.760669 0.5
722 33 0.309349 0.714245 0.5
300 37 0.346451 0.708517 0.5
82 34 0.306551 0.748904 0.5
286 31 0.339293 0.742203 0.5
284 35 0.372547 0.732113 0.5
640 37 0.400281 0.755786 0.5
13 31 0.364177 0.766098 0.5
804 29 0.405481 0.720861 0.5
547 33 0.438781 0.713671 0.5
246 33 0.464975 0.73374 0.5
667 26 0.433486 0.745068 0.5
572 34 0.46363 0.768196 0.5
526 30 0.494548 0.715005 0.5
388 26 0.522326 0.73098 0.5
152 34 0.494768 0.749427 0.5
915 26 0.546801 0.714466 0.5
800 22 0.551318 0.742693 0.5
978 22 0.575968 0.725616 0.5
883 36 0.527722 0.762936 0.5
3 33 0.579103 0.757919 0.5
209 26 0.627977 0.715969 0.5
49 27 0.603633 0.736213 0.5
411 31 0.633542 0.748113 0.5
354 35 0.689197 0.720567 0.5
311 27 0.655808 0.723641 0.5
638 49 0.670286 0.758866 0.5
635 22 0.704319 0.747453 0.5
163 25 0.722001 0.713401 0.5
463 26 0.751002 0.71 0.5
123 17 0.727448 0.737623 0.5
843 35 0.756153 0.74262 0.5
474 28 0.730965 0.765847 0.5
142 31 0.78146 0.718642 0.5
436 31 0.81365 0.729364 0.5
276 35 0.788957 0.75298 0.5
842 28 0.850187 0.739426 0.5
997 35 0.875475 0.715574 0.5
759 36 0.823513 0.762572 0.5
683 34 0.88258 0.751541 0.5
93 43 0.913386 0.727603 0.5
913 29 0.990527 0.731022 0.5
868 39 0.955876 0.72727 0.5
134 34 0.937634 0.758728 0.5
946 30 0.973562 0.759125 0.5
477 31 0.0165855 0.798541 0.5
617 33 0.049568 0.805631 0.5
830 29 0.074539 0.783835 0.5
610 30 0.106264 0.795565 0.5
624 23 0.0809705 0.812392 0.5
205 27 0.130259 0.773339 0.5
439 28 0.158736 0.78546 0.5
907 27 0.137301 0.808527 0.5
552 30 0.168207 0.816796 0.5
194 31 0.216249 0.772878 0.5
131 27 0.194108 0.79756 0.5
989 35 0.228552 0.803498 0.5
145 24 0.201529 0.827976 0.5
460 35 0.262038 0.788871 0.5
391 24 0.256714 0.820815 0.5
717 30 0.28766 0.813407 0.5
220 30 0.297947 0.781686 0.5
449 26 0.329369 0.774786 0.5
291 27 0.318424 0.805307 0.5
639 21 0.332342 0.830154 0.5
739 43 0.35394 0.802483 0.5
507 29 0.388727 0.789298 0.5
304 27 0.38485 0.822528 0.5
69 35 0.430203 0.777878 0.5
15 34 0.416955 0.809826 0.5
268 45 0.458425 0.805907 0.5
198 36 0.495688 0.784713 0.5
890 34 0.497332 0.81912 0.5
481 30 0.527677 0.797169 0.5
417 25 0.554633 0.781304 0.5
337 29 0.559757 0.811415 0.5
321 31 0.584808 0.791721 0.5
782 27 0.609653 0.769292 0.5
292 28 0.615572 0.802516 0.5
297 30 0.63943 0.781271 0.5
840 25 0.588658 0.825309 0.5
678 30 0.677913 0.795997 0.5
185 37 0.649376 0.814773 0.5
741 34 0.682646 0.829826 0.5
850 23 0.703132 0.776419 0.5
908 20 0.73808 0.79367 0.5
50 33 0.711389 0.808663 0.5
334 33 0.742308 0.823803 0.5
147 30 0.76253 0.776448 0.5
880 41 0.797539 0.789407 0.5
221 22 0.767242 0.807072 0.5
299 24 0.792183 0.822104 0.5
200 35 0.856702 0.774271 0.5
319 29 0.830515 0.796005 0.5
588 26 0.85583 0.81488 0.5
630 32 0.883022 0.79652 0.5
546 32 0.908331 0.774695 0.5
654 24 0.930825 0.794777 0.5
695 20 0.90997 0.813324 0.5
76 26 0.885149 0.828994 0.5
489 21 0.956896 0.783356 0.5
514 25 0.985038 0.790301 0.5
839 27 0.962081 0.811187 0.5
98 35 0.992543 0.822606 0.5
207 31 0.0261927 0.831362 0.5
747 23 0.0347193 0.860649 0.5
992 37 0.00148363 0.856814 0.5
146 24 0.0219765 0.886434 0.5
236 42 0.0624141 0.840495 0.5
468 27 0.0902364 0.859704 0.5
342 40 0.109703 0.83034 0.5
261 38 0.0616768 0.879469 0.5
160 29 0.144242 0.839837 0.5
510 35 0.122273 0.866927 0.5
647 30 0.155658 0.873047 0.5
351 31 0.176893 0.849187 0.5
567 29 0.209028 0.857509 0.5
248 25 0.186171 0.880662 0.5
462 29 0.231684 0.836331 0.5
731 35 0.274267 0.848936 0.5
339 36 0.243122 0.867028 0.5
554 29 0.272896 0.882801 0.5
48 25 0.305131 0.839646 0.5
86 30 0.329786 0.858387 0.5
218 22 0.301088 0.869787 0.5
941 29 0.359413 0.839629 0.5
627 33 0.387268 0.857415 0.5
53 35 0.359285 0.876476 0.5
78 19 0.410746 0.838705 0.5
670 34 0.439217 0.839111 0.5
99 25 0.419986 0.867354 0.5
937 32 0.450798 0.873867 0.5
222 33 0.47297 0.843422 0.5
494 22 0.502608 0.850958 0.5
863 26 0.483055 0.874006 0.5
825 37 0.53045 0.830954 0.5
437 32 0.563106 0.845208 0.5
370 37 0.532165 0.865947 0.5
59 23 0.571098 0.878512 0.5
30 33 0.619953 0.834433 0.5
735 27 0.593445 0.856496 0.5
979 35 0.624009 0.869079 0.5
159 34 0.653196 0.850773 0.5
195 37 0.685933 0.865492 0.5
520 32 0.656399 0.884282 0.5
335 34 0.714441 0.843699 0.5
570 34 0.746865 0.859536 0.5
774 34 0.718229 0.879416 0.5
681 23 0.769661 0.838008 0.5
975 27 0.796829 0.851957 0.5
919 23 0.775018 0.875968 0.5
945 35 0.8236 0.829654 0.5
969 28 0.856412 0.845712 0.5
858 33 0.827831 0.864754 0.5
483 28 0.860036 0.877538 0.5
612 27 0.885215 0.859824 0.5
605 24 0.911277 0.844653 0.5
285 30 0.936218 0.828057 0.5
435 23 0.937952 0.85751 0.5
718 19 0.886663 0.887758 0.5
726 29 0.912575 0.875763 0.5
539 31 0.966413 0.845105 0.5
878 32 0.96105 0.878673 0.5
697 37 0.0409635 0.912956 0.5
238 24 0.00869074 0.914129 0.5
213 32 0.0215821 0.943877 0.5
987 35 0.0958636 0.892062 0.5
515 29 0.0746621 0.91755 0.5
894 27 0.105518 0.923015 0.5
905 30 0.0551714 0.945459 0.5
433 24 0.12824 0.900195 0.5
352 27 0.157577 0.905166 0.5
315 28 0.134872 0.930376 0.5
466 44 0.168305 0.94 0.5
419 33 0.216145 0.889953 0.5
255 29 0.192237 0.911998 0.5
954 23 0.22197 0.920386 0.5
775 33 0.204691 0.945224 0.5
197 29 0.246672 0.903852 0.5
984 32 0.275181 0.920401 0.5
657 24 0.247383 0.933329 0.5
330 27 0.329153 0.889651 0.5
387 29 0.299677 0.899281 0.5
565 27 0.324913 0.920693 0.5
257 34 0.300923 0.942369 0.5
247 23 0.348342 0.93701 0.5
535 24 0.352647 0.908425 0.5
316 39 0.393823 0.892955 0.5
884 37 0.378991 0.927693 0.5
509 26 0.428911 0.895928 0.5
122 30 0.414647 0.924718 0.5
467 32 0.448615 0.918479 0.5
773 20 0.469527 0.89807 0.5
362 32 0.508647 0.893495 0.5
808 26 0.488755 0.918411 0.5
755 25 0.519402 0.923972 0.5
192 36 0.54279 0.901034 0.5
817 36 0.576635 0.91122 0.5
173 30 0.550624 0.933866 0.5
453 25 0.599924 0.889017 0.5
373 35 0.628997 0.904892 0.5
877 29 0.605594 0.928199 0.5
327 31 0.636027 0.938373 0.5
420 34 0.663029 0.917306 0.5
810 31 0.691214 0.899862 0.5
56 27 0.691949 0.933188 0.5
746 24 0.749112 0.892823 0.5
669 41 0.72349 0.915383 0.5
836 29 0.754267 0.931112 0.5
183 28 0.803126 0.886177 0.5
243 33 0.777121 0.908137 0.5
153 38 0.81003 0.921734 0.5
703 30 0.784651 0.944862 0.5
501 34 0.835958 0.898495 0.5
314 32 0.868047 0.911203 0.5
229 32 0.844234 0.936182 0.5
583 24 0.900594 0.911997 0.5
88 42 0.933718 0.904138 0.5
719 23 0.886882 0.935997 0.5
613 27 0.917476 0.93606 0.5
149 27 0.991155 0.889733 0.5
780 29 0.96868 0.912237 0.5
219 27 0.950106 0.93731 0.5
876 31 0.988887 0.937222 0.5
113 36 0.0160314 0.998297 0.5
700 26 0.0505282 1.00301 0.5
828 29 0.0373487 0.972622 0.5
308 25 0.00192014 0.969537 0.5
710 37 0.108035 0.980018 0.5
459 36 0.070621 0.977153 0.5
161 27 0.0866678 0.947796 0.5
505 33 0.146909 0.997453 0.5
223 18 0.113268 0.949664 0.5
891 33 0.140234 0.963753 0.5
81 27 0.170623 0.975847 0.5
290 31 0.2032 0.980337 0.5
811 26 0.231233 0.993353 0.5
947 34 0.235553 0.962949 0.5
721 27 0.261483 0.985381 0.5
903 31 0.26975 0.954792 0.5
921 37 0.318774 0.999631 0.5
37 28 0.293405 0.976184 0.5
623 37 0.329823 0.964798 0.5
650 29 0.352005 0.993386 0.5
844 33 0.388653 0.988577 0.5
148 34 0.36611 0.962688 0.5
256 33 0.40047 0.955995 0.5
451 33 0.421798 0.983619 0.5
525 25 0.454047 0.9819 0.5
414 34 0.436371 0.952607 0.5
230 31 0.477992 1.00159 0.5
982 32 0.469051 0.945532 0.5
5 34 0.513543 0.981475 0.5
31 23 0.483264 0.971589 0.5
537 27 0.50105 0.947688 0.5
150 39 0.54457 0.999014 0.5
102 22 0.528918 0.953782 0.5
993 29 0.555783 0.96638 0.5
302 26 0.583062 0.976854 0.5
527 28 0.581231 0.946018 0.5
930 25 0.611227 0.988744 0.5
52 38 0.641041 1.00449 0.5
708 25 0.609965 0.95942 0.5
482 29 0.638981 0.97004 0.5
562 37 0.671288 0.982393 0.5
395 27 0.665056 0.949532 0.5
250 30 0.700962 0.965109 0.5
551 30 0.702495 1.00224 0.5
158 35 0.730708 0.983419 0.5
415 24 0.728786 0.950118 0.5
660 27 0.759186 0.963193 0.5
270 32 0.763097 0.997461 0.5
340 21 0.815851 0.984246 0.5
655 29 0.788164 0.977358 0.5
955 28 0.815967 0.955401 0.5
895 29 0.837768 1.00302 0.5
258 39 0.871666 0.990027 0.5
55 28 0.842266 0.971146 0.5
75 20 0.86792 0.956788 0.5
757 39 0.914781 0.996253 0.5
182 33 0.898031 0.964848 0.5
224 30 0.932007 0.964436 0.5
502 25 0.983606 0.992297 0.5
262 32 0.951388 0.99087 0.5
642 31 0.96933 0.96358 0.5
