ITEM: TIMESTEP
2260000
ITEM: NUMBER OF ATOMS
1000
ITEM: BOX BOUNDS pp pp pp
-1.6047647000000001e+01 1.6047647000000001e+01
-1.6047647000000001e+01 1.6047647000000001e+01
-5.0000000000000000e-01 5.0000000000000000e-01
ITEM: ATOMS id type xs ys zs
38 29 0.0368946 0.017354 0.5
891 33 0.0160144 0.0446689 0.5
846 33 0.0522414 0.0469968 0.5
483 28 0.0025387 0.014135 0.5
459 35 0.0736282 0.0204334 0.5
146 26 0.108488 0.0211813 0.5
113 34 0.141363 0.0245966 0.5
813 30 0.0861988 0.0525304 0.5
242 35 0.120165 0.052312 0.5
339 35 0.176415 0.030546 0.5
197 29 0.198642 0.00333331 0.5
168 36 0.211666 0.0345947 0.5
498 30 0.154982 0.057033 0.5
743 32 0.189397 0.0628696 0.5
257 33 0.23439 0.00684882 0.5
819 30 0.266211 0.0154152 0.5
941 29 0.244736 0.0411367 0.5
738 32 0.278101 0.0462374 0.5
984 32 0.223203 0.0679265 0.5
451 32 0.300585 0.0215135 0.5
921 36 0.336119 0.024158 0.5
255 29 0.314849 0.0513165 0.5
831 29 0.348946 0.0548755 0.5
78 22 0.389421 0.00203467 0.5
473 31 0.370186 0.028013 0.5
230 31 0.401858 0.0312873 0.5
863 27 0.422143 0.00721462 0.5
860 30 0.382585 0.0599604 0.5
414 34 0.416205 0.0620036 0.5
148 33 0.460414 0.0194469 0.5
523 23 0.432489 0.0343495 0.5
253 30 0.49794 0.0165954 0.5
993 30 0.481775 0.0465471 0.5
509 27 0.449311 0.0573003 0.5
896 30 0.517509 0.0426205 0.5
390 32 0.531747 0.0126332 0.5
408 28 0.569438 0.0115396 0.5
844 32 0.552997 0.0400469 0.5
715 24 0.5377 0.066982 0.5
413 27 0.571355 0.0655225 0.5
178 24 0.586815 0.0375635 0.5
173 30 0.601384 0.00830502 0.5
708 27 0.635257 0.00633041 0.5
107 30 0.619416 0.0364259 0.5
824 31 0.602705 0.0671185 0.5
582 29 0.635603 0.0649142 0.5
782 28 0.667759 0.00470435 0.5
444 33 0.652224 0.0339546 0.5
551 30 0.687251 0.0306508 0.5
591 27 0.701911 0.00306139 0.5
52 36 0.671424 0.0622501 0.5
164 33 0.706342 0.0583961 0.5
930 27 0.738191 -0.00153655 0.5
482 30 0.721438 0.0280064 0.5
415 25 0.752862 0.0240145 0.5
63 29 0.784474 0.0223787 0.5
836 29 0.769824 0.0511181 0.5
746 25 0.737709 0.056155 0.5
583 25 0.816015 0.0197017 0.5
229 32 0.804366 0.0477921 0.5
895 29 0.837769 0.0415361 0.5
703 30 0.86239 0.00471612 0.5
89 30 0.871145 0.0360582 0.5
258 37 0.898223 0.0118521 0.5
55 28 0.920344 0.0372024 0.5
397 32 0.860862 0.0668398 0.5
943 42 0.897222 0.0630856 0.5
689 30 0.935911 0.00988641 0.5
182 32 0.970824 0.0134952 0.5
223 21 0.985787 0.0414476 0.5
396 31 0.952835 0.0401338 0.5
998 31 0.93315 0.0666205 0.5
873 32 0.968223 0.0688562 0.5
262 32 0.0322885 0.0752175 0.5
905 30 0.0125573 0.103698 0.5
143 30 0.0461055 0.104583 0.5
976 24 0.0646475 0.0766313 0.5
712 29 0.0318802 0.133155 0.5
350 19 0.0596548 0.13169 0.5
193 28 0.102289 0.0816135 0.5
298 37 0.0799482 0.105919 0.5
685 30 0.13502 0.083549 0.5
694 31 0.114123 0.112096 0.5
215 28 0.167363 0.0875349 0.5
37 29 0.201248 0.0928994 0.5
487 30 0.147585 0.11308 0.5
227 31 0.179956 0.1181 0.5
461 32 0.214673 0.126662 0.5
442 34 0.235745 0.100196 0.5
565 28 0.256796 0.0721544 0.5
380 37 0.27181 0.104505 0.5
511 36 0.249592 0.134993 0.5
455 31 0.294581 0.0768997 0.5
180 32 0.328621 0.0813275 0.5
659 34 0.308519 0.107939 0.5
900 26 0.343834 0.111843 0.5
577 35 0.288247 0.136619 0.5
852 33 0.323838 0.138422 0.5
58 28 0.360989 0.0846279 0.5
430 33 0.403459 0.0970361 0.5
536 28 0.374144 0.112748 0.5
203 38 0.361931 0.144319 0.5
14 29 0.397012 0.133657 0.5
409 30 0.4273 0.122144 0.5
467 31 0.436567 0.0897426 0.5
763 33 0.47027 0.0814463 0.5
934 26 0.492447 0.104663 0.5
769 29 0.45921 0.114034 0.5
798 34 0.484472 0.136182 0.5
649 35 0.503801 0.0724696 0.5
752 27 0.52578 0.0956847 0.5
102 24 0.555909 0.0898249 0.5
961 30 0.516431 0.125203 0.5
671 26 0.547492 0.116652 0.5
241 33 0.58651 0.0986941 0.5
214 33 0.622231 0.0958912 0.5
445 34 0.574181 0.134567 0.5
425 32 0.606832 0.128486 0.5
301 35 0.641734 0.12523 0.5
926 33 0.657033 0.0940516 0.5
211 21 0.689859 0.0882675 0.5
250 30 0.675559 0.123449 0.5
158 34 0.707479 0.116493 0.5
420 33 0.755754 0.0826633 0.5
655 29 0.722427 0.0869684 0.5
912 37 0.743337 0.114849 0.5
994 29 0.765696 0.142535 0.5
485 34 0.779157 0.112491 0.5
990 38 0.790843 0.07862 0.5
940 28 0.814618 0.104052 0.5
528 33 0.827353 0.0729069 0.5
569 32 0.848926 0.0981499 0.5
561 31 0.801048 0.136906 0.5
312 37 0.835731 0.130909 0.5
379 27 0.881084 0.0951542 0.5
849 34 0.916156 0.0972411 0.5
208 31 0.871108 0.125319 0.5
644 30 0.906538 0.128892 0.5
589 25 0.999746 0.0741435 0.5
328 24 0.948955 0.0931779 0.5
987 34 0.978506 0.105671 0.5
648 26 0.938053 0.119842 0.5
538 33 0.998626 0.134829 0.5
272 35 0.963705 0.139028 0.5
393 37 0.0226317 0.164776 0.5
80 30 0.0615496 0.161695 0.5
210 28 0.00687424 0.196705 0.5
249 33 0.0432382 0.194486 0.5
706 32 0.0887458 0.138737 0.5
811 27 0.122373 0.143402 0.5
513 28 0.100149 0.169695 0.5
754 31 0.0771664 0.194379 0.5
170 33 0.112035 0.199642 0.5
279 32 0.133588 0.173438 0.5
18 39 0.157044 0.145897 0.5
608 30 0.191351 0.151656 0.5
290 31 0.147441 0.204196 0.5
448 32 0.168824 0.178719 0.5
597 25 0.200838 0.181776 0.5
488 27 0.182394 0.207871 0.5
469 35 0.226235 0.160583 0.5
809 27 0.269591 0.163179 0.5
216 40 0.218572 0.210878 0.5
851 31 0.246936 0.187049 0.5
517 35 0.28261 0.198922 0.5
71 33 0.302414 0.1681 0.5
389 38 0.338499 0.17301 0.5
169 23 0.315263 0.196117 0.5
847 36 0.345131 0.209415 0.5
31 24 0.388694 0.163415 0.5
953 29 0.421908 0.154387 0.5
385 31 0.378042 0.193705 0.5
374 34 0.412355 0.185637 0.5
629 26 0.452503 0.145587 0.5
592 26 0.476426 0.168551 0.5
699 24 0.44583 0.176881 0.5
701 36 0.470609 0.200655 0.5
753 32 0.436687 0.21021 0.5
834 31 0.502651 0.188664 0.5
114 26 0.509393 0.156921 0.5
898 28 0.540996 0.146722 0.5
646 28 0.53264 0.176761 0.5
845 28 0.52842 0.208563 0.5
580 28 0.563764 0.168194 0.5
104 26 0.555458 0.197638 0.5
372 27 0.596169 0.159953 0.5
452 33 0.630127 0.15656 0.5
788 33 0.586271 0.192014 0.5
57 32 0.62031 0.187805 0.5
838 24 0.664955 0.153106 0.5
744 33 0.696924 0.149516 0.5
749 28 0.652182 0.181458 0.5
603 29 0.685921 0.180169 0.5
72 26 0.673284 0.209019 0.5
797 31 0.708138 0.20474 0.5
75 23 0.729853 0.14599 0.5
737 33 0.751397 0.171275 0.5
91 26 0.718815 0.174612 0.5
799 28 0.740033 0.202159 0.5
704 34 0.773991 0.197409 0.5
138 31 0.821501 0.162601 0.5
365 28 0.788641 0.166856 0.5
382 36 0.809472 0.194601 0.5
768 31 0.84336 0.187429 0.5
676 31 0.856126 0.157916 0.5
115 24 0.932412 0.148397 0.5
332 27 0.888245 0.153582 0.5
611 35 0.867535 0.211998 0.5
938 24 0.880523 0.183581 0.5
857 38 0.914123 0.176145 0.5
155 30 0.901184 0.207202 0.5
806 28 0.93761 0.201131 0.5
964 33 0.985443 0.166932 0.5
378 31 0.951861 0.172809 0.5
920 29 0.973715 0.198589 0.5
762 32 0.0236898 0.22453 0.5
33 30 0.058085 0.224877 0.5
377 28 0.00663587 0.254514 0.5
700 27 0.0405601 0.254595 0.5
751 25 0.0201562 0.282844 0.5
923 33 0.0542106 0.284878 0.5
34 31 0.0731591 0.257278 0.5
939 36 0.0917791 0.228492 0.5
202 37 0.110627 0.261396 0.5
705 29 0.127072 0.229582 0.5
933 29 0.144087 0.255518 0.5
429 28 0.163919 0.231724 0.5
24 30 0.174893 0.262 0.5
28 28 0.196158 0.237185 0.5
367 28 0.205285 0.269988 0.5
280 37 0.254351 0.220749 0.5
881 27 0.226993 0.245925 0.5
673 28 0.256493 0.253011 0.5
996 27 0.281546 0.269095 0.5
167 27 0.285159 0.236139 0.5
770 39 0.239681 0.28196 0.5
756 29 0.313484 0.225819 0.5
325 32 0.341104 0.244402 0.5
935 26 0.311279 0.257466 0.5
888 28 0.336655 0.275817 0.5
274 28 0.406373 0.220516 0.5
239 34 0.373791 0.230078 0.5
263 29 0.36823 0.263958 0.5
927 32 0.399987 0.252605 0.5
96 30 0.392091 0.285709 0.5
144 33 0.425438 0.276021 0.5
492 38 0.498058 0.225222 0.5
914 26 0.432278 0.242741 0.5
651 25 0.454802 0.265635 0.5
493 26 0.462445 0.233816 0.5
871 29 0.484315 0.256591 0.5
464 30 0.512487 0.272961 0.5
666 32 0.53029 0.243397 0.5
957 35 0.56873 0.227445 0.5
508 28 0.558926 0.260292 0.5
874 36 0.606419 0.219746 0.5
497 32 0.642205 0.214136 0.5
761 29 0.579877 0.283619 0.5
358 28 0.628642 0.244668 0.5
440 38 0.595429 0.253599 0.5
265 39 0.644974 0.274258 0.5
103 32 0.661367 0.241392 0.5
795 35 0.694809 0.236927 0.5
637 28 0.683117 0.271556 0.5
855 31 0.715817 0.264772 0.5
742 31 0.760349 0.22796 0.5
963 27 0.727663 0.233203 0.5
12 34 0.751344 0.260158 0.5
360 20 0.783252 0.255525 0.5
307 32 0.774436 0.286067 0.5
416 33 0.794681 0.226174 0.5
986 29 0.831738 0.220331 0.5
225 34 0.807561 0.283761 0.5
745 34 0.817609 0.250776 0.5
677 37 0.854307 0.245814 0.5
615 28 0.841169 0.275934 0.5
346 29 0.879196 0.271172 0.5
270 31 0.888751 0.239097 0.5
310 33 0.923025 0.231223 0.5
353 29 0.910433 0.264275 0.5
456 31 0.990094 0.226622 0.5
68 31 0.957376 0.227585 0.5
803 31 0.942753 0.258604 0.5
97 24 0.975385 0.254142 0.5
936 26 0.991493 0.279547 0.5
574 23 0.963358 0.280408 0.5
130 29 0.0344269 0.31189 0.5
733 36 0.0180542 0.341476 0.5
245 23 0.0507644 0.34451 0.5
199 35 0.0676941 0.316344 0.5
171 33 0.0885662 0.289317 0.5
596 28 0.10281 0.319503 0.5
848 29 0.0836053 0.345007 0.5
259 22 0.119239 0.292861 0.5
917 37 0.142137 0.317568 0.5
766 29 0.120054 0.34694 0.5
260 29 0.147994 0.285749 0.5
555 30 0.179915 0.327666 0.5
132 31 0.179688 0.294344 0.5
66 31 0.210094 0.304674 0.5
124 28 0.212697 0.336991 0.5
548 35 0.154333 0.351808 0.5
802 34 0.272472 0.300521 0.5
84 28 0.241201 0.316213 0.5
54 29 0.269945 0.334388 0.5
966 26 0.242109 0.346496 0.5
991 32 0.305614 0.289311 0.5
823 29 0.331864 0.3081 0.5
293 35 0.301544 0.32231 0.5
564 27 0.330127 0.339835 0.5
621 28 0.361251 0.294428 0.5
841 31 0.358972 0.326374 0.5
995 26 0.386723 0.341001 0.5
707 43 0.413488 0.314112 0.5
4 32 0.416821 0.35151 0.5
457 36 0.453378 0.297994 0.5
90 38 0.448336 0.332988 0.5
434 25 0.484968 0.287777 0.5
674 28 0.481041 0.318265 0.5
368 32 0.478399 0.352367 0.5
94 26 0.509515 0.304732 0.5
950 31 0.508183 0.337012 0.5
944 29 0.543367 0.288295 0.5
424 24 0.565111 0.308561 0.5
174 31 0.53675 0.320162 0.5
566 31 0.568006 0.338758 0.5
658 35 0.537622 0.355529 0.5
112 26 0.610881 0.283077 0.5
305 30 0.629955 0.308002 0.5
383 34 0.596605 0.316257 0.5
101 28 0.622155 0.338662 0.5
988 21 0.64952 0.330094 0.5
779 36 0.665897 0.302053 0.5
832 39 0.702314 0.30742 0.5
892 24 0.675664 0.333057 0.5
653 25 0.702773 0.342289 0.5
571 41 0.738733 0.294571 0.5
529 29 0.731645 0.329229 0.5
540 34 0.766394 0.318397 0.5
100 33 0.755929 0.352528 0.5
85 24 0.799392 0.314754 0.5
530 29 0.789142 0.344014 0.5
363 26 0.820242 0.338067 0.5
952 33 0.831368 0.307869 0.5
859 38 0.855929 0.332948 0.5
661 30 0.865776 0.300428 0.5
106 22 0.898362 0.296134 0.5
776 31 0.889585 0.326195 0.5
736 26 0.920835 0.322325 0.5
313 33 0.911974 0.35328 0.5
901 36 0.931518 0.290911 0.5
686 30 1.00025 0.309856 0.5
618 35 0.959036 0.312637 0.5
652 39 0.980587 0.340972 0.5
983 31 0.944712 0.345668 0.5
252 34 0.032366 0.373391 0.5
345 32 0.0488505 0.402729 0.5
662 32 0.014897 0.404817 0.5
87 29 0.065338 0.371711 0.5
369 34 0.100073 0.37394 0.5
886 28 0.0802914 0.399519 0.5
428 28 0.132592 0.380485 0.5
2 29 0.112338 0.405689 0.5
787 27 0.143752 0.410338 0.5
628 31 0.164811 0.384452 0.5
951 30 0.187531 0.359185 0.5
750 32 0.198225 0.391054 0.5
885 26 0.175523 0.413974 0.5
812 28 0.213426 0.418699 0.5
120 30 0.221871 0.368431 0.5
140 30 0.236902 0.396755 0.5
376 38 0.267166 0.371195 0.5
786 37 0.26925 0.408201 0.5
405 29 0.242843 0.429089 0.5
427 31 0.300134 0.355508 0.5
897 31 0.32928 0.373153 0.5
837 32 0.299666 0.389113 0.5
273 28 0.356663 0.357856 0.5
856 28 0.358503 0.389535 0.5
815 30 0.300496 0.424648 0.5
162 31 0.329976 0.407084 0.5
403 26 0.358679 0.423864 0.5
331 27 0.386525 0.371662 0.5
607 36 0.416906 0.387303 0.5
36 36 0.386361 0.406284 0.5
977 35 0.417249 0.423082 0.5
73 31 0.447998 0.368874 0.5
740 33 0.476059 0.387697 0.5
794 31 0.446935 0.40434 0.5
333 30 0.476418 0.422596 0.5
645 32 0.506453 0.371825 0.5
734 32 0.567284 0.373443 0.5
491 30 0.538272 0.389508 0.5
949 33 0.50546 0.405217 0.5
232 28 0.534084 0.422062 0.5
500 39 0.566292 0.410875 0.5
568 31 0.595884 0.356634 0.5
402 36 0.628173 0.373274 0.5
421 33 0.598088 0.391529 0.5
206 31 0.628248 0.409077 0.5
887 32 0.599894 0.426357 0.5
166 30 0.657895 0.357986 0.5
317 36 0.689683 0.374174 0.5
329 33 0.658388 0.391599 0.5
278 33 0.687491 0.411753 0.5
121 32 0.656147 0.426636 0.5
176 32 0.723602 0.364799 0.5
165 24 0.747461 0.384861 0.5
431 31 0.718687 0.397358 0.5
264 31 0.778445 0.375293 0.5
6 17 0.768855 0.402416 0.5
821 27 0.746405 0.415586 0.5
141 32 0.811201 0.368453 0.5
521 32 0.798608 0.399868 0.5
375 30 0.843753 0.365051 0.5
443 28 0.830919 0.395175 0.5
426 24 0.816697 0.425098 0.5
679 40 0.849783 0.426571 0.5
364 32 0.864846 0.392558 0.5
879 33 0.878591 0.360447 0.5
519 25 0.900573 0.384896 0.5
557 36 0.887302 0.417759 0.5
27 33 0.92203 0.410919 0.5
614 29 0.932355 0.379705 0.5
233 28 0.99913 0.371142 0.5
822 34 0.965735 0.373026 0.5
698 23 0.985106 0.398041 0.5
244 29 0.954866 0.404122 0.5
729 24 0.0198733 0.435928 0.5
672 31 0.0502681 0.435341 0.5
544 28 0.0353922 0.46491 0.5
288 35 0.0691988 0.462903 0.5
723 29 0.00292256 0.462794 0.5
480 27 0.0184782 0.490914 0.5
807 24 0.0514151 0.490874 0.5
326 41 0.0890631 0.433025 0.5
407 27 0.123513 0.438267 0.5
196 31 0.104462 0.465978 0.5
41 31 0.0840005 0.49418 0.5
716 30 0.117625 0.497395 0.5
542 32 0.137609 0.468549 0.5
929 33 0.157245 0.440043 0.5
792 31 0.190629 0.442488 0.5
336 35 0.152018 0.497982 0.5
179 31 0.17227 0.470042 0.5
534 33 0.213024 0.476949 0.5
636 24 0.220107 0.447251 0.5
720 29 0.270637 0.44344 0.5
783 27 0.244947 0.462224 0.5
965 30 0.272428 0.477485 0.5
8 26 0.245166 0.494259 0.5
785 33 0.329559 0.44108 0.5
902 30 0.299735 0.458487 0.5
201 33 0.331083 0.4762 0.5
728 33 0.302103 0.493872 0.5
361 32 0.388727 0.441762 0.5
400 34 0.359318 0.458171 0.5
458 35 0.418793 0.458612 0.5
702 28 0.389412 0.475621 0.5
690 27 0.362444 0.492391 0.5
875 33 0.419554 0.493019 0.5
664 31 0.446622 0.440353 0.5
692 28 0.475935 0.455591 0.5
556 29 0.450154 0.475497 0.5
593 26 0.476563 0.491435 0.5
228 28 0.505094 0.43818 0.5
105 31 0.536263 0.453484 0.5
348 28 0.568285 0.444884 0.5
349 39 0.504923 0.473381 0.5
175 41 0.540402 0.489168 0.5
476 23 0.628656 0.442718 0.5
251 31 0.59767 0.459542 0.5
581 24 0.571903 0.475487 0.5
665 39 0.62719 0.476246 0.5
866 29 0.597775 0.49489 0.5
309 33 0.689219 0.445843 0.5
21 31 0.659322 0.460719 0.5
531 27 0.687933 0.478559 0.5
83 31 0.65814 0.49399 0.5
478 29 0.718108 0.430132 0.5
727 35 0.748198 0.447929 0.5
136 36 0.781875 0.430556 0.5
70 28 0.717755 0.464256 0.5
277 27 0.746736 0.481873 0.5
125 30 0.717312 0.496307 0.5
625 32 0.777723 0.466284 0.5
217 32 0.773913 0.499591 0.5
47 31 0.81155 0.45563 0.5
39 27 0.843822 0.462357 0.5
578 29 0.80301 0.485774 0.5
35 36 0.834024 0.49607 0.5
44 33 0.874456 0.452759 0.5
283 35 0.91091 0.445228 0.5
829 26 0.865372 0.486173 0.5
553 32 0.895937 0.478248 0.5
545 37 0.985484 0.431832 0.5
606 33 0.946436 0.435853 0.5
533 34 0.967974 0.463509 0.5
960 38 0.933572 0.471132 0.5
575 32 0.98672 0.492195 0.5
911 29 0.953806 0.499543 0.5
971 22 0.0335693 0.514188 0.5
512 31 0.00556553 0.520825 0.5
781 29 0.0618911 0.521725 0.5
725 37 0.031172 0.548577 0.5
95 32 0.0698171 0.553974 0.5
962 43 0.0963242 0.52772 0.5
579 28 0.113145 0.55836 0.5
26 38 0.135119 0.529778 0.5
687 32 0.187809 0.50092 0.5
641 30 0.168683 0.527205 0.5
959 28 0.144786 0.562 0.5
586 40 0.179836 0.56075 0.5
631 30 0.202553 0.533161 0.5
967 25 0.219485 0.508562 0.5
882 35 0.270275 0.514353 0.5
793 29 0.215216 0.563949 0.5
410 38 0.239199 0.53536 0.5
116 24 0.273705 0.547139 0.5
616 30 0.24742 0.569693 0.5
693 29 0.332606 0.508663 0.5
826 30 0.300644 0.527289 0.5
51 31 0.33218 0.540271 0.5
594 33 0.305186 0.560661 0.5
668 24 0.389192 0.506701 0.5
303 29 0.361197 0.522974 0.5
446 29 0.390661 0.538206 0.5
928 32 0.361864 0.55515 0.5
77 22 0.39006 0.566911 0.5
357 35 0.422599 0.528226 0.5
412 29 0.418377 0.561846 0.5
709 30 0.45 0.508764 0.5
384 40 0.451716 0.552041 0.5
893 30 0.477457 0.526815 0.5
765 25 0.484744 0.556555 0.5
504 37 0.507441 0.509391 0.5
626 34 0.569665 0.510335 0.5
814 31 0.512546 0.54388 0.5
296 30 0.539603 0.525713 0.5
730 31 0.568666 0.545259 0.5
771 26 0.539235 0.560209 0.5
587 35 0.629073 0.513021 0.5
133 31 0.59882 0.530575 0.5
1000 35 0.628277 0.548565 0.5
619 32 0.595516 0.566091 0.5
42 39 0.687241 0.51334 0.5
805 28 0.657274 0.529726 0.5
157 32 0.687126 0.548732 0.5
311 28 0.658782 0.564339 0.5
910 30 0.746365 0.516378 0.5
137 33 0.717449 0.532057 0.5
9 28 0.748694 0.548894 0.5
688 27 0.718406 0.565033 0.5
267 27 0.774698 0.532627 0.5
17 27 0.776185 0.566868 0.5
980 28 0.802331 0.515747 0.5
590 26 0.801737 0.547105 0.5
282 28 0.83155 0.531437 0.5
338 29 0.827449 0.562642 0.5
156 26 0.858226 0.517038 0.5
177 25 0.887171 0.510195 0.5
191 36 0.918698 0.505468 0.5
973 23 0.876627 0.538828 0.5
418 33 0.858861 0.565745 0.5
974 27 0.906115 0.536023 0.5
343 33 0.924638 0.561217 0.5
438 28 0.892361 0.563786 0.5
777 27 0.940372 0.529903 0.5
713 36 0.995677 0.553605 0.5
294 30 0.972802 0.5254 0.5
503 36 0.959289 0.556813 0.5
187 33 0.0150739 0.582392 0.5
748 34 0.0494756 0.582232 0.5
135 29 0.0316619 0.610911 0.5
359 33 0.0679129 0.611501 0.5
789 28 -0.00123524 0.611976 0.5
790 32 0.0128126 0.64062 0.5
764 36 0.088602 0.582772 0.5
22 33 0.1028 0.61609 0.5
600 35 0.125597 0.588903 0.5
422 30 0.137824 0.620075 0.5
854 28 0.0847977 0.641648 0.5
60 27 0.159194 0.590775 0.5
833 32 0.172993 0.620265 0.5
234 33 0.192328 0.593428 0.5
154 29 0.205558 0.626335 0.5
532 29 0.278617 0.577683 0.5
563 35 0.225023 0.597146 0.5
524 33 0.258824 0.602897 0.5
111 29 0.238867 0.628668 0.5
441 30 0.271817 0.63309 0.5
186 31 0.335382 0.576524 0.5
541 32 0.306178 0.596541 0.5
506 36 0.339349 0.613927 0.5
576 32 0.304592 0.629692 0.5
20 34 0.367324 0.588352 0.5
275 32 0.385012 0.616779 0.5
92 28 0.406766 0.591437 0.5
126 31 0.420478 0.618758 0.5
300 35 0.365786 0.644873 0.5
406 30 0.439332 0.588461 0.5
306 28 0.452198 0.618315 0.5
767 38 0.473993 0.589819 0.5
958 24 0.482355 0.623134 0.5
560 29 0.509823 0.575715 0.5
864 26 0.564602 0.576461 0.5
62 29 0.508423 0.608222 0.5
549 30 0.538303 0.59269 0.5
347 42 0.571056 0.610401 0.5
324 37 0.537726 0.628171 0.5
796 27 0.507003 0.64033 0.5
915 27 0.630368 0.581302 0.5
23 28 0.603216 0.597534 0.5
323 30 0.63133 0.612875 0.5
595 34 0.60117 0.630783 0.5
281 26 0.658409 0.595972 0.5
318 34 0.688176 0.581733 0.5
118 27 0.691557 0.614633 0.5
496 30 0.662607 0.628628 0.5
870 30 0.718655 0.597807 0.5
772 32 0.748292 0.581433 0.5
584 26 0.748754 0.613198 0.5
573 30 0.720447 0.629483 0.5
289 24 0.775958 0.600204 0.5
853 21 0.77642 0.628865 0.5
110 30 0.802881 0.583792 0.5
760 27 0.803602 0.615619 0.5
999 35 0.835826 0.594884 0.5
295 33 0.833452 0.630968 0.5
341 26 0.860611 0.616751 0.5
471 25 0.877088 0.592734 0.5
381 32 0.909233 0.592096 0.5
119 29 0.928633 0.618558 0.5
968 36 0.893506 0.622627 0.5
188 31 0.979566 0.58487 0.5
585 32 0.944515 0.589581 0.5
632 30 0.965114 0.615045 0.5
818 26 0.949242 0.641374 0.5
918 38 0.0271794 0.672504 0.5
827 39 0.0496177 0.642407 0.5
514 26 0.0632404 0.674464 0.5
546 32 0.00947962 0.70278 0.5
398 36 0.0448369 0.703172 0.5
872 37 0.0957691 0.673108 0.5
791 27 0.118291 0.64693 0.5
151 36 0.131861 0.678692 0.5
194 31 0.079393 0.702803 0.5
830 29 0.112868 0.705795 0.5
447 36 0.153819 0.650328 0.5
465 28 0.165251 0.6809 0.5
925 24 0.186074 0.652478 0.5
972 29 0.197541 0.681385 0.5
1 27 0.144471 0.708815 0.5
204 33 0.178027 0.709186 0.5
472 27 0.211611 0.711112 0.5
543 33 0.219311 0.655421 0.5
475 27 0.230826 0.68732 0.5
722 33 0.25226 0.66044 0.5
287 35 0.265781 0.692464 0.5
40 38 0.287675 0.663321 0.5
10 29 0.332189 0.646714 0.5
985 26 0.318148 0.673231 0.5
535 26 0.298474 0.697368 0.5
620 28 0.348699 0.674496 0.5
948 35 0.330502 0.702951 0.5
29 29 0.402124 0.645222 0.5
7 34 0.381778 0.676541 0.5
152 33 0.415118 0.677211 0.5
388 27 0.364273 0.705858 0.5
45 29 0.395235 0.708117 0.5
956 33 0.437611 0.648941 0.5
117 31 0.449431 0.680849 0.5
11 36 0.473407 0.653945 0.5
25 32 0.481889 0.689024 0.5
423 33 0.428001 0.710281 0.5
479 22 0.504232 0.668208 0.5
128 31 0.568707 0.64821 0.5
266 34 0.535161 0.664578 0.5
394 30 0.546039 0.695543 0.5
65 31 0.514523 0.697191 0.5
820 30 0.575714 0.680077 0.5
691 37 0.631451 0.647376 0.5
209 27 0.603715 0.666532 0.5
404 31 0.631755 0.681936 0.5
755 26 0.605348 0.698972 0.5
908 23 0.634617 0.71444 0.5
64 31 0.69144 0.646321 0.5
904 33 0.663138 0.663279 0.5
981 30 0.691889 0.679831 0.5
432 29 0.661297 0.694994 0.5
46 33 0.750041 0.645655 0.5
711 34 0.720766 0.662969 0.5
522 35 0.7497 0.682125 0.5
43 34 0.780125 0.665634 0.5
334 33 0.720223 0.698885 0.5
997 34 0.780028 0.701488 0.5
784 28 0.805477 0.646333 0.5
867 36 0.811612 0.680841 0.5
269 31 0.841416 0.664345 0.5
93 40 0.844329 0.702158 0.5
778 25 0.866966 0.64599 0.5
134 33 0.872804 0.67914 0.5
601 31 0.898749 0.656795 0.5
271 30 0.907459 0.68847 0.5
916 26 0.92998 0.664167 0.5
869 32 0.940131 0.694263 0.5
862 26 0.993171 0.670484 0.5
212 26 0.979446 0.643045 0.5
633 30 0.961396 0.669302 0.5
190 38 0.975119 0.700077 0.5
401 26 0.0265455 0.730624 0.5
450 25 0.0136994 0.757049 0.5
684 26 0.0625854 0.730996 0.5
946 30 0.0438645 0.756627 0.5
643 28 0.0258711 0.783798 0.5
19 29 0.094596 0.733181 0.5
680 29 0.127147 0.735223 0.5
617 33 0.0768025 0.76065 0.5
205 28 0.110313 0.761537 0.5
624 25 0.141208 0.765968 0.5
460 34 0.159473 0.738706 0.5
714 29 0.191819 0.739333 0.5
145 26 0.171174 0.767537 0.5
129 35 0.203439 0.769696 0.5
804 29 0.224077 0.740023 0.5
550 26 0.243024 0.715079 0.5
286 31 0.258866 0.742311 0.5
739 40 0.239453 0.77306 0.5
554 29 0.272524 0.780899 0.5
127 24 0.280742 0.721005 0.5
640 36 0.291551 0.753741 0.5
32 23 0.310002 0.726794 0.5
717 30 0.344215 0.73221 0.5
99 26 0.324677 0.756677 0.5
634 20 0.37389 0.735798 0.5
235 34 0.405607 0.739155 0.5
399 33 0.357636 0.762113 0.5
246 33 0.39012 0.768759 0.5
486 36 0.425612 0.772484 0.5
226 31 0.460114 0.715344 0.5
470 30 0.438974 0.741965 0.5
732 29 0.470792 0.746823 0.5
371 29 0.491301 0.722291 0.5
883 35 0.460547 0.778517 0.5
758 24 0.520287 0.727218 0.5
184 27 0.549447 0.72695 0.5
327 31 0.537137 0.754326 0.5
79 36 0.502936 0.755297 0.5
932 28 0.5561 0.779925 0.5
108 33 0.577617 0.7141 0.5
816 32 0.572126 0.749244 0.5
638 44 0.608759 0.739661 0.5
520 31 0.590904 0.776463 0.5
198 34 0.624166 0.777946 0.5
297 30 0.644557 0.749935 0.5
49 28 0.689456 0.711499 0.5
602 26 0.661071 0.724609 0.5
185 35 0.682763 0.749649 0.5
322 24 0.710885 0.731737 0.5
454 31 0.659058 0.779765 0.5
195 36 0.695034 0.784353 0.5
635 24 0.748657 0.714246 0.5
123 20 0.737002 0.740323 0.5
50 32 0.768584 0.737089 0.5
163 26 0.718124 0.760813 0.5
678 30 0.749511 0.765442 0.5
605 25 0.781497 0.769856 0.5
392 30 0.810688 0.715986 0.5
630 31 0.8011 0.745995 0.5
861 34 0.8352 0.73921 0.5
695 23 0.811574 0.775186 0.5
142 31 0.841884 0.774575 0.5
654 26 0.866552 0.747198 0.5
109 40 0.881329 0.714476 0.5
675 28 0.917548 0.720315 0.5
435 25 0.897493 0.74581 0.5
254 32 0.875013 0.777921 0.5
683 33 0.909277 0.77687 0.5
285 30 0.929403 0.749505 0.5
231 31 0.951748 0.726232 0.5
906 37 0.98828 0.733874 0.5
240 29 0.961975 0.756487 0.5
696 28 0.940892 0.779916 0.5
477 31 0.98966 0.775046 0.5
567 29 0.03839 0.812788 0.5
801 27 0.0575634 0.787446 0.5
237 34 0.00257954 0.807368 0.5
342 38 0.0180125 0.840036 0.5
647 30 0.0529305 0.84499 0.5
160 29 0.0916565 0.790848 0.5
610 30 0.123102 0.791352 0.5
351 31 0.0709043 0.816931 0.5
718 22 0.104494 0.818593 0.5
207 31 0.0862065 0.847963 0.5
248 26 0.116438 0.846324 0.5
74 34 0.137025 0.821407 0.5
942 26 0.155513 0.793877 0.5
344 23 0.185272 0.797628 0.5
828 29 0.148294 0.85157 0.5
970 24 0.168862 0.821419 0.5
989 34 0.180095 0.85185 0.5
48 26 0.198456 0.826539 0.5
315 29 0.212537 0.855797 0.5
82 33 0.218054 0.801447 0.5
320 33 0.252198 0.807707 0.5
907 28 0.230582 0.831537 0.5
865 23 0.264662 0.83683 0.5
913 29 0.285029 0.811383 0.5
449 27 0.304799 0.785507 0.5
13 31 0.338789 0.787927 0.5
53 34 0.317559 0.815079 0.5
903 31 0.296541 0.841542 0.5
657 26 0.328613 0.846576 0.5
86 30 0.349891 0.81973 0.5
417 26 0.369693 0.795828 0.5
370 36 0.403847 0.8017 0.5
572 33 0.382176 0.828519 0.5
667 27 0.361148 0.853544 0.5
547 33 0.419058 0.835481 0.5
284 34 0.439845 0.806931 0.5
840 27 0.491599 0.78613 0.5
800 24 0.473493 0.810825 0.5
437 32 0.454381 0.837903 0.5
69 34 0.489203 0.839344 0.5
337 29 0.523261 0.783587 0.5
978 24 0.541345 0.808724 0.5
411 31 0.508912 0.81229 0.5
59 25 0.522167 0.840793 0.5
507 29 0.554312 0.836742 0.5
362 32 0.573878 0.807661 0.5
604 23 0.604247 0.805056 0.5
850 25 0.640424 0.805227 0.5
321 31 0.587271 0.83735 0.5
159 33 0.621454 0.831468 0.5
292 29 0.673037 0.810539 0.5
773 22 0.652315 0.83155 0.5
30 32 0.679213 0.84621 0.5
527 29 0.704245 0.817628 0.5
373 34 0.715601 0.853641 0.5
354 34 0.728934 0.792253 0.5
599 33 0.761578 0.797106 0.5
335 33 0.737251 0.825318 0.5
570 33 0.771899 0.828874 0.5
474 28 0.794487 0.799775 0.5
56 28 0.82634 0.804924 0.5
147 30 0.805858 0.831517 0.5
276 34 0.839054 0.836165 0.5
299 26 0.857633 0.805865 0.5
726 30 0.893662 0.806558 0.5
489 23 0.924822 0.805483 0.5
98 34 0.87453 0.834114 0.5
876 31 0.909206 0.834375 0.5
868 37 0.966739 0.802128 0.5
880 38 0.945043 0.8313 0.5
468 28 0.980493 0.834914 0.5
992 36 0.0331322 0.873145 0.5
200 34 0.0124822 0.901066 0.5
969 29 0.0480839 0.905122 0.5
131 28 0.0673834 0.87542 0.5
747 25 0.0978591 0.877305 0.5
219 28 0.0807677 0.904896 0.5
236 39 0.117258 0.90742 0.5
894 28 0.127606 0.874685 0.5
539 31 0.159656 0.881745 0.5
261 36 0.155539 0.916954 0.5
909 28 0.191266 0.88122 0.5
466 40 0.193284 0.914589 0.5
439 28 0.244449 0.860174 0.5
213 31 0.275016 0.866063 0.5
775 33 0.224037 0.886651 0.5
518 30 0.229424 0.919992 0.5
433 26 0.254841 0.890989 0.5
947 33 0.262401 0.92349 0.5
387 29 0.308855 0.871981 0.5
419 33 0.286426 0.897293 0.5
552 30 0.340902 0.878049 0.5
670 33 0.320387 0.904369 0.5
316 37 0.354801 0.909427 0.5
291 27 0.395195 0.858472 0.5
352 28 0.374739 0.882334 0.5
954 25 0.388203 0.913392 0.5
627 32 0.407049 0.887469 0.5
5 33 0.42388 0.917401 0.5
386 35 0.435505 0.8678 0.5
526 30 0.47165 0.868896 0.5
15 33 0.455191 0.897632 0.5
189 16 0.487116 0.894381 0.5
391 26 0.480135 0.922741 0.5
481 30 0.504919 0.868389 0.5
937 32 0.539692 0.868045 0.5
825 35 0.520346 0.897305 0.5
256 33 0.559374 0.895683 0.5
808 27 0.571841 0.86536 0.5
979 34 0.638754 0.859621 0.5
3 33 0.606106 0.865694 0.5
598 33 0.578892 0.924991 0.5
453 26 0.591162 0.894713 0.5
395 28 0.628125 0.890836 0.5
817 35 0.614457 0.92054 0.5
302 27 0.650046 0.916931 0.5
268 41 0.666594 0.881148 0.5
562 36 0.685135 0.912612 0.5
681 25 0.703031 0.883109 0.5
774 33 0.750994 0.856113 0.5
810 31 0.734515 0.884774 0.5
76 27 0.720433 0.912491 0.5
899 24 0.750527 0.91381 0.5
975 28 0.767876 0.886199 0.5
484 33 0.783752 0.915844 0.5
463 27 0.785792 0.85849 0.5
308 27 0.817036 0.860836 0.5
183 28 0.800199 0.886989 0.5
501 34 0.819754 0.91381 0.5
759 35 0.837889 0.884962 0.5
436 31 0.853548 0.91654 0.5
221 24 0.859768 0.861849 0.5
319 30 0.892191 0.86318 0.5
780 29 0.874168 0.889517 0.5
88 39 0.911041 0.892718 0.5
922 35 0.888264 0.919975 0.5
656 23 0.923063 0.923281 0.5
495 32 0.927099 0.861761 0.5
149 28 0.960284 0.862526 0.5
724 38 0.995025 0.868694 0.5
612 28 0.993445 0.926947 0.5
839 28 0.945121 0.891762 0.5
931 30 0.976542 0.898084 0.5
878 32 0.954851 0.922669 0.5
238 26 0.0281846 0.930213 0.5
515 29 0.0627489 0.932335 0.5
697 35 0.0235739 0.984758 0.5
502 26 0.044279 0.957466 0.5
613 28 0.00965997 0.95446 0.5
710 36 0.0589466 0.988823 0.5
505 32 0.0934565 0.991666 0.5
224 30 0.129055 0.993432 0.5
889 28 0.0790082 0.961165 0.5
642 31 0.0965035 0.934296 0.5
67 30 0.112621 0.96489 0.5
161 28 0.129434 0.938034 0.5
81 28 0.163891 0.998708 0.5
516 38 0.151163 0.965984 0.5
172 22 0.176066 0.944868 0.5
721 28 0.186153 0.972869 0.5
490 31 0.207465 0.94754 0.5
462 29 0.220517 0.977561 0.5
247 25 0.256065 0.98214 0.5
731 34 0.276105 0.955902 0.5
61 32 0.242217 0.951708 0.5
623 35 0.288734 0.989571 0.5
181 31 0.324302 0.992092 0.5
835 32 0.358751 0.997894 0.5
884 35 0.298259 0.929934 0.5
222 32 0.310673 0.961519 0.5
639 23 0.331687 0.936115 0.5
559 32 0.34626 0.965454 0.5
650 29 0.379134 0.971037 0.5
330 28 0.366046 0.940462 0.5
150 37 0.401521 0.944286 0.5
122 30 0.411035 0.978063 0.5
494 24 0.451942 0.930585 0.5
220 30 0.444713 0.985708 0.5
218 24 0.432353 0.955103 0.5
304 28 0.462597 0.958282 0.5
682 35 0.479076 0.987721 0.5
890 33 0.495567 0.956415 0.5
735 28 0.510486 0.928716 0.5
192 35 0.543603 0.926058 0.5
525 27 0.511798 0.986296 0.5
982 32 0.529498 0.957105 0.5
355 31 0.550154 0.983976 0.5
537 28 0.564335 0.954924 0.5
366 29 0.58327 0.981451 0.5
243 32 0.617362 0.978579 0.5
16 31 0.597764 0.951217 0.5
741 33 0.634818 0.948538 0.5
877 29 0.651043 0.978384 0.5
919 25 0.683313 0.977815 0.5
153 36 0.669414 0.94667 0.5
558 31 0.704415 0.940955 0.5
340 23 0.768821 0.995952 0.5
669 38 0.716357 0.972294 0.5
139 29 0.751663 0.970439 0.5
955 28 0.736868 0.941292 0.5
499 21 0.766767 0.94148 0.5
609 30 0.783046 0.968142 0.5
356 26 0.799908 0.995337 0.5
660 28 0.831504 0.995738 0.5
314 31 0.803023 0.943171 0.5
719 24 0.816484 0.969863 0.5
924 26 0.849421 0.972413 0.5
588 27 0.836086 0.943446 0.5
842 28 0.868054 0.947091 0.5
945 34 0.882113 0.97727 0.5
622 29 0.918335 0.982085 0.5
843 34 0.903305 0.951099 0.5
858 32 0.936588 0.951344 0.5
510 34 0.988756 0.983969 0.5
663 32 0.953025 0.9815 0.5
757 37 0.972679 0.953136 0.5
