ITEM: TIMESTEP
250000
ITEM: NUMBER OF ATOMS
1000
ITEM: BOX BOUNDS pp pp pp
-1.6047647000000001e+01 1.6047647000000001e+01
-1.6047647000000001e+01 1.6047647000000001e+01
-5.0000000000000000e-01 5.0000000000000000e-01
ITEM: ATOMS id type xs ys zs
917 37 0.0408082 0.0258873 0.5
259 22 0.0153292 -0.00247344 0.5
555 30 0.075496 0.0338384 0.5
124 28 0.107456 0.0436294 0.5
66 31 0.107931 0.0109181 0.5
132 31 0.0771667 0.00178568 0.5
84 28 0.138059 0.0253598 0.5
54 29 0.167633 0.0458077 0.5
966 26 0.138978 0.0548558 0.5
802 34 0.167751 0.00862724 0.5
293 35 0.197076 0.030529 0.5
823 29 0.227877 0.0168772 0.5
564 27 0.22482 0.0499365 0.5
841 31 0.253639 0.0341437 0.5
995 26 0.28037 0.0489465 0.5
621 28 0.256431 0.00232434 0.5
707 43 0.306791 0.022052 0.5
90 38 0.339836 0.041644 0.5
457 36 0.344005 0.00518735 0.5
674 28 0.371288 0.0255462 0.5
94 26 0.400231 0.00861817 0.5
950 31 0.401771 0.0421779 0.5
434 25 0.375764 -0.00725548 0.5
174 31 0.431039 0.0233582 0.5
424 24 0.458525 0.00863031 0.5
566 31 0.459706 0.0409274 0.5
383 34 0.48863 0.0240067 0.5
305 30 0.519241 0.0101704 0.5
101 28 0.517918 0.0425252 0.5
988 21 0.544277 0.0288234 0.5
892 24 0.570628 0.0401812 0.5
779 36 0.569985 0.00811614 0.5
653 25 0.59868 0.0351512 0.5
832 39 0.604358 -0.000460427 0.5
529 29 0.62813 0.0275845 0.5
571 41 0.641015 -0.00617464 0.5
540 34 0.661351 0.0225176 0.5
530 29 0.68343 0.0456896 0.5
85 24 0.693902 0.0162809 0.5
363 26 0.714246 0.0412929 0.5
952 33 0.726296 0.0129958 0.5
859 38 0.750183 0.0370794 0.5
661 30 0.761269 0.00557679 0.5
776 31 0.784775 0.0292169 0.5
736 26 0.818022 0.02554 0.5
106 22 0.795888 0.00089496 0.5
901 36 0.827532 -0.00443089 0.5
618 35 0.855205 0.0188697 0.5
652 39 0.876341 0.0472065 0.5
686 30 0.895158 0.0169469 0.5
733 36 0.913395 0.0466591 0.5
130 29 0.927445 0.0159992 0.5
245 23 0.945847 0.0490248 0.5
596 28 1.00093 0.0230162 0.5
199 35 0.962287 0.0208104 0.5
848 29 0.981491 0.0489354 0.5
548 35 0.0506193 0.0592252 0.5
766 29 0.0160969 0.0512601 0.5
428 28 0.0293993 0.0856607 0.5
628 31 0.0614687 0.0917776 0.5
951 30 0.083877 0.0652506 0.5
750 32 0.0941071 0.0977634 0.5
120 30 0.117467 0.0744662 0.5
140 30 0.129651 0.103866 0.5
376 38 0.162137 0.0812685 0.5
786 37 0.163932 0.116304 0.5
427 31 0.194429 0.0643146 0.5
837 32 0.193673 0.0976321 0.5
897 31 0.224822 0.0820774 0.5
273 28 0.251439 0.0668801 0.5
856 28 0.251236 0.0996026 0.5
331 27 0.277477 0.081478 0.5
36 36 0.279744 0.114035 0.5
4 32 0.310786 0.0618369 0.5
607 36 0.312096 0.0969068 0.5
73 31 0.342498 0.0780213 0.5
368 32 0.371604 0.0602182 0.5
645 32 0.400909 0.075482 0.5
740 33 0.372456 0.0947914 0.5
949 33 0.402549 0.110206 0.5
658 35 0.429714 0.058395 0.5
491 30 0.430822 0.0915943 0.5
734 32 0.461314 0.0753253 0.5
568 31 0.488117 0.0592165 0.5
421 33 0.490916 0.0929494 0.5
402 36 0.520375 0.075789 0.5
166 30 0.548447 0.0601513 0.5
329 33 0.550371 0.0942907 0.5
317 36 0.582337 0.0711049 0.5
100 33 0.649185 0.0539414 0.5
176 32 0.616225 0.0606232 0.5
431 31 0.609085 0.0928656 0.5
165 24 0.639602 0.0854663 0.5
264 31 0.670609 0.0763599 0.5
6 17 0.660578 0.10435 0.5
521 32 0.691152 0.102316 0.5
141 32 0.703845 0.0716874 0.5
375 30 0.73658 0.0689103 0.5
443 28 0.72392 0.0994595 0.5
364 32 0.758619 0.0936217 0.5
879 33 0.771444 0.0635644 0.5
313 33 0.804581 0.0580819 0.5
519 25 0.793767 0.0894535 0.5
983 31 0.839278 0.0503196 0.5
614 29 0.826747 0.0822162 0.5
822 34 0.861304 0.080571 0.5
244 29 0.848109 0.11022 0.5
698 23 0.881089 0.105804 0.5
233 28 0.894142 0.0779881 0.5
252 34 0.926882 0.0806824 0.5
662 32 0.91134 0.111336 0.5
345 32 0.946327 0.105901 0.5
369 34 0.99684 0.0785072 0.5
87 29 0.960803 0.0750596 0.5
886 28 0.975775 0.10251 0.5
787 27 0.0395121 0.116594 0.5
2 29 0.00802585 0.111152 0.5
929 33 0.047846 0.14874 0.5
407 27 0.0138738 0.142648 0.5
885 26 0.0735961 0.121556 0.5
812 28 0.105065 0.126838 0.5
792 31 0.0824638 0.151304 0.5
636 24 0.113507 0.155521 0.5
405 29 0.135695 0.136193 0.5
783 27 0.140854 0.167712 0.5
720 29 0.165517 0.1514 0.5
162 31 0.22289 0.115895 0.5
815 30 0.194132 0.131934 0.5
785 33 0.223596 0.148445 0.5
902 30 0.193888 0.165952 0.5
403 26 0.252919 0.133046 0.5
361 32 0.284133 0.149059 0.5
400 34 0.254741 0.165543 0.5
794 31 0.34291 0.112371 0.5
977 35 0.313188 0.132042 0.5
458 35 0.315483 0.166814 0.5
664 31 0.342456 0.146431 0.5
333 30 0.371218 0.12802 0.5
692 28 0.371198 0.160525 0.5
228 28 0.403087 0.142669 0.5
500 39 0.460911 0.112422 0.5
232 28 0.430349 0.125698 0.5
105 31 0.432881 0.15866 0.5
348 28 0.464053 0.147597 0.5
206 31 0.520724 0.111668 0.5
887 32 0.493017 0.129952 0.5
251 31 0.490956 0.163938 0.5
476 23 0.524523 0.144095 0.5
278 33 0.582055 0.110486 0.5
121 32 0.55262 0.127741 0.5
21 31 0.551237 0.163373 0.5
309 33 0.580704 0.146526 0.5
821 27 0.6352 0.114984 0.5
478 29 0.608582 0.132006 0.5
70 28 0.609576 0.16455 0.5
727 35 0.639674 0.14758 0.5
136 36 0.67295 0.131785 0.5
625 32 0.668864 0.166817 0.5
47 31 0.700584 0.155286 0.5
426 24 0.708986 0.127776 0.5
679 40 0.744518 0.12833 0.5
39 27 0.733248 0.164963 0.5
44 33 0.766235 0.15746 0.5
557 36 0.78036 0.124267 0.5
27 33 0.814382 0.11462 0.5
283 35 0.802693 0.149591 0.5
606 33 0.839058 0.142158 0.5
533 34 0.858199 0.169994 0.5
545 37 0.876682 0.136748 0.5
723 29 0.892017 0.168537 0.5
729 24 0.910799 0.142729 0.5
544 28 0.92622 0.169667 0.5
672 31 0.943748 0.140171 0.5
326 41 0.978772 0.138167 0.5
288 35 0.959133 0.169547 0.5
542 32 0.026812 0.174318 0.5
336 35 0.0427559 0.204137 0.5
716 30 0.00655383 0.201094 0.5
179 31 0.0632241 0.177782 0.5
534 33 0.0981814 0.183243 0.5
687 32 0.077355 0.211425 0.5
967 25 0.11011 0.211932 0.5
965 30 0.165151 0.184402 0.5
8 26 0.135856 0.199237 0.5
882 35 0.165059 0.220121 0.5
201 33 0.22618 0.182888 0.5
728 33 0.196385 0.19914 0.5
693 29 0.226946 0.217433 0.5
702 28 0.285499 0.183353 0.5
690 27 0.256394 0.198656 0.5
668 24 0.284263 0.21376 0.5
556 29 0.345838 0.179818 0.5
875 33 0.314389 0.200533 0.5
709 30 0.345197 0.212476 0.5
349 39 0.400873 0.17573 0.5
593 26 0.372825 0.195994 0.5
504 37 0.401874 0.214728 0.5
581 24 0.464538 0.180062 0.5
175 41 0.435068 0.193939 0.5
626 34 0.464849 0.213616 0.5
665 39 0.520066 0.178116 0.5
866 29 0.492793 0.198293 0.5
587 35 0.522106 0.215575 0.5
531 27 0.58172 0.179453 0.5
83 31 0.553329 0.197383 0.5
42 39 0.581835 0.214472 0.5
277 27 0.640015 0.183155 0.5
125 30 0.612033 0.195553 0.5
910 30 0.639786 0.217621 0.5
578 29 0.696459 0.186664 0.5
217 32 0.667119 0.201629 0.5
980 28 0.694948 0.218103 0.5
35 36 0.726824 0.199715 0.5
156 26 0.750509 0.223292 0.5
829 26 0.759695 0.189873 0.5
553 32 0.79127 0.182087 0.5
960 38 0.825272 0.176866 0.5
177 25 0.778466 0.214391 0.5
191 36 0.813343 0.210045 0.5
911 29 0.845877 0.205653 0.5
575 32 0.878258 0.200546 0.5
480 27 0.909839 0.196029 0.5
971 22 0.924477 0.222079 0.5
512 31 0.896559 0.228187 0.5
807 24 0.9403 0.197208 0.5
196 31 0.993396 0.170758 0.5
781 29 0.952923 0.225453 0.5
41 31 0.972697 0.198128 0.5
26 38 0.0242142 0.233393 0.5
641 30 0.0572454 0.23646 0.5
959 28 0.0387626 0.264544 0.5
631 30 0.094899 0.23917 0.5
586 40 0.0738449 0.26691 0.5
793 29 0.110369 0.268732 0.5
410 38 0.130902 0.238534 0.5
616 30 0.142767 0.274522 0.5
116 24 0.16332 0.251446 0.5
532 29 0.174405 0.280474 0.5
826 30 0.197225 0.234954 0.5
594 33 0.20306 0.268833 0.5
51 31 0.228716 0.249473 0.5
186 31 0.231042 0.287759 0.5
303 29 0.257519 0.230198 0.5
928 32 0.257177 0.263424 0.5
446 29 0.286568 0.24542 0.5
77 22 0.284285 0.276279 0.5
357 35 0.319258 0.233735 0.5
412 29 0.313301 0.26684 0.5
384 40 0.34522 0.259546 0.5
893 30 0.371293 0.234033 0.5
765 25 0.37803 0.265249 0.5
814 31 0.404653 0.247642 0.5
560 29 0.404835 0.281296 0.5
296 30 0.433923 0.230872 0.5
771 26 0.432111 0.264157 0.5
730 31 0.461629 0.248504 0.5
864 26 0.460481 0.281264 0.5
133 31 0.492289 0.2326 0.5
619 32 0.488779 0.268918 0.5
1000 35 0.52049 0.250915 0.5
915 27 0.524137 0.283116 0.5
805 28 0.552087 0.233392 0.5
311 28 0.553801 0.266365 0.5
157 32 0.582802 0.247886 0.5
318 34 0.584738 0.283448 0.5
137 33 0.612994 0.234802 0.5
688 27 0.614972 0.269543 0.5
9 28 0.641958 0.252127 0.5
772 32 0.643766 0.283606 0.5
267 27 0.667583 0.235437 0.5
590 26 0.695236 0.247865 0.5
17 27 0.669677 0.266914 0.5
110 30 0.692687 0.287613 0.5
282 28 0.72207 0.234956 0.5
338 29 0.71785 0.266236 0.5
973 23 0.769253 0.242533 0.5
418 33 0.749036 0.267878 0.5
974 27 0.799625 0.239658 0.5
438 28 0.784456 0.268194 0.5
343 33 0.818406 0.266555 0.5
777 27 0.833964 0.2362 0.5
294 30 0.865308 0.232759 0.5
503 36 0.852602 0.264426 0.5
713 36 0.888115 0.260089 0.5
187 33 0.908985 0.288584 0.5
725 37 0.926138 0.255229 0.5
748 34 0.944236 0.286696 0.5
962 43 0.98773 0.232151 0.5
579 28 1.006 0.262444 0.5
95 32 0.963466 0.258495 0.5
600 35 0.0206526 0.291823 0.5
60 27 0.0532661 0.296011 0.5
422 30 0.035319 0.32245 0.5
234 33 0.0900024 0.297121 0.5
833 32 0.0695376 0.325668 0.5
563 35 0.123648 0.30215 0.5
154 29 0.102858 0.329432 0.5
111 29 0.135439 0.333951 0.5
524 33 0.159644 0.307403 0.5
441 30 0.166756 0.338721 0.5
541 32 0.2007 0.305594 0.5
576 32 0.199345 0.337375 0.5
506 36 0.234463 0.322803 0.5
20 34 0.261552 0.298675 0.5
275 32 0.284623 0.326859 0.5
92 28 0.300973 0.297616 0.5
406 30 0.336091 0.297285 0.5
126 31 0.318083 0.327288 0.5
306 28 0.350124 0.330036 0.5
767 38 0.37088 0.299968 0.5
958 24 0.378284 0.330383 0.5
62 29 0.403857 0.314037 0.5
549 30 0.433597 0.299088 0.5
324 37 0.434193 0.333442 0.5
347 42 0.465612 0.314546 0.5
23 28 0.497284 0.299612 0.5
595 34 0.496906 0.33487 0.5
323 30 0.526099 0.314011 0.5
281 26 0.553533 0.295383 0.5
496 30 0.557459 0.329842 0.5
118 27 0.584566 0.315031 0.5
870 30 0.614931 0.301549 0.5
573 30 0.613477 0.333952 0.5
584 26 0.6411 0.318604 0.5
289 24 0.669571 0.303155 0.5
853 21 0.669628 0.332846 0.5
760 27 0.694977 0.3184 0.5
999 35 0.725951 0.298999 0.5
295 33 0.725958 0.339099 0.5
341 26 0.750972 0.318575 0.5
471 25 0.768675 0.294659 0.5
381 32 0.801049 0.296675 0.5
968 36 0.782347 0.326139 0.5
119 29 0.817241 0.326696 0.5
585 32 0.836411 0.294965 0.5
188 31 0.874349 0.291569 0.5
818 26 0.843241 0.344609 0.5
632 30 0.859875 0.319065 0.5
212 26 0.874394 0.348235 0.5
789 28 0.893512 0.320385 0.5
135 29 0.92514 0.317266 0.5
790 32 0.906893 0.348884 0.5
764 36 0.982867 0.287198 0.5
22 33 0.998558 0.320447 0.5
359 33 0.961668 0.31647 0.5
447 36 0.0485368 0.353254 0.5
791 27 0.0137798 0.350297 0.5
151 36 0.0285028 0.380615 0.5
465 28 0.0631529 0.385625 0.5
925 24 0.0810152 0.358077 0.5
543 33 0.114143 0.359774 0.5
972 29 0.09521 0.388073 0.5
475 27 0.125893 0.394983 0.5
722 33 0.145991 0.367413 0.5
287 35 0.159206 0.399704 0.5
10 29 0.228213 0.355793 0.5
40 38 0.18333 0.37005 0.5
985 26 0.213083 0.382305 0.5
300 35 0.26144 0.350972 0.5
29 29 0.300349 0.356815 0.5
620 28 0.245862 0.384858 0.5
7 34 0.277871 0.383436 0.5
956 33 0.335293 0.360696 0.5
152 33 0.311953 0.387406 0.5
117 31 0.346511 0.392073 0.5
796 27 0.403326 0.347331 0.5
11 36 0.369996 0.363062 0.5
25 32 0.378247 0.398413 0.5
479 22 0.399375 0.375644 0.5
65 31 0.412202 0.404824 0.5
128 31 0.464719 0.35222 0.5
266 34 0.428855 0.369846 0.5
394 30 0.444538 0.401228 0.5
820 30 0.470953 0.385243 0.5
691 37 0.52808 0.348663 0.5
209 27 0.497522 0.36835 0.5
755 26 0.503736 0.399806 0.5
404 31 0.528857 0.384017 0.5
64 31 0.586497 0.348477 0.5
904 33 0.557834 0.364941 0.5
432 29 0.555754 0.400174 0.5
981 30 0.585542 0.384822 0.5
46 33 0.644186 0.351614 0.5
711 34 0.613317 0.368498 0.5
334 33 0.612603 0.405201 0.5
522 35 0.642521 0.387893 0.5
784 28 0.696191 0.351163 0.5
43 34 0.671299 0.372285 0.5
997 34 0.670901 0.40787 0.5
867 36 0.703311 0.385593 0.5
778 25 0.757732 0.347755 0.5
269 31 0.735202 0.37219 0.5
93 40 0.738557 0.406954 0.5
134 33 0.767026 0.381593 0.5
601 31 0.792025 0.358249 0.5
916 26 0.822649 0.366818 0.5
271 30 0.799481 0.39026 0.5
869 32 0.831871 0.398307 0.5
633 30 0.855495 0.37374 0.5
190 38 0.866397 0.404811 0.5
862 26 0.887273 0.377685 0.5
827 39 0.944013 0.348608 0.5
918 38 0.921971 0.378792 0.5
546 32 0.902121 0.40777 0.5
398 36 0.940613 0.410702 0.5
854 28 0.979543 0.347162 0.5
872 37 0.991849 0.37699 0.5
514 26 0.95797 0.379388 0.5
1 27 0.0436262 0.411421 0.5
680 29 0.0243954 0.439982 0.5
460 34 0.0560301 0.442818 0.5
204 33 0.0767125 0.416002 0.5
472 27 0.109039 0.419753 0.5
714 29 0.0896615 0.44864 0.5
804 29 0.120777 0.449674 0.5
550 26 0.140325 0.426021 0.5
286 31 0.154405 0.456296 0.5
127 24 0.17395 0.430201 0.5
535 26 0.191616 0.405599 0.5
948 35 0.224344 0.411993 0.5
640 36 0.187589 0.463286 0.5
32 23 0.201548 0.435673 0.5
717 30 0.241455 0.439482 0.5
388 27 0.260015 0.412589 0.5
45 29 0.290369 0.41592 0.5
634 20 0.271919 0.4386 0.5
235 34 0.301612 0.448666 0.5
423 33 0.322622 0.420503 0.5
226 31 0.35647 0.42456 0.5
470 30 0.337551 0.451914 0.5
732 29 0.367677 0.45472 0.5
371 29 0.387435 0.428705 0.5
79 36 0.400135 0.461663 0.5
758 24 0.41844 0.436162 0.5
327 31 0.436648 0.462282 0.5
184 27 0.44755 0.430747 0.5
816 32 0.470469 0.453656 0.5
908 23 0.529675 0.416752 0.5
108 33 0.477618 0.418557 0.5
638 44 0.506992 0.44245 0.5
297 30 0.540519 0.457411 0.5
49 28 0.581994 0.418564 0.5
602 26 0.55604 0.43055 0.5
185 35 0.578096 0.456826 0.5
635 24 0.639544 0.41865 0.5
322 24 0.604478 0.436019 0.5
123 20 0.630545 0.444984 0.5
163 26 0.610396 0.464706 0.5
50 32 0.66095 0.442332 0.5
392 30 0.702313 0.419082 0.5
630 31 0.692936 0.451087 0.5
861 34 0.726575 0.443237 0.5
654 26 0.758164 0.447188 0.5
109 40 0.776907 0.418385 0.5
675 28 0.811371 0.425679 0.5
435 25 0.789626 0.451518 0.5
285 30 0.823845 0.455838 0.5
231 31 0.845126 0.432164 0.5
240 29 0.855886 0.465087 0.5
906 37 0.880387 0.438663 0.5
401 26 0.91799 0.433992 0.5
450 25 0.905234 0.460201 0.5
946 30 0.936262 0.460942 0.5
830 29 1.01042 0.410884 0.5
194 31 0.976254 0.40757 0.5
684 26 0.958858 0.434579 0.5
19 29 0.989606 0.437037 0.5
617 33 0.969408 0.463274 0.5
624 25 0.0357349 0.469349 0.5
942 26 0.0494879 0.499433 0.5
610 30 0.0157566 0.494389 0.5
145 26 0.0653063 0.474146 0.5
129 35 0.0980989 0.479272 0.5
344 23 0.0810152 0.50477 0.5
82 33 0.113857 0.511239 0.5
739 40 0.135686 0.482483 0.5
320 33 0.148418 0.515681 0.5
554 29 0.167917 0.489627 0.5
913 29 0.181399 0.519681 0.5
99 26 0.221189 0.465603 0.5
449 27 0.201706 0.491774 0.5
13 31 0.233359 0.495444 0.5
399 33 0.254561 0.470569 0.5
246 33 0.286118 0.477064 0.5
417 26 0.266667 0.503021 0.5
370 36 0.301494 0.510897 0.5
486 36 0.320594 0.480086 0.5
284 34 0.33644 0.513719 0.5
883 35 0.353503 0.485066 0.5
800 24 0.369646 0.51654 0.5
840 27 0.386637 0.489834 0.5
411 31 0.404077 0.518824 0.5
337 29 0.420351 0.490147 0.5
978 24 0.435723 0.517596 0.5
932 28 0.449757 0.488169 0.5
362 32 0.467322 0.514347 0.5
520 31 0.481592 0.484104 0.5
604 23 0.50053 0.509686 0.5
198 34 0.515427 0.48056 0.5
850 25 0.531725 0.507098 0.5
454 31 0.55271 0.485723 0.5
292 29 0.567241 0.517342 0.5
195 36 0.585636 0.491535 0.5
678 30 0.642228 0.472299 0.5
527 29 0.598818 0.524933 0.5
354 34 0.618919 0.497718 0.5
605 25 0.674319 0.476552 0.5
599 33 0.654183 0.503361 0.5
695 23 0.705028 0.480294 0.5
474 28 0.686247 0.504644 0.5
142 31 0.734961 0.476166 0.5
56 28 0.719012 0.50747 0.5
299 26 0.749827 0.506377 0.5
254 32 0.768491 0.478568 0.5
683 33 0.801484 0.48048 0.5
726 30 0.784649 0.507034 0.5
489 23 0.815021 0.509493 0.5
696 28 0.834183 0.486197 0.5
868 37 0.860881 0.508812 0.5
477 31 0.884002 0.481608 0.5
237 34 0.897229 0.513416 0.5
643 28 0.918566 0.487304 0.5
567 29 0.931827 0.51625 0.5
205 28 1.00315 0.465573 0.5
801 27 0.950333 0.491069 0.5
718 22 0.996156 0.522052 0.5
160 29 0.983139 0.492972 0.5
351 31 0.965025 0.520986 0.5
74 34 0.0300795 0.524108 0.5
970 24 0.0630738 0.527057 0.5
828 29 0.0423968 0.551714 0.5
894 28 0.0243621 0.576531 0.5
248 26 0.0103621 0.54823 0.5
48 26 0.0928573 0.534113 0.5
989 34 0.0728509 0.559713 0.5
315 29 0.10623 0.564341 0.5
907 28 0.127914 0.541707 0.5
439 28 0.139522 0.569277 0.5
865 23 0.161449 0.545474 0.5
213 31 0.171797 0.574799 0.5
53 34 0.213929 0.523728 0.5
86 30 0.247279 0.527896 0.5
903 31 0.193999 0.549731 0.5
387 29 0.205768 0.580344 0.5
657 26 0.226716 0.556239 0.5
572 33 0.280202 0.536049 0.5
667 27 0.256911 0.561235 0.5
291 27 0.293751 0.566137 0.5
547 33 0.315947 0.542742 0.5
386 35 0.331086 0.575283 0.5
437 32 0.349661 0.543957 0.5
526 30 0.366006 0.576502 0.5
69 34 0.383108 0.545527 0.5
481 30 0.400179 0.575322 0.5
59 25 0.4167 0.547226 0.5
507 29 0.44987 0.543774 0.5
937 32 0.433494 0.574015 0.5
808 27 0.467109 0.571305 0.5
321 31 0.484569 0.543345 0.5
159 33 0.517179 0.536542 0.5
3 33 0.501937 0.571194 0.5
773 22 0.546204 0.535222 0.5
979 34 0.538155 0.564246 0.5
30 32 0.57595 0.5512 0.5
335 33 0.632472 0.528778 0.5
373 34 0.609888 0.560957 0.5
774 33 0.646984 0.562205 0.5
570 33 0.668791 0.532914 0.5
147 30 0.70134 0.534096 0.5
463 27 0.681809 0.564375 0.5
276 34 0.733935 0.538576 0.5
98 34 0.768624 0.536778 0.5
308 27 0.713584 0.564254 0.5
221 24 0.750639 0.566275 0.5
876 31 0.803446 0.53546 0.5
319 30 0.786135 0.565364 0.5
495 32 0.821299 0.565475 0.5
880 38 0.836882 0.535565 0.5
149 28 0.856181 0.566095 0.5
468 28 0.875176 0.540721 0.5
724 38 0.88924 0.573445 0.5
342 38 0.911816 0.546926 0.5
992 36 0.929683 0.5778 0.5
647 30 0.946316 0.547174 0.5
207 31 0.979146 0.552597 0.5
539 31 0.052938 0.590207 0.5
261 36 0.0554645 0.624942 0.5
236 39 0.0172726 0.609755 0.5
909 28 0.0860403 0.59174 0.5
775 33 0.119567 0.596003 0.5
466 40 0.0919904 0.621668 0.5
518 30 0.126884 0.630128 0.5
433 26 0.152016 0.600508 0.5
947 33 0.161763 0.632767 0.5
419 33 0.184021 0.604802 0.5
552 30 0.238881 0.58661 0.5
884 35 0.19483 0.63829 0.5
670 33 0.218137 0.612146 0.5
352 28 0.27245 0.589655 0.5
316 37 0.251237 0.617683 0.5
954 25 0.284865 0.619348 0.5
627 32 0.305318 0.59556 0.5
5 33 0.318502 0.626545 0.5
15 33 0.349008 0.606403 0.5
494 24 0.346855 0.638868 0.5
189 16 0.383264 0.600922 0.5
391 26 0.374683 0.628889 0.5
735 28 0.404619 0.635355 0.5
825 35 0.414854 0.604179 0.5
192 35 0.437377 0.6332 0.5
256 33 0.450302 0.60258 0.5
598 33 0.471575 0.631447 0.5
453 26 0.484735 0.598088 0.5
395 28 0.527916 0.594678 0.5
817 35 0.508647 0.62467 0.5
268 41 0.565027 0.588144 0.5
302 27 0.543811 0.622919 0.5
562 36 0.578225 0.619608 0.5
681 25 0.599391 0.592368 0.5
810 31 0.632705 0.593519 0.5
76 27 0.613316 0.61937 0.5
899 24 0.646401 0.622306 0.5
975 28 0.665729 0.591795 0.5
183 28 0.697217 0.592413 0.5
484 33 0.679073 0.62108 0.5
759 35 0.733064 0.590631 0.5
780 29 0.766825 0.593694 0.5
501 34 0.714247 0.619852 0.5
436 31 0.750034 0.622416 0.5
88 39 0.803986 0.596256 0.5
922 35 0.784366 0.624991 0.5
656 23 0.817728 0.628106 0.5
839 28 0.839654 0.595155 0.5
878 32 0.850194 0.627908 0.5
931 30 0.872781 0.602385 0.5
612 28 0.890858 0.630361 0.5
200 34 0.909666 0.604893 0.5
238 26 0.927597 0.634145 0.5
969 29 0.944912 0.609342 0.5
131 28 0.964777 0.580968 0.5
747 25 0.993223 0.580991 0.5
515 29 0.961537 0.6374 0.5
219 28 0.979405 0.610786 0.5
161 28 0.0288108 0.643471 0.5
516 38 0.0519915 0.669953 0.5
224 30 0.0262815 0.697099 0.5
67 30 0.00984037 0.667865 0.5
172 22 0.0755059 0.650048 0.5
490 31 0.105178 0.655912 0.5
721 28 0.0844196 0.680245 0.5
462 29 0.117305 0.684543 0.5
61 32 0.137412 0.661024 0.5
247 25 0.151402 0.689567 0.5
731 34 0.172424 0.666232 0.5
639 23 0.231432 0.642013 0.5
623 35 0.187108 0.697312 0.5
222 32 0.207962 0.671771 0.5
181 31 0.220719 0.701259 0.5
330 28 0.260067 0.649635 0.5
559 32 0.24107 0.674382 0.5
650 29 0.274704 0.679195 0.5
150 37 0.294657 0.653028 0.5
122 30 0.305905 0.686074 0.5
218 24 0.327337 0.661721 0.5
220 30 0.338655 0.692242 0.5
304 28 0.358389 0.666284 0.5
890 33 0.390546 0.665621 0.5
682 35 0.37334 0.696706 0.5
525 27 0.408693 0.693738 0.5
982 32 0.425867 0.666134 0.5
355 31 0.446656 0.691585 0.5
537 28 0.458109 0.662288 0.5
366 29 0.479194 0.688578 0.5
16 31 0.491769 0.657627 0.5
741 33 0.526597 0.653498 0.5
243 32 0.51282 0.686426 0.5
153 36 0.561714 0.654185 0.5
877 29 0.546365 0.684563 0.5
919 25 0.579723 0.685273 0.5
558 31 0.595902 0.647354 0.5
955 28 0.630898 0.648276 0.5
669 38 0.612715 0.679606 0.5
139 29 0.647 0.675556 0.5
499 21 0.666152 0.647513 0.5
314 31 0.698497 0.649692 0.5
609 30 0.679094 0.676052 0.5
356 26 0.697321 0.699452 0.5
588 27 0.732509 0.649101 0.5
842 28 0.76402 0.65125 0.5
719 24 0.71546 0.673135 0.5
924 26 0.745847 0.675697 0.5
660 28 0.727717 0.700896 0.5
945 34 0.776818 0.683042 0.5
843 34 0.798316 0.655766 0.5
622 29 0.814057 0.684682 0.5
858 32 0.832122 0.656509 0.5
663 32 0.849523 0.686103 0.5
757 37 0.869447 0.656644 0.5
510 34 0.884594 0.68792 0.5
613 28 0.905745 0.659199 0.5
697 35 0.919379 0.6902 0.5
502 26 0.938823 0.661163 0.5
642 31 0.995906 0.638133 0.5
710 36 0.95371 0.691315 0.5
889 28 0.977111 0.664233 0.5
505 32 0.990894 0.694116 0.5
81 28 0.0609995 0.702963 0.5
113 34 0.039846 0.730008 0.5
242 35 0.0164996 0.754511 0.5
197 29 0.0979099 0.709515 0.5
339 35 0.0753926 0.73476 0.5
168 36 0.110219 0.742807 0.5
257 33 0.131256 0.71465 0.5
941 29 0.143362 0.748706 0.5
819 30 0.163116 0.72116 0.5
738 32 0.176561 0.75239 0.5
451 32 0.198529 0.728598 0.5
255 29 0.211563 0.758646 0.5
921 36 0.231769 0.731732 0.5
835 32 0.254604 0.706015 0.5
78 22 0.287392 0.710789 0.5
473 31 0.26656 0.737601 0.5
863 27 0.319632 0.714803 0.5
230 31 0.297082 0.739979 0.5
523 23 0.328988 0.742666 0.5
148 33 0.355113 0.727125 0.5
993 30 0.380333 0.752596 0.5
253 30 0.395112 0.722945 0.5
896 30 0.415859 0.750128 0.5
390 32 0.430028 0.719282 0.5
408 28 0.464258 0.717956 0.5
844 32 0.449931 0.748462 0.5
178 24 0.482332 0.746004 0.5
173 30 0.496984 0.717327 0.5
708 27 0.529568 0.713209 0.5
107 30 0.514161 0.745566 0.5
782 28 0.563621 0.71231 0.5
444 33 0.549167 0.742205 0.5
551 30 0.584985 0.737262 0.5
591 27 0.599708 0.709385 0.5
930 27 0.633826 0.706339 0.5
482 30 0.617991 0.733821 0.5
415 25 0.649696 0.731345 0.5
340 23 0.662922 0.701388 0.5
63 29 0.681214 0.727768 0.5
836 29 0.667188 0.758109 0.5
229 32 0.700895 0.752443 0.5
703 30 0.759257 0.710846 0.5
583 25 0.713131 0.724666 0.5
895 29 0.740113 0.739067 0.5
89 30 0.771653 0.741033 0.5
258 37 0.79459 0.714762 0.5
55 28 0.816578 0.739911 0.5
689 30 0.830845 0.714036 0.5
182 32 0.865843 0.715827 0.5
396 31 0.850796 0.744291 0.5
223 21 0.881039 0.743273 0.5
483 28 0.898498 0.719906 0.5
891 33 0.91205 0.75147 0.5
38 29 0.930231 0.721668 0.5
846 33 0.948568 0.749352 0.5
146 26 1.00563 0.722809 0.5
459 35 0.971733 0.723098 0.5
813 30 0.98167 0.755814 0.5
498 30 0.0526831 0.761275 0.5
685 30 0.0314903 0.785601 0.5
215 28 0.063934 0.791118 0.5
694 31 0.0113545 0.814271 0.5
743 32 0.087807 0.769092 0.5
37 29 0.100767 0.801392 0.5
984 32 0.121443 0.775201 0.5
442 34 0.135222 0.807303 0.5
565 28 0.153479 0.778379 0.5
380 37 0.168151 0.809723 0.5
455 31 0.191198 0.783644 0.5
659 34 0.205039 0.816593 0.5
180 32 0.225668 0.787598 0.5
900 26 0.240321 0.818886 0.5
831 29 0.248767 0.764243 0.5
860 30 0.282554 0.76894 0.5
58 28 0.258895 0.792008 0.5
536 28 0.271969 0.818822 0.5
414 34 0.315945 0.770279 0.5
509 27 0.351581 0.758944 0.5
430 33 0.302116 0.801684 0.5
467 31 0.336422 0.795801 0.5
763 33 0.368395 0.786621 0.5
934 26 0.390749 0.811675 0.5
649 35 0.401626 0.780098 0.5
752 27 0.421981 0.803751 0.5
715 24 0.435162 0.77599 0.5
413 27 0.47019 0.773713 0.5
102 24 0.453349 0.798573 0.5
241 33 0.484148 0.804285 0.5
824 31 0.500188 0.773732 0.5
214 33 0.51965 0.803239 0.5
582 29 0.534654 0.773799 0.5
52 36 0.569343 0.769572 0.5
926 33 0.554926 0.800625 0.5
211 21 0.587798 0.79735 0.5
164 33 0.604401 0.764503 0.5
746 25 0.637056 0.761017 0.5
655 29 0.624239 0.792092 0.5
420 33 0.657114 0.789528 0.5
990 38 0.691427 0.785562 0.5
485 34 0.679664 0.816416 0.5
397 32 0.761004 0.77242 0.5
940 28 0.715435 0.807255 0.5
528 33 0.727467 0.774878 0.5
569 32 0.747233 0.803531 0.5
943 42 0.795988 0.767951 0.5
379 27 0.781301 0.800311 0.5
849 34 0.815453 0.799524 0.5
998 31 0.832912 0.768755 0.5
873 32 0.867064 0.772739 0.5
328 24 0.848747 0.797534 0.5
987 34 0.878398 0.809103 0.5
589 25 0.897618 0.780716 0.5
905 30 0.913286 0.808727 0.5
262 32 0.930332 0.780145 0.5
143 30 0.945789 0.808323 0.5
193 28 0.998514 0.783032 0.5
976 24 0.962672 0.778013 0.5
298 37 0.977187 0.808697 0.5
487 30 0.0435545 0.814852 0.5
811 27 0.0206045 0.845371 0.5
18 39 0.0539011 0.848986 0.5
227 31 0.0776619 0.82468 0.5
461 32 0.111659 0.833084 0.5
608 30 0.087006 0.856739 0.5
469 35 0.121165 0.867463 0.5
511 36 0.146007 0.841695 0.5
809 27 0.167424 0.872045 0.5
577 35 0.182655 0.842158 0.5
71 33 0.199313 0.872404 0.5
852 33 0.222586 0.845236 0.5
389 38 0.23571 0.879146 0.5
203 38 0.258328 0.849908 0.5
31 24 0.285881 0.869575 0.5
14 29 0.294523 0.840241 0.5
409 30 0.325296 0.826749 0.5
769 29 0.358777 0.819129 0.5
953 29 0.31872 0.860096 0.5
629 26 0.348916 0.854916 0.5
592 26 0.373599 0.874901 0.5
961 30 0.412996 0.834756 0.5
798 34 0.381205 0.842687 0.5
114 26 0.403584 0.867444 0.5
671 26 0.444081 0.825919 0.5
898 28 0.438882 0.855816 0.5
580 28 0.461821 0.874232 0.5
445 34 0.471723 0.841791 0.5
425 32 0.503757 0.83431 0.5
372 27 0.495336 0.870872 0.5
452 33 0.525292 0.862554 0.5
301 35 0.540105 0.831445 0.5
250 30 0.573246 0.828272 0.5
838 24 0.561604 0.858573 0.5
744 33 0.595045 0.853994 0.5
158 34 0.606815 0.823045 0.5
912 37 0.643991 0.821612 0.5
75 23 0.626022 0.848738 0.5
737 33 0.648652 0.873234 0.5
994 29 0.664526 0.84789 0.5
365 28 0.687642 0.871315 0.5
561 31 0.701102 0.842058 0.5
208 31 0.768433 0.830546 0.5
138 31 0.721698 0.86728 0.5
312 37 0.73559 0.83589 0.5
676 31 0.757597 0.861794 0.5
644 30 0.805465 0.831834 0.5
332 27 0.788575 0.856718 0.5
115 24 0.828725 0.851523 0.5
648 26 0.83607 0.822824 0.5
272 35 0.86296 0.841245 0.5
964 33 0.882671 0.871629 0.5
538 33 0.898714 0.839655 0.5
393 37 0.919278 0.871083 0.5
712 29 0.931387 0.83785 0.5
350 19 0.961023 0.83986 0.5
80 30 0.956178 0.871029 0.5
513 28 0.992541 0.873967 0.5
706 32 0.989673 0.841222 0.5
279 32 0.027753 0.876365 0.5
290 31 0.0428944 0.90888 0.5
705 29 0.0241106 0.935746 0.5
170 33 0.00828824 0.904723 0.5
448 32 0.0631824 0.8824 0.5
597 25 0.0952104 0.888345 0.5
488 27 0.0774641 0.913603 0.5
216 40 0.11367 0.916057 0.5
851 31 0.143274 0.892376 0.5
280 37 0.148879 0.92728 0.5
517 35 0.179296 0.90407 0.5
169 23 0.210625 0.901542 0.5
756 29 0.207707 0.93231 0.5
847 36 0.237555 0.918128 0.5
385 31 0.271542 0.902264 0.5
239 34 0.266839 0.938309 0.5
699 24 0.341418 0.883047 0.5
374 34 0.309593 0.891344 0.5
274 28 0.297373 0.92257 0.5
753 32 0.330796 0.917194 0.5
701 36 0.364346 0.909169 0.5
834 31 0.400303 0.899645 0.5
646 28 0.428088 0.885036 0.5
845 28 0.425868 0.920487 0.5
104 26 0.451504 0.902428 0.5
788 33 0.481838 0.901447 0.5
874 36 0.505035 0.926692 0.5
57 32 0.515989 0.895952 0.5
497 32 0.540266 0.918826 0.5
749 28 0.549564 0.887963 0.5
603 29 0.581807 0.884886 0.5
72 26 0.570812 0.915517 0.5
91 26 0.615707 0.87836 0.5
797 31 0.604289 0.909293 0.5
799 28 0.637975 0.904707 0.5
742 31 0.657526 0.92794 0.5
704 34 0.670934 0.897952 0.5
416 33 0.69158 0.930569 0.5
382 36 0.707729 0.89897 0.5
768 31 0.74216 0.891288 0.5
986 29 0.731401 0.922538 0.5
611 35 0.766171 0.915601 0.5
938 24 0.778496 0.88396 0.5
857 38 0.81223 0.88041 0.5
155 30 0.798797 0.910972 0.5
378 31 0.848401 0.87436 0.5
806 28 0.836468 0.905954 0.5
920 29 0.868942 0.90275 0.5
68 31 0.854686 0.932253 0.5
456 31 0.888033 0.931398 0.5
210 28 0.900797 0.901127 0.5
762 32 0.921666 0.929889 0.5
249 33 0.93949 0.900323 0.5
33 30 0.955414 0.929775 0.5
754 31 0.973304 0.899137 0.5
939 36 0.98876 0.932501 0.5
429 28 0.0574105 0.938707 0.5
260 29 0.0453063 0.994049 0.5
933 29 0.0378128 0.964734 0.5
28 28 0.0900991 0.944253 0.5
24 30 0.0707179 0.97084 0.5
881 27 0.119263 0.952519 0.5
367 28 0.102747 0.978407 0.5
167 27 0.178175 0.943968 0.5
770 39 0.137395 0.988776 0.5
673 28 0.150369 0.95892 0.5
996 27 0.174152 0.97827 0.5
325 32 0.233075 0.953005 0.5
991 32 0.201415 0.995785 0.5
935 26 0.202366 0.965438 0.5
888 28 0.23103 0.983337 0.5
96 30 0.283888 0.992361 0.5
263 29 0.260898 0.970475 0.5
927 32 0.293343 0.957684 0.5
493 26 0.353669 0.940336 0.5
144 33 0.316112 0.982525 0.5
914 26 0.325089 0.949363 0.5
651 25 0.345981 0.970553 0.5
492 38 0.395105 0.936169 0.5
871 29 0.373681 0.96397 0.5
464 30 0.401071 0.975993 0.5
957 35 0.458351 0.93525 0.5
666 32 0.428681 0.9548 0.5
944 29 0.430976 0.991138 0.5
508 28 0.456981 0.972886 0.5
761 29 0.482535 0.991875 0.5
440 38 0.486302 0.957328 0.5
358 28 0.526505 0.952172 0.5
112 26 0.511764 0.97977 0.5
265 39 0.545187 0.98302 0.5
103 32 0.55925 0.947397 0.5
637 28 0.580136 0.974973 0.5
795 35 0.594285 0.943033 0.5
963 27 0.62701 0.933964 0.5
855 31 0.618166 0.965279 0.5
12 34 0.654197 0.959251 0.5
307 32 0.673927 0.989028 0.5
360 20 0.68642 0.961283 0.5
225 34 0.706495 0.98617 0.5
745 34 0.716389 0.952994 0.5
677 37 0.750617 0.948519 0.5
615 28 0.739218 0.980921 0.5
310 33 0.821134 0.936848 0.5
270 31 0.78693 0.943356 0.5
346 29 0.774937 0.977621 0.5
353 29 0.806782 0.970963 0.5
803 31 0.84119 0.963328 0.5
574 23 0.859889 0.986157 0.5
97 24 0.872882 0.960947 0.5
936 26 0.889433 0.985702 0.5
751 25 0.918532 0.984898 0.5
377 28 0.903839 0.958589 0.5
700 27 0.935945 0.960235 0.5
923 33 0.949888 0.990603 0.5
202 37 1.00627 0.965981 0.5
171 33 0.984741 0.994423 0.5
34 31 0.969817 0.96126 0.5
