ITEM: TIMESTEP
250000
ITEM: NUMBER OF ATOMS
1000
ITEM: BOX BOUNDS pp pp pp
-1.7008838000000001e+01 1.7008838000000001e+01
-1.7008838000000001e+01 1.7008838000000001e+01
-5.0000000000000000e-01 5.0000000000000000e-01
ITEM: ATOMS id type xs ys zs
756 30 0.0294164 0.0491952 0.5
837 31 0.0389515 0.0136077 0.5
564 29 0.00518179 0.0274652 0.5
369 32 0.061223 0.0390731 0.5
407 29 0.0977245 0.0231529 0.5
171 32 0.0885 0.055718 0.5
273 29 0.119789 0.0448959 0.5
427 31 0.128256 0.014553 0.5
848 30 0.152445 0.0344608 0.5
169 27 0.160376 -0.00154886 0.5
389 34 0.184338 0.0202597 0.5
376 34 0.209306 0.0444511 0.5
621 29 0.220372 0.0136196 0.5
96 30 0.244112 0.0379129 0.5
54 30 0.275821 0.0283104 0.5
991 31 0.250381 0.00451141 0.5
935 28 0.308703 0.0153941 0.5
888 29 0.329641 0.0387894 0.5
201 32 0.298806 0.0525041 0.5
664 31 0.340562 0.00641822 0.5
671 28 0.360899 0.0315886 0.5
104 28 0.393567 0.0232601 0.5
452 32 0.423321 0.0132898 0.5
950 31 0.416459 0.0482865 0.5
424 27 0.445934 0.0336076 0.5
402 33 0.485308 0.027489 0.5
799 29 0.460977 0.00530995 0.5
912 34 0.51853 0.022264 0.5
94 28 0.540386 0.0458851 0.5
91 28 0.551161 0.0169025 0.5
121 31 0.508548 0.0528754 0.5
443 29 0.577579 0.0348337 0.5
416 32 0.6083 0.0274895 0.5
530 30 0.599318 0.0587937 0.5
892 27 0.643201 0.0140587 0.5
21 31 0.634846 0.0441361 0.5
106 26 0.67192 0.00786997 0.5
165 27 0.666491 0.0388781 0.5
521 31 0.694386 0.0270962 0.5
923 32 0.720968 0.0499202 0.5
283 33 0.729556 0.0168721 0.5
346 30 0.75454 0.0398121 0.5
97 27 0.764441 0.00809666 0.5
375 30 0.785311 0.032261 0.5
776 31 0.822167 0.0240701 0.5
393 34 0.795757 -0.000251059 0.5
762 31 0.847521 0.0462424 0.5
614 30 0.880235 0.0350288 0.5
939 33 0.853259 0.0115639 0.5
806 29 0.889175 0.00522577 0.5
736 28 0.915902 0.0274961 0.5
983 31 0.938306 0.0514628 0.5
618 33 0.947666 0.020519 0.5
155 30 0.971578 0.0435296 0.5
596 29 0.978224 0.0120166 0.5
542 31 0.0227808 0.0820424 0.5
24 30 0.0469613 0.101617 0.5
199 33 -0.00290532 0.0587144 0.5
712 30 0.0547066 0.0710949 0.5
532 30 0.0794625 0.0903611 0.5
87 30 0.113429 0.0781461 0.5
770 35 0.145812 0.0661369 0.5
293 33 0.136716 0.0994962 0.5
815 30 0.168191 0.090615 0.5
357 33 0.177234 0.0550341 0.5
162 31 0.201191 0.0774649 0.5
707 37 0.233575 0.0703217 0.5
333 30 0.267435 0.0613638 0.5
690 29 0.256768 0.0957732 0.5
709 30 0.224304 0.103907 0.5
348 29 0.286961 0.0879161 0.5
734 31 0.317539 0.0814896 0.5
4 31 0.381656 0.0556 0.5
949 32 0.343113 0.101514 0.5
440 34 0.349829 0.0664448 0.5
384 35 0.374501 0.0896294 0.5
988 26 0.413334 0.077261 0.5
491 30 0.437361 0.101915 0.5
73 31 0.444607 0.0693404 0.5
607 33 0.477741 0.0603545 0.5
497 31 0.468644 0.0940981 0.5
952 32 0.501385 0.0890912 0.5
887 31 0.533197 0.078759 0.5
360 25 0.556227 0.102798 0.5
874 33 0.567198 0.066798 0.5
217 31 0.588638 0.0919557 0.5
329 32 0.624701 0.0831326 0.5
363 28 0.656203 0.0706684 0.5
566 31 0.651256 0.101815 0.5
100 32 0.689685 0.0588507 0.5
176 31 0.681201 0.0915192 0.5
679 35 0.713771 0.0816925 0.5
803 31 0.746287 0.0722679 0.5
698 27 0.77517 0.0971237 0.5
418 32 0.739589 0.106061 0.5
85 27 0.810269 0.0530062 0.5
652 35 0.779967 0.0644435 0.5
901 33 0.807747 0.0851842 0.5
723 30 0.840629 0.0779503 0.5
377 29 0.873698 0.0664633 0.5
345 31 0.868966 0.0963099 0.5
353 30 0.905434 0.0589004 0.5
244 30 0.900369 0.0941237 0.5
405 30 0.930447 0.0830394 0.5
548 33 0.956745 0.104587 0.5
751 28 0.96718 0.0748844 0.5
754 31 0.991462 0.0939364 0.5
259 26 0.0149635 0.115598 0.5
586 35 0.0406383 0.136255 0.5
120 30 0.00837094 0.146259 0.5
720 30 0.104905 0.111687 0.5
686 30 0.0667455 0.154876 0.5
636 27 0.0752864 0.120685 0.5
792 31 0.0979888 0.147316 0.5
66 31 0.131753 0.131109 0.5
140 30 0.153695 0.16011 0.5
902 30 0.161811 0.120146 0.5
786 34 0.185521 0.147657 0.5
885 28 0.192452 0.111151 0.5
361 31 0.214972 0.133108 0.5
728 32 0.248064 0.127647 0.5
702 29 0.272905 0.152125 0.5
785 32 0.23786 0.160257 0.5
368 31 0.312762 0.113148 0.5
645 31 0.280463 0.119506 0.5
228 29 0.303913 0.14311 0.5
412 30 0.331345 0.169404 0.5
977 33 0.338173 0.135426 0.5
761 30 0.368163 0.12396 0.5
232 29 0.365274 0.156387 0.5
740 32 0.403192 0.108996 0.5
296 30 0.395928 0.14725 0.5
626 32 0.428608 0.137683 0.5
476 27 0.451354 0.160639 0.5
666 31 0.488775 0.119287 0.5
225 32 0.459753 0.132041 0.5
500 35 0.484082 0.151385 0.5
309 32 0.52367 0.1116 0.5
658 33 0.518817 0.144263 0.5
44 32 0.54817 0.134144 0.5
821 29 0.578554 0.123348 0.5
431 31 0.573618 0.154628 0.5
529 30 0.607547 0.143678 0.5
278 32 0.617251 0.113856 0.5
864 28 0.645713 0.134534 0.5
426 27 0.667775 0.155722 0.5
277 29 0.678231 0.126403 0.5
606 32 0.707899 0.114096 0.5
471 28 0.699291 0.147082 0.5
289 27 0.73005 0.139021 0.5
264 31 0.764589 0.130643 0.5
829 28 0.790102 0.155052 0.5
879 32 0.79854 0.119126 0.5
39 29 0.822589 0.137984 0.5
177 28 0.834712 0.108233 0.5
519 28 0.855842 0.131691 0.5
2 30 0.877885 0.155297 0.5
233 29 0.887858 0.124307 0.5
428 29 0.925148 0.114541 0.5
313 32 0.914179 0.144583 0.5
781 30 0.948011 0.137541 0.5
662 31 0.981818 0.12624 0.5
729 27 0.972896 0.156142 0.5
897 31 0.0311925 0.168817 0.5
631 30 0.0243865 0.200332 0.5
628 31 0.0592378 0.186398 0.5
480 29 0.0903704 0.177666 0.5
764 33 0.081081 0.211542 0.5
429 29 0.113338 0.199355 0.5
130 30 0.122655 0.169123 0.5
787 29 0.14548 0.191683 0.5
555 30 0.179698 0.18507 0.5
8 28 0.208868 0.171672 0.5
179 31 0.20389 0.204799 0.5
534 32 0.166937 0.216382 0.5
616 30 0.233505 0.193553 0.5
693 30 0.263535 0.183865 0.5
882 33 0.261219 0.219232 0.5
765 28 0.291243 0.208453 0.5
36 33 0.299066 0.175428 0.5
794 31 0.320732 0.199921 0.5
581 27 0.354837 0.190751 0.5
556 30 0.381365 0.214039 0.5
587 33 0.387854 0.182492 0.5
875 32 0.349913 0.220905 0.5
421 32 0.421227 0.170633 0.5
92 29 0.41467 0.202403 0.5
65 31 0.445675 0.191832 0.5
175 36 0.478397 0.185779 0.5
406 30 0.469392 0.218511 0.5
688 29 0.543022 0.168187 0.5
893 30 0.503857 0.209163 0.5
866 30 0.51266 0.17548 0.5
531 29 0.536118 0.202318 0.5
251 31 0.568621 0.185943 0.5
9 29 0.600369 0.174866 0.5
17 29 0.593967 0.205614 0.5
206 31 0.563692 0.2176 0.5
101 29 0.634105 0.163584 0.5
267 29 0.625389 0.19638 0.5
383 32 0.656151 0.188292 0.5
999 33 0.682718 0.211567 0.5
478 30 0.690471 0.178796 0.5
974 29 0.71365 0.202529 0.5
166 30 0.754591 0.160685 0.5
540 32 0.722537 0.171522 0.5
973 27 0.746239 0.193334 0.5
191 33 0.769643 0.214918 0.5
156 28 0.780334 0.183654 0.5
822 32 0.814796 0.175143 0.5
557 33 0.803282 0.207749 0.5
141 31 0.847279 0.164072 0.5
343 32 0.838752 0.199651 0.5
545 34 0.870525 0.189086 0.5
716 30 0.896677 0.211493 0.5
326 36 0.903865 0.176465 0.5
41 31 0.9258 0.201657 0.5
336 33 0.941154 0.170768 0.5
288 33 0.996714 0.17781 0.5
959 29 0.966464 0.191479 0.5
196 31 0.991053 0.211704 0.5
713 33 0.0496791 0.226483 0.5
95 31 0.0395539 0.260402 0.5
512 31 0.0181606 0.231511 0.5
600 33 0.00745514 0.265215 0.5
951 30 0.0748881 0.247245 0.5
929 32 0.106277 0.232991 0.5
917 34 0.137618 0.223695 0.5
641 30 0.129401 0.255962 0.5
22 32 0.161347 0.250323 0.5
967 28 0.192753 0.239671 0.5
7 32 0.188187 0.270349 0.5
985 28 0.220748 0.258036 0.5
458 33 0.229201 0.226567 0.5
541 31 0.250347 0.252352 0.5
331 29 0.283816 0.244406 0.5
956 32 0.314668 0.23191 0.5
410 34 0.307682 0.266594 0.5
965 30 0.27391 0.276241 0.5
105 31 0.340087 0.256078 0.5
349 35 0.375021 0.246071 0.5
112 28 0.438399 0.2233 0.5
303 30 0.410441 0.23359 0.5
133 31 0.426445 0.260748 0.5
771 28 0.396776 0.274653 0.5
23 29 0.455672 0.24808 0.5
692 29 0.493577 0.239319 0.5
730 31 0.482217 0.269991 0.5
619 31 0.528403 0.232753 0.5
125 30 0.516094 0.262408 0.5
70 29 0.550245 0.256245 0.5
311 29 0.58256 0.244579 0.5
137 32 0.577772 0.276665 0.5
364 31 0.645214 0.219933 0.5
910 30 0.607877 0.263824 0.5
590 28 0.615015 0.232561 0.5
47 31 0.646092 0.252183 0.5
282 29 0.676891 0.242607 0.5
578 30 0.707748 0.235627 0.5
911 30 0.700669 0.267174 0.5
544 29 0.738073 0.224008 0.5
784 29 0.732049 0.258055 0.5
553 31 0.762415 0.248658 0.5
188 31 0.797 0.241064 0.5
533 32 0.82309 0.262183 0.5
585 31 0.788127 0.270718 0.5
971 26 0.861418 0.222587 0.5
575 31 0.829286 0.228652 0.5
294 30 0.855371 0.255477 0.5
579 29 0.884685 0.241083 0.5
807 27 0.924979 0.232762 0.5
793 30 0.912186 0.260041 0.5
60 29 0.947568 0.254469 0.5
960 34 0.955712 0.220652 0.5
109 35 0.981762 0.243606 0.5
826 30 0.0311241 0.294129 0.5
962 37 -0.00294292 0.298124 0.5
465 29 0.0198057 0.325092 0.5
26 34 0.0960358 0.273811 0.5
750 31 0.0558084 0.316243 0.5
111 30 0.0633063 0.283669 0.5
234 32 0.0893333 0.307149 0.5
872 34 0.122947 0.296478 0.5
812 29 0.155489 0.284019 0.5
972 30 0.149264 0.316782 0.5
154 30 0.179678 0.310462 0.5
51 31 0.209652 0.297681 0.5
563 33 0.236328 0.316852 0.5
668 27 0.2435 0.285293 0.5
423 32 0.270274 0.313273 0.5
40 34 0.299317 0.297699 0.5
928 31 0.32506 0.326428 0.5
665 35 0.332855 0.2897 0.5
506 33 0.365109 0.279815 0.5
504 34 0.358314 0.313981 0.5
593 28 0.390795 0.304552 0.5
77 26 0.424491 0.296799 0.5
394 30 0.417819 0.326121 0.5
128 31 0.454633 0.284313 0.5
767 34 0.449295 0.318239 0.5
275 31 0.480365 0.30489 0.5
157 31 0.54372 0.287103 0.5
404 31 0.51187 0.295818 0.5
42 35 0.535911 0.321376 0.5
1000 33 0.503145 0.329071 0.5
347 36 0.566431 0.309059 0.5
691 34 0.603211 0.300661 0.5
805 29 0.592162 0.332683 0.5
727 33 0.630086 0.323356 0.5
118 29 0.635598 0.288108 0.5
625 31 0.660953 0.307841 0.5
816 31 0.669594 0.277751 0.5
318 32 0.695615 0.300811 0.5
341 28 0.722059 0.32205 0.5
110 30 0.725545 0.287941 0.5
438 29 0.756008 0.282184 0.5
760 29 0.752153 0.314805 0.5
818 28 0.782876 0.306801 0.5
601 31 0.81742 0.294339 0.5
918 34 0.808842 0.326925 0.5
853 26 0.849084 0.285804 0.5
503 33 0.842798 0.317079 0.5
135 30 0.875217 0.304897 0.5
633 30 0.883104 0.271727 0.5
748 32 0.907215 0.292878 0.5
791 29 0.939088 0.287532 0.5
212 28 0.933755 0.320068 0.5
869 31 0.970593 0.275524 0.5
790 31 0.965621 0.31138 0.5
422 30 0.0456821 0.345325 0.5
447 33 0.0442407 0.381117 0.5
925 27 0.0167979 0.357349 0.5
74 32 0.0750935 0.375011 0.5
524 32 0.08517 0.340126 0.5
186 31 0.105519 0.365911 0.5
594 32 0.11675 0.333296 0.5
29 30 0.138251 0.359602 0.5
833 31 0.164153 0.379373 0.5
687 31 0.20361 0.333768 0.5
942 28 0.173062 0.344041 0.5
475 29 0.194794 0.364948 0.5
948 33 0.229841 0.352862 0.5
11 33 0.26288 0.346364 0.5
783 29 0.255376 0.378184 0.5
20 32 0.286546 0.369779 0.5
117 31 0.294524 0.337136 0.5
526 30 0.320034 0.359519 0.5
883 33 0.343677 0.384003 0.5
620 29 0.352594 0.346825 0.5
432 30 0.376243 0.370287 0.5
814 31 0.382541 0.3386 0.5
324 34 0.408337 0.359725 0.5
371 30 0.43459 0.380361 0.5
297 30 0.439365 0.348794 0.5
549 30 0.471686 0.340257 0.5
595 32 0.465088 0.371382 0.5
281 28 0.497175 0.363894 0.5
83 31 0.527299 0.354249 0.5
79 33 0.520568 0.386349 0.5
899 27 0.55477 0.375378 0.5
43 32 0.562302 0.344066 0.5
163 28 0.587799 0.3658 0.5
46 32 0.618979 0.353414 0.5
269 31 0.654487 0.345876 0.5
908 27 0.64283 0.377397 0.5
573 30 0.611976 0.386049 0.5
522 33 0.685521 0.331758 0.5
454 31 0.678231 0.36893 0.5
35 33 0.712769 0.35331 0.5
271 30 0.738409 0.376797 0.5
772 31 0.745853 0.345365 0.5
726 30 0.767803 0.368548 0.5
381 31 0.776789 0.337304 0.5
867 33 0.799648 0.359301 0.5
861 32 0.831003 0.383619 0.5
632 30 0.839386 0.348732 0.5
968 33 0.873367 0.338511 0.5
868 34 0.86584 0.370529 0.5
862 28 0.901665 0.325467 0.5
906 34 0.898328 0.363337 0.5
550 28 0.929623 0.349347 0.5
913 30 0.919477 0.388524 0.5
450 28 0.991543 0.337665 0.5
624 28 0.94869 0.373476 0.5
789 29 0.959772 0.344937 0.5
151 33 0.984971 0.369829 0.5
19 30 0.0349775 0.413904 0.5
1 29 0.00810459 0.393582 0.5
714 30 0.00560057 0.427339 0.5
344 27 0.0674336 0.406335 0.5
460 32 0.0999064 0.39814 0.5
82 32 0.0897148 0.430836 0.5
441 30 0.0588537 0.436207 0.5
830 30 0.13194 0.388589 0.5
804 30 0.122255 0.422149 0.5
116 27 0.154898 0.410924 0.5
129 33 0.192772 0.396895 0.5
10 30 0.177813 0.432662 0.5
722 32 0.21522 0.421994 0.5
300 33 0.224838 0.386963 0.5
246 32 0.246359 0.4125 0.5
152 32 0.268639 0.436623 0.5
796 29 0.280076 0.404171 0.5
543 32 0.311313 0.392068 0.5
235 32 0.304289 0.428503 0.5
634 25 0.332551 0.413475 0.5
126 31 0.369748 0.4031 0.5
446 30 0.366536 0.434754 0.5
32 27 0.395785 0.422291 0.5
306 29 0.399921 0.391788 0.5
572 32 0.427196 0.411416 0.5
470 30 0.453031 0.434722 0.5
62 30 0.488087 0.394634 0.5
758 27 0.457804 0.401539 0.5
732 30 0.483024 0.427387 0.5
560 30 0.515759 0.417521 0.5
185 33 0.548659 0.406152 0.5
481 30 0.541594 0.437883 0.5
850 28 0.582958 0.395213 0.5
840 29 0.574955 0.425136 0.5
870 30 0.606116 0.419399 0.5
254 31 0.635242 0.442106 0.5
599 32 0.637159 0.407728 0.5
654 28 0.66733 0.43382 0.5
711 32 0.668357 0.400194 0.5
64 31 0.699195 0.390953 0.5
778 28 0.698877 0.424468 0.5
338 30 0.732133 0.41003 0.5
981 30 0.763721 0.399962 0.5
584 28 0.75518 0.436026 0.5
392 30 0.725104 0.445303 0.5
119 30 0.784656 0.427395 0.5
916 28 0.793661 0.391477 0.5
134 32 0.817947 0.41352 0.5
643 29 0.843434 0.436418 0.5
946 30 0.852656 0.407054 0.5
777 29 0.879135 0.427592 0.5
725 34 0.887082 0.396392 0.5
319 30 0.909541 0.419026 0.5
680 30 0.945602 0.410205 0.5
472 29 0.976044 0.402442 0.5
854 29 0.96843 0.433284 0.5
207 31 0.0285488 0.44822 0.5
342 34 0.0189747 0.480492 0.5
439 29 0.0540335 0.472868 0.5
205 29 0.084947 0.469457 0.5
145 28 0.106686 0.491846 0.5
284 32 0.147453 0.442208 0.5
287 33 0.11193 0.454822 0.5
576 31 0.137611 0.481105 0.5
220 30 0.170005 0.466404 0.5
286 31 0.201983 0.455857 0.5
610 30 0.193662 0.4884 0.5
48 28 0.225927 0.479312 0.5
45 30 0.234477 0.446861 0.5
954 28 0.261505 0.469548 0.5
486 33 0.332839 0.448966 0.5
86 30 0.294033 0.458484 0.5
717 30 0.325952 0.481759 0.5
640 33 0.291413 0.495173 0.5
909 29 0.360302 0.466135 0.5
99 28 0.3886 0.458391 0.5
69 32 0.418943 0.443322 0.5
266 32 0.415162 0.475538 0.5
755 28 0.442507 0.501121 0.5
209 29 0.448457 0.467187 0.5
479 26 0.479699 0.459237 0.5
958 27 0.471442 0.487691 0.5
820 30 0.51126 0.449367 0.5
915 29 0.50044 0.480909 0.5
184 29 0.535125 0.470557 0.5
327 31 0.558644 0.49224 0.5
323 30 0.56773 0.455162 0.5
123 25 0.603679 0.450748 0.5
195 33 0.59224 0.481827 0.5
496 30 0.626091 0.472374 0.5
843 32 0.659812 0.467523 0.5
50 31 0.651555 0.500641 0.5
334 32 0.683259 0.490546 0.5
322 27 0.690951 0.45674 0.5
276 32 0.714715 0.479476 0.5
474 29 0.748414 0.469314 0.5
997 32 0.770748 0.49292 0.5
675 29 0.781022 0.459871 0.5
231 31 0.80994 0.446313 0.5
683 32 0.804157 0.482615 0.5
200 32 0.834689 0.469437 0.5
696 29 0.865813 0.457969 0.5
697 33 0.860113 0.492013 0.5
187 32 0.933992 0.442749 0.5
514 28 0.89168 0.485776 0.5
477 31 0.900982 0.450912 0.5
398 33 0.924619 0.474119 0.5
827 35 0.958624 0.464575 0.5
204 32 0.992055 0.459384 0.5
98 32 0.986266 0.492481 0.5
907 29 0.0460729 0.502819 0.5
320 32 0.0334915 0.537994 0.5
359 32 0.00881336 0.515138 0.5
240 30 0.00237211 0.546522 0.5
127 27 0.0782372 0.498015 0.5
401 28 0.0695528 0.527246 0.5
351 31 0.102168 0.527521 0.5
865 27 0.127064 0.546611 0.5
552 30 0.131335 0.514849 0.5
449 29 0.156503 0.532457 0.5
53 32 0.164188 0.502271 0.5
13 31 0.191381 0.522486 0.5
657 28 0.214042 0.545443 0.5
15 32 0.220039 0.509972 0.5
291 29 0.256467 0.499838 0.5
825 33 0.244247 0.53361 0.5
863 29 0.276984 0.524409 0.5
667 29 0.317652 0.513443 0.5
198 32 0.382074 0.497319 0.5
321 31 0.338104 0.538576 0.5
417 28 0.350199 0.504053 0.5
554 30 0.371036 0.530485 0.5
890 32 0.402973 0.539264 0.5
411 31 0.412509 0.509093 0.5
507 30 0.434154 0.534723 0.5
56 29 0.466621 0.522245 0.5
604 27 0.498204 0.510436 0.5
681 28 0.486949 0.545124 0.5
602 28 0.458438 0.555631 0.5
49 29 0.525324 0.499662 0.5
437 31 0.520658 0.53046 0.5
25 31 0.552684 0.526057 0.5
638 37 0.579439 0.548152 0.5
810 31 0.585033 0.513377 0.5
678 30 0.613134 0.537529 0.5
904 32 0.619664 0.50559 0.5
570 32 0.645068 0.533925 0.5
945 32 0.66713 0.555262 0.5
635 27 0.675458 0.52616 0.5
463 29 0.704976 0.514788 0.5
605 28 0.697705 0.546137 0.5
295 32 0.73924 0.503333 0.5
613 29 0.731373 0.536028 0.5
880 34 0.765657 0.52729 0.5
93 35 0.79118 0.552325 0.5
142 31 0.828956 0.50379 0.5
759 33 0.79859 0.518974 0.5
757 34 0.823468 0.540948 0.5
223 26 0.853429 0.530949 0.5
612 29 0.883909 0.55276 0.5
724 34 0.883479 0.517873 0.5
495 31 0.917233 0.513102 0.5
695 27 0.915277 0.545018 0.5
684 28 0.942154 0.533285 0.5
190 34 0.949163 0.501231 0.5
237 32 0.976209 0.523993 0.5
213 31 0.0259494 0.569423 0.5
352 29 0.0504185 0.59146 0.5
970 27 0.0176321 0.601743 0.5
718 26 0.0939834 0.557283 0.5
731 32 0.0612365 0.558938 0.5
989 32 0.0819822 0.587268 0.5
617 32 0.117426 0.576391 0.5
194 31 0.152997 0.567052 0.5
399 32 0.139095 0.599554 0.5
721 29 0.106692 0.606484 0.5
419 32 0.183773 0.55601 0.5
218 27 0.173827 0.591162 0.5
122 30 0.206097 0.581242 0.5
547 32 0.237507 0.57074 0.5
937 31 0.267178 0.55711 0.5
150 34 0.260945 0.597189 0.5
304 29 0.226193 0.606807 0.5
739 35 0.306227 0.54922 0.5
226 31 0.293384 0.590305 0.5
978 27 0.322659 0.577054 0.5
3 32 0.358138 0.564322 0.5
268 36 0.38135 0.597937 0.5
773 26 0.391212 0.567898 0.5
370 33 0.424027 0.564512 0.5
453 28 0.413728 0.592206 0.5
932 29 0.448275 0.585709 0.5
30 31 0.48186 0.578157 0.5
354 32 0.544324 0.558294 0.5
509 29 0.503885 0.601547 0.5
735 29 0.511163 0.563169 0.5
337 30 0.535641 0.593414 0.5
774 32 0.569676 0.58182 0.5
669 34 0.594835 0.607303 0.5
147 30 0.602488 0.574035 0.5
108 32 0.562623 0.617516 0.5
782 29 0.627614 0.594837 0.5
221 27 0.633374 0.564893 0.5
373 32 0.658858 0.587299 0.5
878 31 0.693339 0.577908 0.5
703 30 0.718048 0.601784 0.5
858 31 0.68562 0.609217 0.5
88 35 0.722839 0.566759 0.5
546 31 0.755734 0.560668 0.5
484 32 0.749686 0.594409 0.5
299 28 0.78153 0.584597 0.5
839 29 0.816663 0.574097 0.5
308 29 0.810257 0.604332 0.5
515 30 0.843626 0.595187 0.5
285 30 0.846861 0.562882 0.5
539 31 0.873532 0.584301 0.5
842 29 0.940948 0.562746 0.5
38 30 0.905235 0.574332 0.5
889 29 0.934324 0.598179 0.5
992 33 0.900581 0.609906 0.5
489 27 0.97128 0.55608 0.5
435 28 0.966269 0.591803 0.5
876 31 0.995079 0.578987 0.5
315 30 0.0413828 0.623037 0.5
466 35 0.0125356 0.63835 0.5
518 30 0.0660165 0.652079 0.5
462 30 0.0728535 0.618676 0.5
433 28 0.0964465 0.639514 0.5
639 27 0.126349 0.629041 0.5
391 28 0.150164 0.658799 0.5
659 32 0.158623 0.627418 0.5
230 31 0.195251 0.617247 0.5
884 33 0.184982 0.650391 0.5
222 31 0.220675 0.639135 0.5
78 26 0.250436 0.627741 0.5
362 31 0.275564 0.652398 0.5
388 29 0.284785 0.622551 0.5
59 28 0.318714 0.611709 0.5
523 27 0.30979 0.646883 0.5
292 30 0.347654 0.600922 0.5
386 33 0.341191 0.635418 0.5
525 29 0.371729 0.630396 0.5
451 31 0.39865 0.652565 0.5
366 30 0.406325 0.622528 0.5
159 32 0.43882 0.614702 0.5
800 27 0.432539 0.646554 0.5
395 29 0.471657 0.61115 0.5
537 29 0.463449 0.641099 0.5
708 29 0.496166 0.633181 0.5
817 33 0.487947 0.664674 0.5
482 30 0.519794 0.658129 0.5
173 30 0.530281 0.626565 0.5
520 31 0.554233 0.652987 0.5
335 32 0.58661 0.641214 0.5
76 29 0.610977 0.66251 0.5
562 33 0.621922 0.62828 0.5
527 30 0.652635 0.617367 0.5
302 29 0.641634 0.65477 0.5
746 28 0.676222 0.638579 0.5
780 30 0.711011 0.632856 0.5
314 31 0.698594 0.662558 0.5
924 28 0.732338 0.658153 0.5
183 29 0.744014 0.625906 0.5
975 29 0.768465 0.644933 0.5
238 28 0.774908 0.615075 0.5
219 29 0.800608 0.639562 0.5
396 31 0.825821 0.661781 0.5
969 30 0.835419 0.629068 0.5
642 31 0.868867 0.619615 0.5
236 35 0.858715 0.653441 0.5
468 29 0.892245 0.640588 0.5
747 28 0.929129 0.63074 0.5
647 30 0.916315 0.661341 0.5
828 30 0.949749 0.65434 0.5
947 32 0.98836 0.614523 0.5
801 29 0.958148 0.622923 0.5
160 30 0.980748 0.649334 0.5
248 28 0.0354512 0.660692 0.5
891 32 0.0318056 0.697894 0.5
131 29 0.00279321 0.673328 0.5
224 30 0.0611442 0.685648 0.5
172 26 0.0889563 0.674152 0.5
775 32 0.0860377 0.710129 0.5
941 30 0.12018 0.660543 0.5
567 30 0.112207 0.692039 0.5
670 32 0.145869 0.696086 0.5
257 32 0.179387 0.681268 0.5
61 31 0.212962 0.674075 0.5
255 30 0.207517 0.708284 0.5
387 30 0.172983 0.71498 0.5
627 31 0.243718 0.660053 0.5
903 31 0.239205 0.701049 0.5
831 30 0.266207 0.684153 0.5
14 30 0.29271 0.708861 0.5
148 32 0.300639 0.677393 0.5
189 23 0.323858 0.709647 0.5
808 29 0.332693 0.667763 0.5
682 33 0.365776 0.664735 0.5
738 31 0.349902 0.694832 0.5
623 33 0.39179 0.688533 0.5
860 30 0.381291 0.725362 0.5
896 30 0.420978 0.675175 0.5
390 31 0.415417 0.714165 0.5
494 27 0.445657 0.706027 0.5
982 31 0.452806 0.673326 0.5
250 30 0.47773 0.696831 0.5
979 32 0.510779 0.690579 0.5
877 30 0.544183 0.684977 0.5
420 32 0.540313 0.715801 0.5
243 31 0.502093 0.722304 0.5
609 30 0.580305 0.672116 0.5
741 32 0.573583 0.706275 0.5
926 32 0.606763 0.698139 0.5
558 31 0.63784 0.688029 0.5
930 29 0.661296 0.708081 0.5
139 30 0.63078 0.720252 0.5
153 33 0.667992 0.673743 0.5
52 33 0.692543 0.696409 0.5
955 29 0.717339 0.719853 0.5
836 30 0.723928 0.689365 0.5
630 31 0.755607 0.682053 0.5
588 29 0.750818 0.714067 0.5
436 31 0.781854 0.701935 0.5
689 30 0.792131 0.67129 0.5
149 29 0.819113 0.69294 0.5
528 32 0.841842 0.716036 0.5
55 29 0.850761 0.685261 0.5
328 27 0.884312 0.672829 0.5
931 30 0.876152 0.70679 0.5
873 31 0.906185 0.695043 0.5
261 33 0.939608 0.687869 0.5
459 33 0.930014 0.721412 0.5
510 32 0.966496 0.714445 0.5
894 29 0.970702 0.67821 0.5
811 29 0.999827 0.704076 0.5
197 30 0.0542635 0.723866 0.5
67 30 0.0223385 0.729503 0.5
743 31 0.0492337 0.755096 0.5
215 29 0.0145774 0.766422 0.5
380 34 0.0815875 0.743982 0.5
247 28 0.100041 0.771596 0.5
819 30 0.113305 0.725492 0.5
535 28 0.14525 0.728795 0.5
316 34 0.12809 0.756768 0.5
461 31 0.161579 0.754294 0.5
339 33 0.194126 0.741425 0.5
442 32 0.218826 0.764894 0.5
203 34 0.188204 0.78008 0.5
473 31 0.228934 0.731893 0.5
180 31 0.263144 0.725523 0.5
374 32 0.251013 0.756353 0.5
330 29 0.284647 0.751161 0.5
921 33 0.315434 0.739599 0.5
256 32 0.309751 0.77445 0.5
5 32 0.342881 0.76512 0.5
168 33 0.348251 0.730738 0.5
934 28 0.374186 0.75469 0.5
650 30 0.407966 0.748486 0.5
798 32 0.428388 0.774678 0.5
253 30 0.437796 0.74025 0.5
31 27 0.39624 0.779567 0.5
192 33 0.459766 0.765152 0.5
467 31 0.470116 0.734691 0.5
444 32 0.495637 0.756547 0.5
704 32 0.527453 0.74732 0.5
107 30 0.553119 0.771246 0.5
445 32 0.518237 0.778412 0.5
415 28 0.559799 0.738772 0.5
214 32 0.594984 0.733752 0.5
158 32 0.584762 0.764773 0.5
16 31 0.621397 0.752719 0.5
75 27 0.654 0.740798 0.5
63 30 0.645392 0.775185 0.5
258 34 0.676332 0.765756 0.5
919 28 0.686616 0.727982 0.5
340 27 0.707228 0.753897 0.5
660 29 0.774375 0.733867 0.5
182 31 0.740794 0.744896 0.5
502 28 0.763739 0.763731 0.5
356 28 0.730246 0.774622 0.5
501 32 0.80804 0.721932 0.5
895 30 0.796113 0.755955 0.5
663 31 0.831138 0.746427 0.5
905 30 0.853164 0.77062 0.5
922 33 0.865615 0.738397 0.5
622 30 0.886586 0.76058 0.5
505 31 0.898436 0.730431 0.5
146 28 0.920926 0.754939 0.5
170 32 0.953289 0.745182 0.5
262 31 0.990464 0.737908 0.5
710 33 0.981938 0.770141 0.5
498 30 0.037705 0.788494 0.5
37 30 0.0284379 0.820708 0.5
164 32 0.00662777 0.798321 0.5
565 29 0.0689498 0.778913 0.5
279 31 0.0606564 0.816154 0.5
809 29 0.0911878 0.810259 0.5
455 31 0.11443 0.830906 0.5
511 33 0.121419 0.796806 0.5
81 29 0.154811 0.790114 0.5
984 31 0.145883 0.821469 0.5
18 35 0.178904 0.813221 0.5
592 28 0.210982 0.806234 0.5
996 29 0.23518 0.825609 0.5
536 29 0.241177 0.789495 0.5
844 31 0.275062 0.782135 0.5
409 30 0.265877 0.813338 0.5
325 31 0.298539 0.80522 0.5
414 32 0.331073 0.799352 0.5
430 32 0.322724 0.829938 0.5
752 29 0.364952 0.789908 0.5
961 30 0.354862 0.82119 0.5
58 29 0.387809 0.814567 0.5
649 33 0.420145 0.808005 0.5
715 27 0.446924 0.830056 0.5
769 30 0.407193 0.83875 0.5
993 30 0.450622 0.797629 0.5
598 32 0.484429 0.787932 0.5
986 30 0.476705 0.819898 0.5
57 31 0.508633 0.810493 0.5
138 31 0.545311 0.804148 0.5
699 27 0.538813 0.835142 0.5
102 27 0.568594 0.827838 0.5
580 29 0.575958 0.795002 0.5
591 29 0.601761 0.815138 0.5
68 31 0.611315 0.786314 0.5
569 31 0.635617 0.810613 0.5
408 29 0.660296 0.831012 0.5
838 27 0.622931 0.837845 0.5
211 26 0.669288 0.796792 0.5
485 32 0.70072 0.788065 0.5
719 27 0.693338 0.818243 0.5
397 31 0.724051 0.811159 0.5
332 29 0.755294 0.792398 0.5
378 31 0.750259 0.831397 0.5
656 27 0.785246 0.819735 0.5
113 32 0.820976 0.778523 0.5
990 34 0.78844 0.78645 0.5
365 29 0.816014 0.812333 0.5
943 36 0.848516 0.80165 0.5
115 27 0.87212 0.828135 0.5
538 32 0.881907 0.792919 0.5
987 32 0.913232 0.785145 0.5
143 30 0.903403 0.817155 0.5
516 34 0.937002 0.809018 0.5
490 31 0.945197 0.777903 0.5
700 29 0.987899 0.825021 0.5
685 30 0.96979 0.80102 0.5
881 29 0.0109307 0.845991 0.5
216 35 0.0453362 0.855474 0.5
367 29 0.00687047 0.880606 0.5
487 30 0.036213 0.895081 0.5
517 33 0.071569 0.877984 0.5
290 31 0.0814373 0.841444 0.5
694 31 0.103248 0.868708 0.5
577 33 0.135838 0.854297 0.5
124 29 0.160608 0.876809 0.5
469 33 0.127757 0.887803 0.5
852 32 0.201381 0.838358 0.5
280 34 0.169772 0.845979 0.5
181 31 0.192379 0.870046 0.5
239 32 0.226448 0.862252 0.5
464 30 0.257145 0.848642 0.5
559 31 0.252416 0.882126 0.5
71 32 0.282731 0.87149 0.5
957 33 0.288989 0.836695 0.5
629 28 0.311392 0.861943 0.5
900 28 0.346671 0.852236 0.5
763 32 0.372609 0.877056 0.5
835 31 0.376231 0.844575 0.5
492 34 0.33981 0.885133 0.5
372 29 0.404739 0.869846 0.5
824 31 0.436043 0.859748 0.5
845 29 0.462827 0.883499 0.5
898 29 0.468301 0.851797 0.5
795 33 0.49448 0.876013 0.5
355 31 0.498779 0.842993 0.5
788 32 0.524991 0.862669 0.5
551 30 0.546584 0.8903 0.5
425 31 0.558966 0.859778 0.5
241 32 0.592268 0.846822 0.5
561 31 0.580018 0.883912 0.5
208 31 0.614691 0.870725 0.5
571 36 0.647353 0.862307 0.5
483 29 0.681215 0.855386 0.5
749 29 0.713239 0.841663 0.5
676 31 0.704717 0.873939 0.5
994 30 0.673977 0.886349 0.5
940 29 0.73761 0.861332 0.5
583 28 0.772799 0.856318 0.5
779 33 0.760298 0.887065 0.5
89 30 0.797023 0.873354 0.5
648 28 0.803919 0.843401 0.5
229 31 0.828677 0.863978 0.5
998 31 0.839215 0.83493 0.5
242 33 0.863424 0.85882 0.5
272 33 0.887303 0.88366 0.5
34 31 0.895712 0.851873 0.5
589 28 0.927874 0.844765 0.5
574 27 0.917053 0.875943 0.5
161 29 0.957427 0.834658 0.5
766 30 0.949186 0.866926 0.5
733 33 0.981351 0.858551 0.5
28 29 0.0305534 0.92588 0.5
227 31 0.000428701 0.913762 0.5
260 30 0.0193622 0.965163 0.5
976 27 0.0623587 0.914645 0.5
513 29 0.0903887 0.902218 0.5
193 29 0.0855849 0.934945 0.5
252 32 0.0524766 0.949977 0.5
672 31 0.117058 0.917947 0.5
706 31 0.150319 0.910434 0.5
167 29 0.173492 0.933301 0.5
802 32 0.219305 0.893003 0.5
608 30 0.183234 0.901548 0.5
927 31 0.206107 0.923687 0.5
953 30 0.244838 0.913377 0.5
646 29 0.268089 0.937327 0.5
493 28 0.27703 0.906535 0.5
841 31 0.308369 0.895768 0.5
834 31 0.301815 0.928491 0.5
856 29 0.334251 0.918707 0.5
114 28 0.363519 0.909346 0.5
914 28 0.353622 0.941414 0.5
457 33 0.385046 0.932117 0.5
178 27 0.394182 0.89982 0.5
174 31 0.433729 0.892066 0.5
944 30 0.423605 0.92455 0.5
508 29 0.453213 0.918319 0.5
90 34 0.48477 0.907618 0.5
582 30 0.476407 0.940737 0.5
413 29 0.516521 0.898192 0.5
358 29 0.507456 0.930004 0.5
307 31 0.540696 0.922223 0.5
305 30 0.575178 0.913262 0.5
655 30 0.601142 0.936576 0.5
301 33 0.606111 0.904898 0.5
603 30 0.566945 0.949422 0.5
742 31 0.639091 0.895657 0.5
499 26 0.635549 0.926883 0.5
737 32 0.666078 0.917244 0.5
312 34 0.699615 0.905835 0.5
855 31 0.721573 0.931138 0.5
103 31 0.689637 0.93921 0.5
938 27 0.730177 0.89605 0.5
653 28 0.753884 0.918372 0.5
677 34 0.7913 0.906845 0.5
382 33 0.823035 0.897666 0.5
210 29 0.811586 0.932957 0.5
249 32 0.855771 0.891805 0.5
644 30 0.842552 0.924848 0.5
379 29 0.879999 0.916367 0.5
886 29 0.903018 0.936971 0.5
933 30 0.909439 0.90739 0.5
846 32 0.93531 0.931298 0.5
964 32 0.942218 0.89726 0.5
705 30 0.974117 0.889291 0.5
448 31 0.966949 0.919599 0.5
274 29 0.0463329 0.982741 0.5
597 28 0.012179 0.995292 0.5
851 31 0.0710524 1.00464 0.5
84 29 0.0789557 0.970685 0.5
132 31 0.103872 0.990543 0.5
80 30 0.111058 0.955737 0.5
753 31 0.139839 0.940447 0.5
673 29 0.135928 0.980044 0.5
995 28 0.19346 0.988147 0.5
488 29 0.164091 0.965937 0.5
701 33 0.197411 0.955597 0.5
823 30 0.224709 0.981595 0.5
847 33 0.233138 0.946534 0.5
400 32 0.25844 0.969716 0.5
385 31 0.281349 0.993339 0.5
403 28 0.290121 0.958686 0.5
434 28 0.32197 0.951426 0.5
651 28 0.312282 0.982904 0.5
966 28 0.370769 0.997904 0.5
263 30 0.344992 0.974957 0.5
144 32 0.375877 0.964762 0.5
871 30 0.400868 0.990574 0.5
674 29 0.411795 0.954604 0.5
72 28 0.43363 0.979885 0.5
963 29 0.443915 0.948497 0.5
637 29 0.491263 0.996967 0.5
568 31 0.464527 0.972477 0.5
317 33 0.497214 0.964083 0.5
832 35 0.53153 0.95477 0.5
265 35 0.526172 0.990266 0.5
768 31 0.585318 1.00402 0.5
744 32 0.560554 0.980386 0.5
797 31 0.592238 0.969171 0.5
661 30 0.656584 0.951559 0.5
12 32 0.615617 0.991094 0.5
980 29 0.624897 0.960176 0.5
136 33 0.649086 0.983856 0.5
6 24 0.704449 0.995963 0.5
859 34 0.682888 0.975204 0.5
27 32 0.715797 0.963114 0.5
615 29 0.738122 0.984956 0.5
270 31 0.747221 0.950924 0.5
745 32 0.77229 0.976056 0.5
456 31 0.778212 0.938616 0.5
611 33 0.803841 0.96383 0.5
857 34 0.828153 0.987646 0.5
849 32 0.868177 0.945663 0.5
350 25 0.837335 0.953524 0.5
310 32 0.863341 0.980392 0.5
936 28 0.923448 0.998197 0.5
202 34 0.895665 0.970512 0.5
920 30 0.927978 0.962508 0.5
33 30 0.991305 0.944962 0.5
298 34 0.960083 0.954929 0.5
245 27 0.954676 0.986652 0.5
813 30 0.986239 0.977446 0.5
