ITEM: TIMESTEP
1750000
ITEM: NUMBER OF ATOMS
1000
ITEM: BOX BOUNDS pp pp pp
-1.7008838000000001e+01 1.7008838000000001e+01
-1.7008838000000001e+01 1.7008838000000001e+01
-5.0000000000000000e-01 5.0000000000000000e-01
ITEM: ATOMS id type xs ys zs
895 30 0.0153193 0.0313273 0.5
663 31 0.0483 0.0217634 0.5
113 32 0.0424052 0.0548425 0.5
922 33 0.082744 0.0107928 0.5
905 30 0.0710337 0.0423914 0.5
622 30 0.10705 0.0344424 0.5
146 28 0.142675 0.0262421 0.5
505 31 0.118901 0.00408052 0.5
490 31 0.16565 0.0482143 0.5
170 32 0.17534 0.0178535 0.5
710 33 0.200307 0.0403054 0.5
262 31 0.206173 0.00585636 0.5
215 29 0.230738 0.0286054 0.5
743 31 0.260905 0.0195862 0.5
67 30 0.237662 -0.00410165 0.5
565 29 0.288602 0.0469283 0.5
247 28 0.319868 0.0398007 0.5
380 34 0.296291 0.0155768 0.5
819 30 0.327607 0.00722372 0.5
316 34 0.352559 0.030971 0.5
535 28 0.358914 -0.00212009 0.5
461 31 0.385371 0.0202988 0.5
339 33 0.418 0.0143613 0.5
203 34 0.409216 0.0463997 0.5
442 32 0.443021 0.0381978 0.5
473 31 0.45096 0.00125897 0.5
374 32 0.47392 0.0268749 0.5
844 31 0.494267 0.0541448 0.5
330 29 0.506687 0.0183683 0.5
921 33 0.541258 0.0130683 0.5
256 32 0.526528 0.0445847 0.5
168 33 0.564127 0.03736 0.5
860 30 0.594488 0.0237052 0.5
650 30 0.628314 0.0146777 0.5
798 32 0.650533 0.0397114 0.5
31 27 0.616427 0.0537476 0.5
253 30 0.659212 0.00455202 0.5
192 33 0.682562 0.0338949 0.5
444 32 0.715022 0.0245862 0.5
467 31 0.691143 0.000139354 0.5
704 32 0.747987 0.0168071 0.5
107 30 0.771547 0.0428667 0.5
445 32 0.740391 0.0504552 0.5
415 28 0.777863 0.00614952 0.5
158 32 0.801366 0.0312907 0.5
214 32 0.811108 0.000248837 0.5
16 31 0.837505 0.0262292 0.5
75 27 0.869651 0.0163567 0.5
63 30 0.862813 0.0457236 0.5
258 34 0.893149 0.0366966 0.5
340 27 0.924093 0.0241306 0.5
919 28 0.903846 0.00113221 0.5
660 29 0.994644 0.00736222 0.5
182 31 0.959126 0.017087 0.5
502 28 0.983134 0.0371266 0.5
356 28 0.948561 0.0454851 0.5
365 29 0.0334029 0.0865828 0.5
990 34 0.00616502 0.063707 0.5
656 27 0.00346055 0.0981907 0.5
943 36 0.0662643 0.0774452 0.5
538 32 0.10079 0.0658742 0.5
115 27 0.0897159 0.0992213 0.5
998 31 0.0552457 0.112283 0.5
987 32 0.134731 0.057973 0.5
143 30 0.125421 0.0900972 0.5
516 34 0.158921 0.0804581 0.5
589 28 0.146949 0.111972 0.5
685 30 0.191708 0.0719496 0.5
700 29 0.214481 0.09329 0.5
161 29 0.18361 0.101921 0.5
498 30 0.258698 0.0525773 0.5
164 32 0.225991 0.0610835 0.5
37 30 0.249361 0.0860819 0.5
279 31 0.280356 0.0767382 0.5
809 29 0.311506 0.0702606 0.5
290 31 0.303509 0.104669 0.5
511 33 0.344934 0.0644625 0.5
81 29 0.377412 0.0529705 0.5
984 31 0.367075 0.0867683 0.5
455 31 0.333166 0.0955878 0.5
18 35 0.399459 0.0795955 0.5
592 28 0.435058 0.0718866 0.5
852 32 0.425634 0.102492 0.5
996 29 0.457266 0.0974238 0.5
536 29 0.465224 0.0653675 0.5
409 30 0.489382 0.0935717 0.5
325 31 0.518047 0.0768272 0.5
414 32 0.542343 0.100192 0.5
5 32 0.552924 0.0691615 0.5
934 28 0.585757 0.0625277 0.5
752 29 0.577705 0.0923567 0.5
58 29 0.610197 0.0841531 0.5
649 33 0.642474 0.0750646 0.5
769 30 0.629762 0.108223 0.5
715 27 0.661826 0.102027 0.5
598 32 0.706494 0.0587467 0.5
993 30 0.674304 0.0669758 0.5
986 30 0.695562 0.0901926 0.5
57 31 0.734637 0.0864841 0.5
138 31 0.768005 0.0750303 0.5
699 27 0.754189 0.110594 0.5
580 29 0.798453 0.0679939 0.5
102 27 0.785881 0.10095 0.5
591 29 0.823006 0.087595 0.5
68 31 0.826894 0.0564774 0.5
569 31 0.853062 0.0756831 0.5
408 29 0.877919 0.0992838 0.5
211 26 0.885519 0.0680869 0.5
485 32 0.91675 0.0610656 0.5
719 27 0.909593 0.0917303 0.5
397 31 0.943554 0.0827216 0.5
332 29 0.972068 0.0671228 0.5
378 31 0.970365 0.100581 0.5
648 28 0.024949 0.120102 0.5
229 31 0.0503383 0.144728 0.5
89 30 0.0177567 0.153074 0.5
242 33 0.0836869 0.134163 0.5
272 33 0.107833 0.157313 0.5
34 31 0.112947 0.119736 0.5
574 27 0.136858 0.140108 0.5
766 30 0.171211 0.133785 0.5
733 33 0.206839 0.12435 0.5
705 30 0.197509 0.159141 0.5
216 35 0.271837 0.110353 0.5
881 29 0.237249 0.117176 0.5
367 29 0.228506 0.149022 0.5
487 30 0.259357 0.141409 0.5
517 33 0.293546 0.137077 0.5
694 31 0.326294 0.130709 0.5
513 29 0.317016 0.16783 0.5
577 33 0.357252 0.118259 0.5
124 29 0.382839 0.149417 0.5
469 33 0.348416 0.156703 0.5
280 34 0.391441 0.110584 0.5
181 31 0.415621 0.140357 0.5
802 32 0.437565 0.166986 0.5
239 32 0.448117 0.130543 0.5
464 30 0.480494 0.123341 0.5
559 31 0.469772 0.154674 0.5
957 33 0.511777 0.115701 0.5
71 32 0.502601 0.150425 0.5
430 32 0.535359 0.140099 0.5
961 30 0.565856 0.122194 0.5
835 31 0.597751 0.118025 0.5
763 32 0.585841 0.151198 0.5
900 28 0.556528 0.164716 0.5
372 29 0.621933 0.140365 0.5
824 31 0.653957 0.133354 0.5
174 31 0.645726 0.164694 0.5
898 29 0.686195 0.122642 0.5
795 33 0.709021 0.148056 0.5
845 29 0.678034 0.16004 0.5
355 31 0.718503 0.115027 0.5
788 32 0.742441 0.139863 0.5
551 30 0.765502 0.161741 0.5
241 32 0.812243 0.117711 0.5
425 31 0.777148 0.131603 0.5
561 31 0.802823 0.154335 0.5
838 27 0.84372 0.112348 0.5
208 31 0.834263 0.144382 0.5
571 36 0.868688 0.133935 0.5
749 29 0.931428 0.114841 0.5
994 30 0.89255 0.158873 0.5
483 29 0.900874 0.124745 0.5
676 31 0.924753 0.148826 0.5
583 28 0.995388 0.127028 0.5
940 29 0.962449 0.13311 0.5
779 33 0.980473 0.162371 0.5
382 33 0.0443637 0.177513 0.5
210 29 0.0340361 0.210048 0.5
677 34 0.00664646 0.183789 0.5
456 31 0.000903981 0.217453 0.5
249 32 0.0758947 0.168388 0.5
644 30 0.0668963 0.202791 0.5
379 29 0.100222 0.188679 0.5
849 32 0.0919603 0.222026 0.5
933 30 0.135618 0.17968 0.5
846 32 0.155649 0.205879 0.5
886 29 0.124219 0.213792 0.5
964 32 0.165365 0.164873 0.5
448 31 0.186365 0.193074 0.5
33 30 0.212882 0.215712 0.5
28 29 0.249274 0.174188 0.5
227 31 0.219083 0.182501 0.5
260 30 0.243656 0.20556 0.5
976 27 0.279368 0.165977 0.5
252 32 0.275145 0.197073 0.5
193 29 0.307879 0.19712 0.5
672 31 0.339928 0.193331 0.5
706 31 0.373652 0.18151 0.5
753 31 0.361446 0.217708 0.5
167 29 0.396919 0.211037 0.5
608 30 0.406165 0.170981 0.5
927 31 0.426992 0.201063 0.5
953 30 0.459586 0.192119 0.5
493 28 0.490319 0.182098 0.5
646 29 0.482425 0.21425 0.5
847 33 0.451431 0.225506 0.5
629 28 0.526961 0.171163 0.5
841 31 0.51369 0.20544 0.5
856 29 0.538214 0.228967 0.5
492 34 0.548908 0.196935 0.5
114 28 0.579094 0.184685 0.5
914 28 0.570184 0.22318 0.5
457 33 0.603566 0.206912 0.5
178 27 0.61268 0.168881 0.5
944 30 0.63492 0.196842 0.5
508 29 0.667194 0.190315 0.5
90 34 0.701688 0.1834 0.5
582 30 0.694214 0.216608 0.5
963 29 0.659756 0.220782 0.5
413 29 0.73321 0.173856 0.5
358 29 0.724676 0.207133 0.5
307 31 0.760816 0.19473 0.5
603 30 0.784013 0.218079 0.5
305 30 0.791795 0.187649 0.5
655 30 0.816549 0.209424 0.5
301 33 0.828562 0.176144 0.5
742 31 0.861884 0.16695 0.5
499 26 0.852054 0.197286 0.5
737 32 0.88277 0.192954 0.5
312 34 0.917099 0.181248 0.5
103 31 0.910418 0.21428 0.5
938 27 0.947582 0.16988 0.5
855 31 0.946005 0.203439 0.5
653 28 0.976933 0.196973 0.5
611 33 0.0247231 0.240134 0.5
393 34 0.0146429 0.273629 0.5
857 34 0.0492107 0.26214 0.5
350 25 0.060825 0.233166 0.5
310 32 0.0848254 0.256411 0.5
202 34 0.117301 0.247558 0.5
920 30 0.14822 0.236772 0.5
936 28 0.139199 0.272157 0.5
298 34 0.181699 0.226519 0.5
245 27 0.172265 0.259683 0.5
813 30 0.204236 0.25007 0.5
597 28 0.233692 0.239707 0.5
837 31 0.258876 0.261093 0.5
564 29 0.22538 0.273429 0.5
274 29 0.264232 0.229638 0.5
84 29 0.295801 0.231737 0.5
132 31 0.32329 0.261703 0.5
851 31 0.292067 0.268065 0.5
80 30 0.327559 0.228533 0.5
673 29 0.351203 0.247935 0.5
427 31 0.370927 0.273113 0.5
488 29 0.3829 0.242501 0.5
701 33 0.417696 0.237112 0.5
169 27 0.40809 0.267438 0.5
995 28 0.446581 0.257868 0.5
400 32 0.476751 0.245882 0.5
651 28 0.500397 0.272244 0.5
834 31 0.506976 0.237901 0.5
434 28 0.531172 0.261335 0.5
263 30 0.562044 0.254345 0.5
144 32 0.596041 0.239937 0.5
966 28 0.588585 0.275956 0.5
674 29 0.628905 0.229695 0.5
72 28 0.652569 0.255083 0.5
871 30 0.619653 0.265627 0.5
568 31 0.682808 0.246961 0.5
637 29 0.711157 0.270618 0.5
799 29 0.675905 0.281541 0.5
317 33 0.715701 0.239851 0.5
832 35 0.750852 0.227201 0.5
265 35 0.743391 0.260763 0.5
744 32 0.775775 0.251947 0.5
797 31 0.81024 0.243431 0.5
768 31 0.79791 0.278771 0.5
661 30 0.87363 0.224107 0.5
980 29 0.843423 0.229174 0.5
12 32 0.833438 0.269886 0.5
136 33 0.864001 0.256821 0.5
859 34 0.901856 0.249547 0.5
27 32 0.93397 0.234849 0.5
6 24 0.928381 0.266741 0.5
745 32 0.993293 0.248966 0.5
270 31 0.966337 0.227832 0.5
615 29 0.962671 0.261297 0.5
776 31 0.0401342 0.297175 0.5
85 27 0.0331745 0.328612 0.5
375 30 0.00923315 0.305461 0.5
939 33 0.0719741 0.28737 0.5
614 30 0.0968799 0.309992 0.5
762 31 0.0660089 0.320495 0.5
806 29 0.1086 0.279584 0.5
736 28 0.133656 0.302651 0.5
983 31 0.156104 0.325305 0.5
353 30 0.123906 0.332934 0.5
596 29 0.195883 0.281443 0.5
618 33 0.164394 0.292258 0.5
751 28 0.18921 0.314258 0.5
155 30 0.219372 0.305415 0.5
199 33 0.251328 0.293626 0.5
171 32 0.247033 0.327347 0.5
756 30 0.278613 0.312453 0.5
369 32 0.309525 0.298494 0.5
848 30 0.30455 0.333027 0.5
389 34 0.335519 0.320369 0.5
407 29 0.341519 0.288127 0.5
621 29 0.367047 0.307426 0.5
385 31 0.398805 0.298355 0.5
823 30 0.432608 0.285762 0.5
991 31 0.42593 0.320927 0.5
376 34 0.39509 0.333354 0.5
403 28 0.470712 0.277777 0.5
96 30 0.461275 0.313064 0.5
54 30 0.491949 0.304327 0.5
935 28 0.525266 0.295073 0.5
201 32 0.520274 0.330854 0.5
888 29 0.551138 0.316786 0.5
664 31 0.555284 0.286322 0.5
671 28 0.582119 0.305458 0.5
4 31 0.609197 0.328645 0.5
104 28 0.615359 0.296649 0.5
452 32 0.644861 0.286678 0.5
950 31 0.640977 0.319209 0.5
424 27 0.671696 0.314017 0.5
402 33 0.700892 0.30345 0.5
91 28 0.764119 0.285285 0.5
121 31 0.727668 0.327834 0.5
912 34 0.733713 0.295506 0.5
94 28 0.75747 0.319361 0.5
443 29 0.788575 0.308131 0.5
530 30 0.815617 0.332023 0.5
416 32 0.822928 0.300294 0.5
892 27 0.855259 0.292143 0.5
21 31 0.849115 0.321591 0.5
165 27 0.878012 0.311432 0.5
106 26 0.881288 0.282094 0.5
521 31 0.912627 0.291427 0.5
923 32 0.937631 0.319644 0.5
97 27 0.982256 0.285598 0.5
283 33 0.949761 0.289825 0.5
346 30 0.972094 0.318511 0.5
652 35 0.00131045 0.339025 0.5
901 33 0.0265836 0.361071 0.5
177 28 0.0510636 0.382808 0.5
377 29 0.0903586 0.343228 0.5
723 30 0.0588308 0.352922 0.5
345 31 0.0831684 0.376575 0.5
244 30 0.113552 0.365624 0.5
405 30 0.150592 0.357187 0.5
428 29 0.142375 0.390038 0.5
542 31 0.213009 0.338015 0.5
754 31 0.181263 0.346105 0.5
259 26 0.206204 0.367287 0.5
548 33 0.174025 0.380392 0.5
24 30 0.230254 0.388032 0.5
712 30 0.239295 0.358241 0.5
532 30 0.266538 0.37715 0.5
273 29 0.273918 0.344144 0.5
87 30 0.296436 0.364982 0.5
720 30 0.32005 0.387982 0.5
770 35 0.330163 0.356724 0.5
357 33 0.361109 0.343608 0.5
293 33 0.355799 0.381331 0.5
815 30 0.386365 0.366476 0.5
162 31 0.417975 0.35782 0.5
885 28 0.409998 0.387634 0.5
333 30 0.487395 0.337176 0.5
709 30 0.444967 0.381033 0.5
707 37 0.452331 0.346887 0.5
690 29 0.475131 0.371394 0.5
348 29 0.511158 0.361436 0.5
734 31 0.543547 0.352286 0.5
368 31 0.534187 0.386863 0.5
440 34 0.574613 0.340594 0.5
384 35 0.601297 0.361619 0.5
949 32 0.56639 0.374296 0.5
988 26 0.631716 0.35115 0.5
491 30 0.652542 0.378334 0.5
73 31 0.66251 0.346433 0.5
740 32 0.621877 0.391543 0.5
607 33 0.694226 0.339486 0.5
497 31 0.684925 0.371651 0.5
952 32 0.72127 0.362129 0.5
887 31 0.751523 0.350576 0.5
309 32 0.746608 0.383424 0.5
874 33 0.785365 0.345339 0.5
360 25 0.781307 0.377402 0.5
217 31 0.811356 0.366796 0.5
363 28 0.872344 0.341332 0.5
278 32 0.834694 0.389991 0.5
329 32 0.844146 0.3577 0.5
566 31 0.870597 0.374535 0.5
100 32 0.904894 0.327102 0.5
176 31 0.901913 0.361466 0.5
679 35 0.934849 0.356436 0.5
698 27 0.992775 0.372533 0.5
803 31 0.970712 0.352049 0.5
418 32 0.95631 0.383061 0.5
879 32 0.0188831 0.394453 0.5
39 29 0.0458584 0.41389 0.5
829 28 0.0137951 0.426894 0.5
519 28 0.0805021 0.407144 0.5
2 30 0.0996677 0.432502 0.5
141 31 0.0695814 0.43743 0.5
233 29 0.111701 0.397279 0.5
313 32 0.137924 0.421047 0.5
336 33 0.162087 0.444106 0.5
662 31 0.200058 0.399298 0.5
781 30 0.169885 0.411214 0.5
729 27 0.193139 0.431859 0.5
120 30 0.223597 0.419371 0.5
586 35 0.260124 0.409621 0.5
897 31 0.251801 0.442531 0.5
686 30 0.283411 0.434411 0.5
636 27 0.291044 0.397648 0.5
792 31 0.314772 0.423087 0.5
66 31 0.34715 0.413346 0.5
140 30 0.37156 0.437834 0.5
902 30 0.379473 0.403334 0.5
130 30 0.341704 0.448598 0.5
786 34 0.403801 0.428141 0.5
361 31 0.434933 0.412171 0.5
8 28 0.429481 0.447144 0.5
728 32 0.46773 0.40598 0.5
785 32 0.460555 0.439053 0.5
702 29 0.495977 0.427548 0.5
645 31 0.501244 0.395434 0.5
228 29 0.526489 0.418526 0.5
412 30 0.551464 0.439353 0.5
977 33 0.560868 0.408519 0.5
761 30 0.592429 0.402168 0.5
232 29 0.58504 0.433067 0.5
296 30 0.617278 0.423168 0.5
626 32 0.647742 0.411326 0.5
421 32 0.642249 0.444292 0.5
666 31 0.715337 0.39488 0.5
476 27 0.672112 0.434502 0.5
225 32 0.679831 0.404083 0.5
500 35 0.705525 0.426839 0.5
658 33 0.739743 0.418539 0.5
688 29 0.764887 0.443205 0.5
44 32 0.771751 0.408078 0.5
821 29 0.805331 0.399743 0.5
431 31 0.800233 0.431916 0.5
529 30 0.830872 0.423315 0.5
864 28 0.861632 0.407352 0.5
101 29 0.85858 0.439317 0.5
426 27 0.889142 0.429876 0.5
606 32 0.924718 0.390944 0.5
277 29 0.892563 0.398574 0.5
471 28 0.919132 0.424147 0.5
289 27 0.949383 0.414371 0.5
264 31 0.988055 0.403583 0.5
166 30 0.978796 0.433189 0.5
540 32 0.946467 0.44544 0.5
822 32 0.0377994 0.445857 0.5
557 33 0.0286624 0.478192 0.5
156 28 0.00274789 0.454771 0.5
343 32 0.0602358 0.47085 0.5
545 34 0.0930672 0.465163 0.5
971 26 0.0877439 0.499292 0.5
326 36 0.127155 0.452841 0.5
716 30 0.121604 0.4914 0.5
41 31 0.151824 0.476486 0.5
960 34 0.176293 0.503154 0.5
959 29 0.188702 0.467883 0.5
196 31 0.214588 0.488359 0.5
288 33 0.2183 0.453679 0.5
631 30 0.245943 0.477326 0.5
713 33 0.272208 0.49845 0.5
628 31 0.277967 0.466009 0.5
480 29 0.309457 0.454127 0.5
764 33 0.302724 0.488334 0.5
429 29 0.334132 0.478305 0.5
787 29 0.369982 0.469269 0.5
917 34 0.357818 0.50343 0.5
534 32 0.390537 0.495865 0.5
555 30 0.399597 0.460564 0.5
179 31 0.424437 0.483239 0.5
616 30 0.457777 0.471038 0.5
693 30 0.486437 0.458588 0.5
882 33 0.480325 0.495595 0.5
36 33 0.519057 0.450585 0.5
794 31 0.543291 0.474109 0.5
765 28 0.512221 0.483053 0.5
581 27 0.575015 0.464303 0.5
556 30 0.600629 0.487416 0.5
587 33 0.608595 0.455288 0.5
92 29 0.63226 0.480355 0.5
65 31 0.665719 0.468879 0.5
175 36 0.698803 0.460616 0.5
406 30 0.690265 0.493081 0.5
893 30 0.723159 0.486529 0.5
866 30 0.733069 0.450545 0.5
531 29 0.757457 0.473166 0.5
9 29 0.824289 0.455296 0.5
206 31 0.780256 0.495448 0.5
251 31 0.78994 0.463609 0.5
17 29 0.814077 0.483612 0.5
267 29 0.850089 0.476546 0.5
383 32 0.880892 0.465195 0.5
364 31 0.875044 0.496794 0.5
478 30 0.911755 0.454224 0.5
999 33 0.909859 0.488474 0.5
974 29 0.939788 0.477618 0.5
191 33 0.994859 0.487523 0.5
973 27 0.972232 0.466636 0.5
544 29 0.96473 0.501447 0.5
188 31 0.0215618 0.513382 0.5
533 32 0.0457654 0.536253 0.5
585 31 0.0112869 0.544725 0.5
575 31 0.0572628 0.504508 0.5
294 30 0.0806638 0.532629 0.5
633 30 0.104128 0.553498 0.5
579 29 0.112433 0.522381 0.5
807 27 0.145643 0.51267 0.5
793 30 0.135749 0.543043 0.5
60 29 0.16622 0.53531 0.5
109 35 0.206559 0.520879 0.5
869 31 0.19361 0.5569 0.5
512 31 0.239574 0.509765 0.5
600 33 0.227107 0.54868 0.5
95 31 0.260087 0.536789 0.5
951 30 0.29214 0.525095 0.5
929 32 0.32559 0.511585 0.5
26 34 0.318895 0.544918 0.5
22 32 0.383767 0.527666 0.5
641 30 0.353727 0.535734 0.5
967 28 0.415857 0.516948 0.5
7 32 0.408651 0.54883 0.5
985 28 0.440255 0.542879 0.5
458 33 0.448875 0.504791 0.5
541 31 0.469295 0.531695 0.5
965 30 0.495742 0.553249 0.5
331 29 0.501531 0.519323 0.5
956 32 0.53386 0.507924 0.5
410 34 0.527017 0.541133 0.5
875 32 0.567311 0.498265 0.5
105 31 0.560597 0.530385 0.5
349 35 0.595319 0.52089 0.5
506 33 0.586111 0.556289 0.5
112 28 0.659277 0.503667 0.5
771 28 0.620384 0.547348 0.5
303 30 0.62821 0.510851 0.5
133 31 0.64916 0.535375 0.5
23 29 0.680561 0.527275 0.5
692 29 0.714681 0.51794 0.5
730 31 0.701929 0.551848 0.5
619 31 0.749194 0.505005 0.5
125 30 0.73838 0.53626 0.5
70 29 0.775689 0.525717 0.5
311 29 0.807043 0.513496 0.5
137 32 0.802555 0.546211 0.5
590 28 0.842453 0.506209 0.5
910 30 0.834582 0.538058 0.5
47 31 0.867613 0.530024 0.5
578 30 0.933761 0.515341 0.5
816 31 0.891632 0.552994 0.5
282 29 0.902255 0.522459 0.5
911 30 0.92662 0.544651 0.5
784 29 0.959411 0.534754 0.5
553 31 0.990143 0.521035 0.5
601 31 0.036785 0.568032 0.5
918 34 0.0290123 0.603252 0.5
818 28 0.00327225 0.579471 0.5
853 26 0.0735942 0.562864 0.5
503 33 0.061601 0.594992 0.5
135 30 0.0941577 0.583695 0.5
862 28 0.123111 0.608556 0.5
748 32 0.126525 0.575396 0.5
212 28 0.152643 0.596505 0.5
791 29 0.161499 0.567455 0.5
790 31 0.182974 0.590734 0.5
450 28 0.208908 0.612222 0.5
962 37 0.21773 0.58149 0.5
826 30 0.256182 0.571659 0.5
465 29 0.249253 0.603766 0.5
111 30 0.286489 0.558045 0.5
750 31 0.281313 0.591984 0.5
234 32 0.312543 0.580127 0.5
812 29 0.379701 0.559779 0.5
594 32 0.335614 0.602849 0.5
872 34 0.344953 0.566969 0.5
972 30 0.367964 0.594523 0.5
154 30 0.398302 0.585706 0.5
51 31 0.432098 0.572656 0.5
687 31 0.424677 0.608314 0.5
563 33 0.4577 0.5986 0.5
668 27 0.461261 0.566882 0.5
423 32 0.487636 0.584593 0.5
40 34 0.520762 0.577207 0.5
928 31 0.544654 0.601949 0.5
665 35 0.55366 0.567769 0.5
117 31 0.514281 0.615618 0.5
504 34 0.57609 0.592933 0.5
593 28 0.608655 0.578622 0.5
77 26 0.63985 0.570179 0.5
767 34 0.636054 0.604044 0.5
128 31 0.671648 0.562879 0.5
549 30 0.667281 0.593891 0.5
275 31 0.700109 0.584745 0.5
157 31 0.760202 0.559211 0.5
1000 33 0.728522 0.607661 0.5
404 31 0.728914 0.570114 0.5
42 35 0.760915 0.595341 0.5
347 36 0.79353 0.579609 0.5
691 34 0.829198 0.571931 0.5
805 29 0.818857 0.603893 0.5
118 29 0.859657 0.562385 0.5
625 31 0.881849 0.587621 0.5
727 33 0.850961 0.596941 0.5
318 32 0.916126 0.574204 0.5
522 33 0.907601 0.607114 0.5
438 29 0.981432 0.556361 0.5
341 28 0.940087 0.59489 0.5
110 30 0.950208 0.565095 0.5
760 29 0.972908 0.59082 0.5
381 31 -0.00289999 0.613238 0.5
867 33 0.0221264 0.637803 0.5
861 32 0.0498653 0.659176 0.5
632 30 0.0570197 0.626974 0.5
968 33 0.0890351 0.616332 0.5
868 34 0.0827646 0.65127 0.5
906 34 0.114933 0.637819 0.5
550 28 0.147514 0.629591 0.5
913 30 0.139726 0.660088 0.5
789 29 0.179135 0.622849 0.5
624 28 0.17169 0.654536 0.5
151 33 0.20279 0.644629 0.5
422 30 0.272035 0.624014 0.5
925 27 0.234418 0.632971 0.5
447 33 0.262571 0.660012 0.5
1 29 0.228034 0.668268 0.5
524 32 0.303416 0.616474 0.5
186 31 0.328207 0.636731 0.5
74 32 0.29298 0.647748 0.5
29 30 0.358612 0.627851 0.5
830 30 0.353499 0.658039 0.5
833 31 0.383238 0.648245 0.5
942 28 0.391205 0.618349 0.5
475 29 0.417194 0.643881 0.5
300 33 0.443013 0.667504 0.5
948 33 0.448992 0.63439 0.5
11 33 0.481973 0.620689 0.5
783 29 0.475339 0.657222 0.5
20 32 0.506001 0.647167 0.5
526 30 0.537466 0.637284 0.5
543 32 0.531324 0.669634 0.5
324 34 0.603673 0.61529 0.5
620 29 0.569414 0.626114 0.5
432 30 0.593635 0.64926 0.5
883 33 0.562537 0.658766 0.5
371 30 0.627961 0.635795 0.5
595 32 0.653913 0.658169 0.5
814 31 0.664174 0.625844 0.5
394 30 0.696098 0.61595 0.5
297 30 0.688989 0.646755 0.5
281 28 0.719762 0.640156 0.5
83 31 0.753363 0.632034 0.5
79 33 0.743873 0.664836 0.5
899 27 0.779884 0.649615 0.5
43 32 0.789231 0.617098 0.5
163 28 0.813044 0.639729 0.5
269 31 0.876308 0.617804 0.5
573 30 0.834892 0.661745 0.5
46 32 0.845409 0.63063 0.5
908 27 0.867114 0.653034 0.5
454 31 0.900676 0.639418 0.5
35 33 0.933201 0.630525 0.5
64 31 0.924542 0.665515 0.5
726 30 0.989077 0.646079 0.5
772 31 0.964999 0.621435 0.5
271 30 0.958123 0.655343 0.5
916 28 0.0141631 0.670106 0.5
134 32 0.0426134 0.691425 0.5
119 30 0.0104962 0.700557 0.5
231 31 0.0335688 0.721702 0.5
643 29 0.0696426 0.714558 0.5
946 30 0.0739347 0.682462 0.5
777 29 0.0998421 0.706682 0.5
725 34 0.108329 0.674726 0.5
319 30 0.133312 0.695163 0.5
680 30 0.163754 0.685797 0.5
187 32 0.159631 0.716738 0.5
472 29 0.198912 0.677769 0.5
854 29 0.192687 0.708743 0.5
714 30 0.224251 0.700777 0.5
19 30 0.261564 0.693669 0.5
207 31 0.250671 0.723572 0.5
460 32 0.319601 0.668157 0.5
441 30 0.283908 0.71624 0.5
344 27 0.289795 0.680807 0.5
82 32 0.314814 0.70071 0.5
804 30 0.348465 0.692525 0.5
116 27 0.378405 0.686753 0.5
284 32 0.369526 0.717648 0.5
129 33 0.408914 0.674547 0.5
722 32 0.431598 0.698961 0.5
10 30 0.401434 0.707699 0.5
246 32 0.468457 0.68893 0.5
152 32 0.489318 0.715348 0.5
796 29 0.498146 0.677388 0.5
235 32 0.524194 0.705185 0.5
634 25 0.555579 0.692574 0.5
126 31 0.588512 0.68156 0.5
446 30 0.580893 0.71499 0.5
306 29 0.623566 0.670999 0.5
32 27 0.613988 0.700569 0.5
572 32 0.646007 0.698232 0.5
62 30 0.710185 0.67165 0.5
470 30 0.671079 0.722018 0.5
758 27 0.674933 0.683288 0.5
732 30 0.701196 0.703179 0.5
560 30 0.735613 0.695074 0.5
185 33 0.775288 0.681796 0.5
481 30 0.763019 0.712569 0.5
850 28 0.804299 0.672444 0.5
840 29 0.801026 0.703506 0.5
870 30 0.830884 0.697329 0.5
599 32 0.861424 0.683029 0.5
254 31 0.853669 0.718322 0.5
654 28 0.883756 0.704398 0.5
711 32 0.89189 0.673598 0.5
778 28 0.917698 0.697561 0.5
392 30 0.941717 0.721162 0.5
981 30 0.98396 0.680643 0.5
338 30 0.947648 0.689169 0.5
584 28 0.97658 0.71267 0.5
683 32 0.0261457 0.754362 0.5
675 29 0.000723706 0.731397 0.5
142 31 0.0498686 0.778924 0.5
200 32 0.0631735 0.746581 0.5
696 29 0.0929907 0.737089 0.5
697 33 0.0857919 0.768676 0.5
477 31 0.125189 0.729105 0.5
514 28 0.117485 0.761275 0.5
398 33 0.149343 0.75097 0.5
204 32 0.218167 0.732456 0.5
190 34 0.176545 0.776575 0.5
827 35 0.183468 0.742668 0.5
98 32 0.209213 0.764292 0.5
342 34 0.242957 0.755262 0.5
439 29 0.274826 0.746898 0.5
205 29 0.306288 0.737088 0.5
145 28 0.329861 0.762932 0.5
127 27 0.300339 0.766585 0.5
287 33 0.336998 0.725758 0.5
576 31 0.361995 0.749873 0.5
220 30 0.393423 0.742407 0.5
286 31 0.423787 0.733074 0.5
610 30 0.41749 0.764167 0.5
45 30 0.456709 0.720337 0.5
48 28 0.448876 0.756933 0.5
954 28 0.477648 0.74405 0.5
486 33 0.550387 0.725062 0.5
640 33 0.507236 0.769236 0.5
86 30 0.519848 0.738225 0.5
717 30 0.540937 0.762179 0.5
909 29 0.572536 0.748695 0.5
99 28 0.603091 0.740235 0.5
198 32 0.599075 0.773396 0.5
417 28 0.568048 0.779054 0.5
69 32 0.635951 0.733488 0.5
266 32 0.631096 0.766374 0.5
209 29 0.665141 0.752447 0.5
479 26 0.69956 0.735344 0.5
958 27 0.696575 0.763503 0.5
915 29 0.725695 0.757952 0.5
820 30 0.729778 0.726083 0.5
184 29 0.754986 0.745211 0.5
49 29 0.749375 0.776975 0.5
327 31 0.781269 0.764921 0.5
123 25 0.822309 0.726994 0.5
323 30 0.788733 0.73335 0.5
195 33 0.813583 0.758241 0.5
496 30 0.84467 0.748311 0.5
843 32 0.878146 0.741234 0.5
50 31 0.868907 0.771926 0.5
904 32 0.83784 0.781988 0.5
322 27 0.905132 0.724931 0.5
276 32 0.93538 0.752655 0.5
334 32 0.903219 0.76235 0.5
474 29 0.967323 0.742693 0.5
997 32 0.99316 0.764638 0.5
295 32 0.960145 0.776266 0.5
759 33 0.0172019 0.78789 0.5
757 34 0.0478067 0.813282 0.5
93 35 0.0168791 0.822121 0.5
223 26 0.0810964 0.801289 0.5
612 29 0.104018 0.826594 0.5
724 34 0.110776 0.791895 0.5
495 31 0.143703 0.784187 0.5
695 27 0.134728 0.82192 0.5
684 28 0.168559 0.807607 0.5
237 32 0.201544 0.798219 0.5
489 27 0.19374 0.829614 0.5
907 29 0.268345 0.778074 0.5
240 30 0.225207 0.822219 0.5
359 32 0.233884 0.787041 0.5
320 32 0.257659 0.810752 0.5
401 28 0.289917 0.808485 0.5
351 31 0.319729 0.796345 0.5
718 26 0.312311 0.826887 0.5
731 32 0.280718 0.837196 0.5
53 32 0.379577 0.776467 0.5
552 30 0.3501 0.790477 0.5
865 27 0.343756 0.820705 0.5
449 29 0.379267 0.808633 0.5
13 31 0.408127 0.797066 0.5
657 28 0.435324 0.818825 0.5
419 32 0.406805 0.834647 0.5
15 32 0.442251 0.788748 0.5
291 29 0.473065 0.777527 0.5
825 33 0.467322 0.812085 0.5
863 29 0.49784 0.801016 0.5
667 29 0.532619 0.791525 0.5
739 35 0.526137 0.824619 0.5
321 31 0.559112 0.810488 0.5
554 30 0.590107 0.807304 0.5
755 28 0.653209 0.789245 0.5
411 31 0.621503 0.799451 0.5
507 30 0.646901 0.827889 0.5
890 32 0.611148 0.833284 0.5
56 29 0.683774 0.794254 0.5
681 28 0.710167 0.817373 0.5
604 27 0.715959 0.786706 0.5
437 31 0.741454 0.807076 0.5
25 31 0.77213 0.796573 0.5
354 32 0.765938 0.830061 0.5
810 31 0.803802 0.789411 0.5
638 37 0.798647 0.822385 0.5
678 30 0.83156 0.8146 0.5
570 32 0.862568 0.805962 0.5
945 32 0.889259 0.826518 0.5
635 27 0.897166 0.795511 0.5
605 28 0.919812 0.816491 0.5
463 29 0.926925 0.783434 0.5
613 29 0.951986 0.806428 0.5
880 34 0.984758 0.800699 0.5
546 31 0.98089 0.834283 0.5
839 29 0.0411907 0.847764 0.5
308 29 0.0288384 0.877886 0.5
299 28 0.000800758 0.859873 0.5
285 30 0.0741961 0.832386 0.5
515 30 0.0622899 0.869249 0.5
539 31 0.0962124 0.861142 0.5
842 29 0.165536 0.838104 0.5
992 33 0.119947 0.884975 0.5
38 30 0.124776 0.85056 0.5
889 29 0.15004 0.87211 0.5
435 28 0.182898 0.862758 0.5
876 31 0.214426 0.85337 0.5
947 32 0.206818 0.885496 0.5
213 31 0.248217 0.843446 0.5
970 27 0.24196 0.87645 0.5
352 29 0.271173 0.867667 0.5
989 32 0.304836 0.865045 0.5
721 29 0.334218 0.883649 0.5
194 31 0.372047 0.838915 0.5
617 32 0.336457 0.850423 0.5
399 32 0.364731 0.87463 0.5
218 27 0.397852 0.868702 0.5
122 30 0.42826 0.859307 0.5
230 31 0.420139 0.891639 0.5
937 31 0.493846 0.836635 0.5
304 29 0.452593 0.884244 0.5
547 32 0.462156 0.845057 0.5
150 34 0.482593 0.871257 0.5
226 31 0.514164 0.863256 0.5
59 28 0.534077 0.887638 0.5
978 27 0.545215 0.85309 0.5
3 32 0.578705 0.843954 0.5
773 26 0.600271 0.865494 0.5
292 30 0.5678 0.87577 0.5
370 33 0.632334 0.860976 0.5
453 28 0.626282 0.892175 0.5
602 28 0.677279 0.824683 0.5
932 29 0.665441 0.857115 0.5
30 31 0.700275 0.847219 0.5
395 29 0.690893 0.881827 0.5
509 29 0.723632 0.872733 0.5
735 29 0.731161 0.840525 0.5
337 30 0.755707 0.866262 0.5
774 32 0.790716 0.856469 0.5
147 30 0.825616 0.845666 0.5
669 34 0.818614 0.87848 0.5
108 32 0.783484 0.888882 0.5
221 27 0.857541 0.837464 0.5
782 29 0.852732 0.868862 0.5
373 32 0.884312 0.858385 0.5
878 31 0.916546 0.850074 0.5
703 30 0.937974 0.874501 0.5
858 31 0.905378 0.883575 0.5
88 35 0.947113 0.839754 0.5
484 32 0.969885 0.867792 0.5
238 28 0.994884 0.890216 0.5
219 29 0.0189876 0.912447 0.5
396 31 0.0417846 0.935241 0.5
689 30 0.00967492 0.944192 0.5
969 30 0.0517092 0.903862 0.5
642 31 0.0839024 0.894158 0.5
236 35 0.0740235 0.926868 0.5
468 29 0.107353 0.917691 0.5
747 28 0.145325 0.903386 0.5
647 30 0.136681 0.934027 0.5
828 30 0.166702 0.926297 0.5
801 29 0.176193 0.895244 0.5
160 30 0.198571 0.918044 0.5
315 30 0.267592 0.901752 0.5
466 35 0.232588 0.906934 0.5
248 28 0.25267 0.933564 0.5
462 30 0.300358 0.896415 0.5
518 30 0.290141 0.928044 0.5
433 28 0.323315 0.924149 0.5
941 30 0.34528 0.945164 0.5
639 27 0.355972 0.908428 0.5
391 28 0.377688 0.934861 0.5
659 32 0.388656 0.899129 0.5
884 33 0.410411 0.925141 0.5
222 31 0.441781 0.916494 0.5
78 26 0.470724 0.907755 0.5
627 31 0.465121 0.937924 0.5
362 31 0.494869 0.928188 0.5
388 29 0.50607 0.897022 0.5
523 27 0.527164 0.918182 0.5
386 33 0.560765 0.907507 0.5
268 36 0.593547 0.896947 0.5
525 29 0.586017 0.92966 0.5
808 29 0.554022 0.941268 0.5
159 32 0.659855 0.889322 0.5
366 30 0.622377 0.923625 0.5
800 27 0.654293 0.920656 0.5
537 29 0.685311 0.913656 0.5
708 29 0.716501 0.905697 0.5
817 33 0.707037 0.935994 0.5
173 30 0.750015 0.897808 0.5
520 31 0.775225 0.921203 0.5
482 30 0.73943 0.926758 0.5
335 32 0.809508 0.911703 0.5
76 29 0.833039 0.934512 0.5
527 30 0.875398 0.893545 0.5
562 33 0.842787 0.902563 0.5
302 29 0.865306 0.924474 0.5
746 28 0.898404 0.915849 0.5
780 30 0.927846 0.906193 0.5
314 31 0.918835 0.938759 0.5
924 28 0.952098 0.928784 0.5
975 29 0.985052 0.920016 0.5
183 29 0.96062 0.89888 0.5
501 32 0.0247785 0.998289 0.5
149 29 0.0344342 0.966208 0.5
436 31 -0.000172804 0.976172 0.5
328 27 0.0997813 0.94873 0.5
528 32 0.0574328 0.98991 0.5
55 29 0.066502 0.958673 0.5
931 30 0.0893558 0.980008 0.5
873 31 0.121444 0.970674 0.5
459 33 0.150943 0.993899 0.5
261 33 0.155981 0.960826 0.5
894 29 0.189811 0.948034 0.5
510 32 0.182563 0.98186 0.5
131 29 0.221831 0.940669 0.5
811 29 0.21541 0.971551 0.5
197 30 0.268873 0.988699 0.5
891 32 0.24676 0.964491 0.5
172 26 0.316695 0.952858 0.5
224 30 0.277624 0.957478 0.5
775 32 0.303008 0.981589 0.5
567 30 0.336361 0.974836 0.5
670 32 0.370559 0.96823 0.5
61 31 0.433006 0.948 0.5
387 30 0.395419 0.990034 0.5
257 32 0.402079 0.958396 0.5
255 30 0.426568 0.980175 0.5
180 31 0.484837 0.995687 0.5
903 31 0.461341 0.971006 0.5
831 30 0.492982 0.96478 0.5
148 32 0.525351 0.957342 0.5
14 30 0.517384 0.989007 0.5
189 23 0.545193 0.98037 0.5
738 31 0.571966 0.999144 0.5
623 33 0.604539 0.989931 0.5
682 33 0.579196 0.966874 0.5
451 31 0.612626 0.956244 0.5
390 31 0.636619 0.982135 0.5
896 30 0.643151 0.949624 0.5
494 27 0.668179 0.974152 0.5
982 31 0.675087 0.944329 0.5
250 30 0.700881 0.97046 0.5
243 31 0.724957 0.993574 0.5
877 30 0.765883 0.951391 0.5
979 32 0.731676 0.959127 0.5
420 32 0.75547 0.98321 0.5
609 30 0.800697 0.943181 0.5
741 32 0.786901 0.97461 0.5
926 32 0.823974 0.965767 0.5
153 33 0.886871 0.946805 0.5
139 30 0.846565 0.991703 0.5
558 31 0.8556 0.956461 0.5
930 29 0.880532 0.97898 0.5
955 29 0.938117 0.992737 0.5
52 33 0.911691 0.97017 0.5
836 30 0.944311 0.959823 0.5
630 31 0.976927 0.952288 0.5
588 29 0.969008 0.983478 0.5
