ITEM: TIMESTEP
2270000
ITEM: NUMBER OF ATOMS
1000
ITEM: BOX BOUNDS pp pp pp
-1.6661811000000000e+01 1.6661811000000000e+01
-1.6661811000000000e+01 1.6661811000000000e+01
-5.0000000000000000e-01 5.0000000000000000e-01
ITEM: ATOMS id type xs ys zs
242 38 0.025978 0.0357844 0.5
143 30 0.0532777 0.0118271 0.5
538 35 0.0188316 0.00056405 0.5
89 30 0.062757 0.0433446 0.5
161 25 0.0879476 0.0258778 0.5
262 32 0.118167 0.0381506 0.5
490 32 0.115581 0.00409836 0.5
33 30 0.0931436 0.0570724 0.5
498 29 0.146197 0.0182375 0.5
180 34 0.177696 0.0327716 0.5
743 33 0.148874 0.05129 0.5
461 33 0.172443 -0.00139838 0.5
865 17 0.199629 0.0148341 0.5
227 32 0.209141 0.0467287 0.5
255 29 0.227383 0.0092668 0.5
315 27 0.261031 0.0195595 0.5
81 26 0.238277 0.0375163 0.5
811 24 0.265995 0.0508458 0.5
860 30 0.316913 0.0107482 0.5
14 28 0.290354 0.0315328 0.5
769 28 0.320712 0.043139 0.5
694 31 0.294452 0.0627227 0.5
559 34 0.350617 0.019104 0.5
831 28 0.350799 0.0527255 0.5
374 36 0.388745 0.0177177 0.5
682 38 0.385849 0.0554032 0.5
896 29 0.423611 0.00875251 0.5
592 22 0.413542 0.0354258 0.5
921 40 0.446942 0.0355699 0.5
763 36 0.479596 0.0178346 0.5
798 36 0.480251 0.0537389 0.5
993 29 0.507845 0.000646388 0.5
467 32 0.509674 0.0350865 0.5
649 38 0.540642 0.01691 0.5
898 27 0.53788 0.0493887 0.5
845 26 0.572535 0.0302262 0.5
926 35 0.570514 0.0619973 0.5
445 37 0.600971 0.010648 0.5
57 33 0.601079 0.0460324 0.5
824 32 0.631864 0.0257731 0.5
561 32 0.660941 0.00593169 0.5
485 36 0.662622 0.0416384 0.5
425 33 0.631635 0.0620359 0.5
301 39 0.694471 0.0193089 0.5
930 24 0.723265 0.037689 0.5
779 40 0.695981 0.0573076 0.5
107 29 0.72225 -0.000882849 0.5
139 28 0.747784 0.0157998 0.5
569 34 0.755126 0.0476505 0.5
55 27 0.783469 0.0309231 0.5
955 27 0.785638 0.0636175 0.5
583 21 0.806387 0.0158413 0.5
356 22 0.810458 0.0433417 0.5
106 15 0.829649 0.0273952 0.5
591 24 0.85606 0.0256471 0.5
68 32 0.842486 0.0536238 0.5
115 19 0.871354 0.0516252 0.5
858 34 0.888697 0.0278716 0.5
34 31 0.922767 0.0310788 0.5
365 26 0.902161 0.0580514 0.5
648 22 0.990375 0.0146948 0.5
588 24 0.943274 0.00789256 0.5
656 17 0.968525 0.00167672 0.5
249 35 0.962316 0.0320961 0.5
378 32 0.99335 0.0472376 0.5
663 34 0.936568 0.0603977 0.5
379 25 0.96863 0.0639473 0.5
589 21 0.0152903 0.0677856 0.5
920 28 0.0448726 0.069306 0.5
998 31 0.0266274 0.0953013 0.5
193 27 0.0575991 0.0980259 0.5
933 28 0.039891 0.124756 0.5
382 41 0.00534921 0.126028 0.5
350 10 0.0706461 0.0736007 0.5
516 44 0.0925742 0.0958113 0.5
891 34 0.122161 0.0725197 0.5
846 35 0.127607 0.10778 0.5
766 28 0.0733151 0.126421 0.5
210 26 0.104749 0.132484 0.5
487 30 0.154431 0.0863022 0.5
67 30 0.181137 0.0658169 0.5
298 41 0.18769 0.10194 0.5
290 31 0.158533 0.121776 0.5
172 16 0.208077 0.075328 0.5
927 33 0.236399 0.0685934 0.5
469 39 0.226647 0.102723 0.5
280 41 0.267037 0.09089 0.5
673 25 0.301951 0.0926445 0.5
181 32 0.326721 0.0738905 0.5
706 33 0.29038 0.12174 0.5
511 41 0.332397 0.111554 0.5
203 43 0.36087 0.0861812 0.5
71 35 0.396863 0.0947224 0.5
385 32 0.36918 0.125754 0.5
239 37 0.40429 0.129126 0.5
701 41 0.422281 0.0672427 0.5
464 30 0.429025 0.101907 0.5
621 26 0.45597 0.0766427 0.5
414 36 0.463777 0.108419 0.5
409 30 0.490225 0.0851954 0.5
715 19 0.513806 0.0657609 0.5
536 26 0.517298 0.0982593 0.5
934 22 0.495738 0.115788 0.5
390 33 0.542296 0.0814717 0.5
492 43 0.574522 0.100373 0.5
551 30 0.541727 0.116462 0.5
434 22 0.593962 0.130757 0.5
413 24 0.604784 0.078838 0.5
788 35 0.636556 0.0980796 0.5
699 20 0.60732 0.106897 0.5
208 32 0.664312 0.0754223 0.5
580 26 0.647904 0.126812 0.5
104 23 0.621156 0.129639 0.5
737 36 0.707921 0.0936579 0.5
795 38 0.674347 0.108602 0.5
655 28 0.729648 0.0687826 0.5
317 40 0.7086 0.1314 0.5
103 34 0.756747 0.084452 0.5
530 28 0.736518 0.111386 0.5
138 32 0.789384 0.0967013 0.5
749 27 0.766934 0.118591 0.5
63 28 0.795236 0.131077 0.5
397 33 0.814746 0.0752534 0.5
986 27 0.844064 0.0856552 0.5
704 36 0.823578 0.111751 0.5
644 30 0.858535 0.113169 0.5
857 43 0.8786 0.0834886 0.5
964 34 0.91586 0.0878824 0.5
806 26 0.895925 0.114098 0.5
939 40 0.928705 0.123625 0.5
393 42 0.99055 0.0887452 0.5
272 39 0.950932 0.0941811 0.5
923 35 0.967834 0.127491 0.5
155 30 0.0245922 0.157779 0.5
685 30 0.0561615 0.153062 0.5
574 18 0.0405992 0.183525 0.5
803 31 0.00993197 0.184814 0.5
886 27 0.0876357 0.157131 0.5
813 30 0.133868 0.14171 0.5
700 24 0.0675688 0.179691 0.5
662 33 0.117434 0.170405 0.5
170 34 0.163039 0.158487 0.5
596 26 0.1866 0.136577 0.5
245 18 0.145647 0.184265 0.5
849 37 0.176738 0.191277 0.5
18 46 0.253319 0.13443 0.5
513 26 0.216633 0.136023 0.5
260 27 0.19834 0.165489 0.5
279 33 0.231433 0.166426 0.5
614 29 0.212628 0.19481 0.5
28 26 0.261897 0.174997 0.5
367 26 0.244398 0.198374 0.5
442 37 0.316309 0.145505 0.5
953 28 0.28389 0.153622 0.5
823 27 0.2952 0.181086 0.5
87 27 0.325863 0.176978 0.5
274 26 0.35039 0.151921 0.5
608 29 0.380633 0.156065 0.5
577 39 0.359918 0.184799 0.5
169 17 0.391102 0.182609 0.5
325 33 0.417655 0.165792 0.5
957 38 0.44026 0.135908 0.5
263 28 0.451185 0.166706 0.5
440 43 0.481099 0.144874 0.5
856 26 0.515974 0.136013 0.5
871 27 0.479938 0.180415 0.5
58 26 0.510214 0.166463 0.5
671 23 0.53323 0.182071 0.5
178 20 0.564661 0.132858 0.5
944 29 0.541774 0.152874 0.5
629 23 0.581701 0.155046 0.5
900 22 0.561309 0.174972 0.5
90 43 0.592385 0.188282 0.5
358 27 0.610431 0.156894 0.5
372 25 0.640586 0.155117 0.5
430 34 0.629395 0.184142 0.5
305 29 0.662494 0.178912 0.5
874 41 0.674001 0.146259 0.5
799 26 0.693964 0.172883 0.5
582 27 0.714618 0.195716 0.5
994 27 0.723495 0.166543 0.5
744 34 0.744871 0.14219 0.5
768 31 0.746675 0.190758 0.5
571 48 0.775351 0.165661 0.5
676 31 0.812868 0.156596 0.5
745 37 0.845711 0.143172 0.5
270 32 0.807291 0.189251 0.5
797 32 0.840123 0.177655 0.5
938 20 0.876194 0.135944 0.5
332 25 0.901111 0.145143 0.5
729 20 0.926791 0.158471 0.5
528 34 0.871758 0.164868 0.5
677 42 0.904758 0.180775 0.5
855 31 0.865429 0.197403 0.5
310 34 0.98897 0.157757 0.5
456 31 0.955469 0.160401 0.5
940 26 0.93939 0.187271 0.5
733 41 0.973905 0.192044 0.5
712 29 0.0287979 0.211319 0.5
736 23 0.0587709 0.205666 0.5
202 42 0.0134278 0.243707 0.5
130 27 0.0497326 0.234263 0.5
97 20 -0.000998725 0.212584 0.5
66 32 0.0916324 0.198597 0.5
448 33 0.126779 0.206 0.5
976 19 0.0769132 0.22281 0.5
770 45 0.0764351 0.257456 0.5
705 28 0.103427 0.231883 0.5
429 25 0.155674 0.215403 0.5
405 28 0.134189 0.240367 0.5
542 32 0.193252 0.221042 0.5
252 37 0.169068 0.245553 0.5
24 29 0.202642 0.252631 0.5
167 25 0.223386 0.225305 0.5
555 30 0.253752 0.227808 0.5
80 29 0.23451 0.253888 0.5
488 24 0.273836 0.20377 0.5
936 22 0.302023 0.209162 0.5
754 31 0.267225 0.25863 0.5
995 23 0.286524 0.231444 0.5
140 29 0.316909 0.235199 0.5
162 32 0.29935 0.263192 0.5
132 31 0.332988 0.207402 0.5
996 24 0.382898 0.207763 0.5
802 37 0.35787 0.230564 0.5
646 26 0.372869 0.261939 0.5
809 25 0.390242 0.237002 0.5
273 27 0.410739 0.202356 0.5
389 43 0.444743 0.200051 0.5
400 36 0.422817 0.232723 0.5
834 31 0.404618 0.263922 0.5
457 40 0.458978 0.237143 0.5
174 31 0.505183 0.198487 0.5
493 22 0.477226 0.210523 0.5
114 23 0.527367 0.218708 0.5
607 40 0.498419 0.235427 0.5
914 23 0.528772 0.247971 0.5
658 38 0.556182 0.205007 0.5
531 24 0.555746 0.238656 0.5
452 34 0.584897 0.227209 0.5
72 23 0.579549 0.257219 0.5
742 31 0.651179 0.209338 0.5
4 34 0.617334 0.216772 0.5
666 33 0.609681 0.252207 0.5
508 26 0.639843 0.238577 0.5
603 28 0.684533 0.202602 0.5
165 19 0.707056 0.223069 0.5
832 45 0.676866 0.238975 0.5
265 46 0.712795 0.257066 0.5
312 42 0.774423 0.212323 0.5
887 33 0.73833 0.223876 0.5
363 23 0.762005 0.246683 0.5
963 25 0.791142 0.243506 0.5
838 19 0.804833 0.219036 0.5
408 26 0.82163 0.240365 0.5
329 36 0.834217 0.211092 0.5
859 43 0.847696 0.263133 0.5
416 35 0.866995 0.231731 0.5
653 22 0.892181 0.211859 0.5
346 29 0.920911 0.21448 0.5
776 31 0.901567 0.240284 0.5
615 27 0.883356 0.266404 0.5
85 19 0.949822 0.213389 0.5
164 35 0.937963 0.242238 0.5
762 33 0.974317 0.229005 0.5
244 28 0.979428 0.260545 0.5
2 28 0.0388383 0.267799 0.5
548 39 0.0072126 0.281778 0.5
326 48 0.0351564 0.310931 0.5
124 26 0.0619023 0.288712 0.5
345 33 0.113051 0.267422 0.5
233 25 0.0924922 0.291873 0.5
881 25 0.0732535 0.31553 0.5
628 31 0.105098 0.319295 0.5
407 24 0.127479 0.298505 0.5
369 36 0.147781 0.272789 0.5
792 31 0.138179 0.32929 0.5
54 28 0.181107 0.277859 0.5
171 35 0.161359 0.30677 0.5
917 42 0.198018 0.314409 0.5
720 27 0.214732 0.281089 0.5
564 25 0.246997 0.282038 0.5
756 27 0.231006 0.30739 0.5
179 31 0.258807 0.321991 0.5
293 38 0.278161 0.291871 0.5
815 30 0.315075 0.293641 0.5
376 44 0.297602 0.327337 0.5
966 22 0.33089 0.318809 0.5
216 46 0.336888 0.264497 0.5
837 34 0.354485 0.298475 0.5
403 23 0.387066 0.288836 0.5
96 30 0.384829 0.319444 0.5
144 35 0.438479 0.267844 0.5
753 33 0.417771 0.301833 0.5
935 23 0.412174 0.334027 0.5
517 39 0.455743 0.300119 0.5
427 31 0.442258 0.331601 0.5
991 34 0.476047 0.26997 0.5
734 33 0.509137 0.272845 0.5
73 31 0.490125 0.301042 0.5
950 32 0.477812 0.33065 0.5
674 26 0.524525 0.304086 0.5
424 20 0.506621 0.325998 0.5
500 46 0.549181 0.27394 0.5
497 33 0.555395 0.31238 0.5
402 40 0.587762 0.289767 0.5
443 27 0.585326 0.32377 0.5
568 32 0.649258 0.267414 0.5
761 29 0.621267 0.2836 0.5
637 27 0.650498 0.29701 0.5
952 35 0.616561 0.316393 0.5
21 31 0.648377 0.328265 0.5
44 34 0.680575 0.279446 0.5
217 33 0.680182 0.313203 0.5
980 27 0.70966 0.295374 0.5
136 40 0.712846 0.331451 0.5
521 33 0.779246 0.272363 0.5
176 33 0.744281 0.27669 0.5
94 22 0.73629 0.306257 0.5
879 35 0.768574 0.304989 0.5
289 19 0.799303 0.295785 0.5
353 28 0.813087 0.269223 0.5
141 33 0.830685 0.296163 0.5
364 33 0.847426 0.326881 0.5
418 36 0.811602 0.326698 0.5
12 36 0.86724 0.29611 0.5
377 25 0.915516 0.267272 0.5
661 30 0.90097 0.294238 0.5
901 39 0.929279 0.313526 0.5
652 46 0.889158 0.329436 0.5
611 39 0.948613 0.277368 0.5
618 38 0.992116 0.318119 0.5
698 17 0.977753 0.289787 0.5
751 22 0.961878 0.308542 0.5
428 27 0.0169994 0.340748 0.5
716 30 0.0170554 0.372105 0.5
259 15 0.0415735 0.384553 0.5
288 38 0.0488384 0.351093 0.5
929 35 0.0835061 0.347519 0.5
196 31 0.0699481 0.379965 0.5
26 43 0.108843 0.386791 0.5
787 25 0.114858 0.349755 0.5
897 31 0.142984 0.362031 0.5
199 39 0.172659 0.341874 0.5
851 32 0.172372 0.380447 0.5
597 21 0.141946 0.392103 0.5
672 31 0.201225 0.362281 0.5
786 41 0.230548 0.341672 0.5
586 47 0.267026 0.3603 0.5
686 30 0.229797 0.378355 0.5
812 25 0.202004 0.393723 0.5
636 19 0.304326 0.36067 0.5
616 29 0.326834 0.378788 0.5
84 25 0.328193 0.346454 0.5
687 34 0.293185 0.389336 0.5
848 28 0.355353 0.333845 0.5
885 22 0.351886 0.362435 0.5
331 25 0.367811 0.385735 0.5
847 41 0.385732 0.354635 0.5
841 31 0.426998 0.361952 0.5
977 38 0.463654 0.361353 0.5
707 52 0.403803 0.393892 0.5
949 36 0.447267 0.39331 0.5
664 32 0.482978 0.390003 0.5
368 34 0.503603 0.360829 0.5
121 33 0.53311 0.337261 0.5
333 30 0.515472 0.394853 0.5
101 26 0.535055 0.371091 0.5
645 34 0.563161 0.35251 0.5
529 27 0.595646 0.352309 0.5
581 20 0.580872 0.377563 0.5
426 19 0.622002 0.345862 0.5
225 36 0.646796 0.363561 0.5
383 37 0.615021 0.379508 0.5
988 14 0.643017 0.393035 0.5
566 32 0.677285 0.348296 0.5
91 22 0.703675 0.363994 0.5
206 32 0.677405 0.383179 0.5
360 11 0.715781 0.38472 0.5
100 34 0.750404 0.334521 0.5
278 34 0.736021 0.366368 0.5
476 18 0.756921 0.388029 0.5
166 30 0.769928 0.36192 0.5
829 22 0.780992 0.333993 0.5
277 24 0.78405 0.389177 0.5
177 21 0.799255 0.356812 0.5
264 31 0.830855 0.356049 0.5
519 21 0.862756 0.354147 0.5
540 36 0.81675 0.387324 0.5
679 48 0.857589 0.389096 0.5
375 30 0.889719 0.367114 0.5
27 34 0.921356 0.351182 0.5
557 40 0.919532 0.387259 0.5
983 32 0.957134 0.337352 0.5
606 36 0.987497 0.355148 0.5
283 39 0.954399 0.371868 0.5
41 31 0.987316 0.390236 0.5
545 42 0.0200847 0.407993 0.5
807 20 0.0431648 0.431234 0.5
967 22 0.0540333 0.406698 0.5
696 26 0.0153865 0.445097 0.5
713 39 0.0461385 0.462232 0.5
959 25 0.083996 0.407992 0.5
951 29 0.102304 0.432474 0.5
791 25 0.0698422 0.433432 0.5
781 28 0.1304 0.419362 0.5
600 38 0.0836245 0.464508 0.5
962 53 0.125683 0.462565 0.5
750 33 0.16283 0.412747 0.5
882 38 0.196091 0.425849 0.5
631 30 0.165157 0.446238 0.5
234 35 0.196755 0.463032 0.5
541 34 0.256804 0.398493 0.5
120 30 0.226762 0.41178 0.5
985 22 0.253975 0.430623 0.5
111 28 0.226791 0.443996 0.5
532 27 0.28572 0.422274 0.5
709 30 0.316869 0.41257 0.5
534 35 0.313195 0.447039 0.5
8 23 0.281994 0.45224 0.5
651 21 0.344254 0.401165 0.5
902 29 0.370491 0.414587 0.5
154 27 0.342248 0.429996 0.5
888 27 0.395794 0.432004 0.5
556 28 0.367605 0.444484 0.5
785 34 0.344264 0.466053 0.5
36 39 0.430778 0.425618 0.5
228 26 0.415068 0.455263 0.5
794 31 0.446501 0.459047 0.5
175 49 0.47251 0.425456 0.5
665 46 0.513825 0.433447 0.5
296 29 0.477563 0.463468 0.5
232 26 0.506431 0.46861 0.5
384 47 0.553465 0.400958 0.5
491 29 0.59244 0.405579 0.5
348 26 0.575449 0.43162 0.5
593 22 0.54857 0.440361 0.5
587 38 0.571632 0.464415 0.5
549 29 0.537428 0.467945 0.5
692 27 0.604598 0.435731 0.5
112 23 0.623447 0.410696 0.5
626 37 0.661646 0.417857 0.5
619 32 0.635368 0.444142 0.5
421 35 0.700946 0.407981 0.5
864 22 0.698168 0.438477 0.5
6 7 0.719832 0.426554 0.5
727 38 0.669516 0.453026 0.5
9 26 0.723746 0.450803 0.5
251 32 0.734158 0.404959 0.5
578 28 0.766077 0.415105 0.5
892 19 0.742143 0.432399 0.5
478 29 0.797139 0.416804 0.5
821 24 0.780987 0.441697 0.5
43 37 0.755401 0.461874 0.5
343 35 0.831133 0.420513 0.5
632 30 0.811731 0.446941 0.5
911 28 0.841544 0.453823 0.5
772 33 0.865971 0.429209 0.5
544 27 0.890505 0.406434 0.5
341 23 0.92191 0.420124 0.5
313 34 0.89904 0.438687 0.5
553 32 0.875513 0.464558 0.5
156 22 0.928748 0.446915 0.5
191 39 0.953471 0.409158 0.5
533 37 0.986635 0.425884 0.5
723 28 0.957999 0.443831 0.5
480 24 0.985959 0.458303 0.5
575 33 0.0114726 0.476678 0.5
95 33 0.0338037 0.500703 0.5
971 16 0.00498458 0.506299 0.5
913 28 0.0183601 0.529639 0.5
793 28 0.0666022 0.497803 0.5
60 25 0.0523831 0.526787 0.5
764 40 0.10116 0.496185 0.5
862 22 0.0808754 0.523278 0.5
126 32 0.16348 0.479307 0.5
7 36 0.191528 0.497942 0.5
336 38 0.13652 0.502724 0.5
925 19 0.165395 0.511138 0.5
965 29 0.253503 0.46037 0.5
524 35 0.226238 0.480756 0.5
641 29 0.21983 0.516614 0.5
690 25 0.248729 0.505372 0.5
458 39 0.27654 0.487566 0.5
51 32 0.311701 0.480504 0.5
928 34 0.277773 0.52538 0.5
357 39 0.313437 0.518017 0.5
92 26 0.340481 0.498151 0.5
303 28 0.369763 0.494556 0.5
361 34 0.387603 0.468819 0.5
875 35 0.356133 0.526005 0.5
783 24 0.391409 0.515498 0.5
349 45 0.420768 0.491901 0.5
771 23 0.4574 0.487639 0.5
275 32 0.4182 0.529833 0.5
406 29 0.448278 0.515029 0.5
728 35 0.487118 0.497292 0.5
620 26 0.475733 0.526594 0.5
740 35 0.522056 0.496751 0.5
412 28 0.506519 0.527975 0.5
688 25 0.59013 0.498765 0.5
128 31 0.540063 0.52478 0.5
730 32 0.556106 0.496255 0.5
306 25 0.569833 0.52585 0.5
125 30 0.599213 0.530224 0.5
309 35 0.607779 0.47037 0.5
133 32 0.641501 0.4769 0.5
17 25 0.618298 0.501996 0.5
157 33 0.651055 0.508902 0.5
281 23 0.628228 0.529153 0.5
910 30 0.699984 0.468269 0.5
866 28 0.675728 0.487122 0.5
760 24 0.729343 0.480172 0.5
590 22 0.706804 0.499193 0.5
431 31 0.682276 0.520897 0.5
805 26 0.71315 0.531245 0.5
70 26 0.735541 0.509579 0.5
282 26 0.760934 0.495103 0.5
267 25 0.786075 0.470152 0.5
110 30 0.79137 0.500303 0.5
471 22 0.773741 0.524822 0.5
625 33 0.816914 0.478688 0.5
137 34 0.849258 0.48685 0.5
997 36 0.803821 0.533391 0.5
974 24 0.826268 0.511112 0.5
39 25 0.857167 0.518697 0.5
438 26 0.880164 0.495727 0.5
960 44 0.909935 0.476704 0.5
778 22 0.884896 0.523158 0.5
853 14 0.904026 0.508017 0.5
784 27 0.930547 0.507664 0.5
822 37 0.94905 0.477087 0.5
188 32 0.981095 0.489466 0.5
973 18 0.958215 0.506972 0.5
187 34 0.983139 0.52638 0.5
777 25 0.948474 0.532165 0.5
465 26 0.0395512 0.554059 0.5
869 33 0.000214564 0.556692 0.5
450 21 0.0228457 0.576116 0.5
472 25 0.0508468 0.58161 0.5
447 39 0.0744354 0.55417 0.5
22 35 0.1138 0.533557 0.5
748 37 0.0836665 0.589298 0.5
212 22 0.104048 0.56507 0.5
680 29 0.11956 0.592871 0.5
512 32 0.13462 0.564846 0.5
972 28 0.149907 0.534731 0.5
872 42 0.186391 0.534914 0.5
129 39 0.156797 0.596043 0.5
826 30 0.165883 0.563502 0.5
342 43 0.196439 0.582271 0.5
833 33 0.219924 0.551094 0.5
702 26 0.246844 0.533543 0.5
422 30 0.234162 0.581161 0.5
151 41 0.263645 0.563073 0.5
20 37 0.301654 0.554494 0.5
77 15 0.333073 0.543179 0.5
475 24 0.291159 0.58584 0.5
506 39 0.324231 0.586139 0.5
201 35 0.386966 0.546852 0.5
563 38 0.354626 0.563598 0.5
446 27 0.39175 0.580911 0.5
11 40 0.452198 0.55235 0.5
105 31 0.417506 0.562882 0.5
796 25 0.416086 0.597464 0.5
958 19 0.439236 0.581967 0.5
65 32 0.490446 0.554634 0.5
595 37 0.472493 0.584683 0.5
893 29 0.523858 0.554923 0.5
324 42 0.509349 0.586035 0.5
767 44 0.550809 0.585181 0.5
765 21 0.554799 0.551865 0.5
1000 38 0.587445 0.56302 0.5
311 26 0.583791 0.597179 0.5
118 24 0.655131 0.540459 0.5
23 26 0.620556 0.557307 0.5
323 30 0.613378 0.586754 0.5
42 45 0.650072 0.580277 0.5
47 31 0.681831 0.555075 0.5
522 38 0.687451 0.590261 0.5
691 42 0.71619 0.565649 0.5
999 39 0.74624 0.541818 0.5
64 32 0.751065 0.579344 0.5
599 34 0.779259 0.557841 0.5
195 39 0.784381 0.593324 0.5
381 33 0.836721 0.541199 0.5
46 35 0.814446 0.567695 0.5
968 41 0.851128 0.579122 0.5
294 29 0.86984 0.546723 0.5
109 47 0.912928 0.540528 0.5
818 23 0.875294 0.602909 0.5
585 33 0.890833 0.574911 0.5
725 42 0.930015 0.578189 0.5
503 40 0.997227 0.594331 0.5
546 33 0.964276 0.559677 0.5
135 28 0.962147 0.592276 0.5
916 23 0.0286756 0.601973 0.5
726 29 0.0198431 0.629748 0.5
789 27 0.0477962 0.648613 0.5
906 42 0.0587846 0.616559 0.5
790 33 0.095566 0.621943 0.5
854 27 0.0806258 0.652017 0.5
19 27 0.112428 0.649861 0.5
204 35 0.131722 0.623337 0.5
48 23 0.146348 0.650349 0.5
970 19 0.161557 0.627799 0.5
186 32 0.189432 0.619372 0.5
441 29 0.176514 0.650273 0.5
40 43 0.263614 0.605276 0.5
316 41 0.213914 0.650364 0.5
460 36 0.22393 0.613209 0.5
594 34 0.24939 0.63933 0.5
286 31 0.300421 0.614595 0.5
668 19 0.279597 0.634258 0.5
284 37 0.307667 0.647068 0.5
10 29 0.33335 0.625851 0.5
948 39 0.359639 0.600378 0.5
246 34 0.364679 0.636563 0.5
423 35 0.339851 0.660949 0.5
693 28 0.390294 0.615741 0.5
732 27 0.396776 0.648333 0.5
62 27 0.41813 0.627091 0.5
117 32 0.432145 0.658104 0.5
504 43 0.448796 0.614301 0.5
572 35 0.465323 0.647005 0.5
266 37 0.488384 0.619437 0.5
840 24 0.496631 0.651191 0.5
347 50 0.528689 0.624185 0.5
470 29 0.52501 0.661221 0.5
394 29 0.55555 0.65268 0.5
404 31 0.602788 0.621093 0.5
432 28 0.567082 0.622701 0.5
814 31 0.587985 0.649175 0.5
83 31 0.634975 0.616278 0.5
899 19 0.618044 0.645641 0.5
915 25 0.647009 0.644837 0.5
479 16 0.629672 0.665694 0.5
573 30 0.667031 0.618032 0.5
496 30 0.725717 0.603781 0.5
678 29 0.698881 0.624053 0.5
560 28 0.677991 0.649407 0.5
904 36 0.711648 0.654868 0.5
49 26 0.736137 0.63457 0.5
870 29 0.757706 0.613163 0.5
392 30 0.764946 0.645442 0.5
322 19 0.741079 0.662591 0.5
816 33 0.792281 0.627259 0.5
474 27 0.795272 0.660258 0.5
318 37 0.819094 0.602715 0.5
981 29 0.82511 0.637069 0.5
338 28 0.851606 0.619064 0.5
271 29 0.855283 0.650406 0.5
269 32 0.906128 0.608548 0.5
633 30 0.881344 0.631372 0.5
295 34 0.888575 0.66253 0.5
675 26 0.912697 0.639519 0.5
601 31 0.938547 0.615905 0.5
918 43 0.974362 0.627739 0.5
876 31 0.942238 0.648573 0.5
861 37 0.996907 0.655839 0.5
495 34 0.0263426 0.671261 0.5
231 32 0.0297414 0.705063 0.5
827 45 0.0621948 0.683112 0.5
514 23 0.0564498 0.718659 0.5
205 26 0.0975751 0.677873 0.5
398 41 0.0881893 0.712143 0.5
714 29 0.129879 0.675102 0.5
344 17 0.116465 0.698367 0.5
624 21 0.120784 0.724676 0.5
684 23 0.142408 0.702823 0.5
830 28 0.160782 0.678428 0.5
617 34 0.193971 0.681278 0.5
647 30 0.1737 0.708087 0.5
82 35 0.205699 0.714616 0.5
145 22 0.240692 0.670379 0.5
550 22 0.223179 0.690037 0.5
722 34 0.253955 0.698828 0.5
116 19 0.234368 0.722176 0.5
410 44 0.275571 0.667239 0.5
576 34 0.311787 0.682726 0.5
909 26 0.285298 0.701582 0.5
634 12 0.32592 0.707417 0.5
127 20 0.273169 0.727593 0.5
287 38 0.305 0.727971 0.5
956 34 0.372792 0.671495 0.5
29 28 0.346405 0.693157 0.5
543 35 0.376126 0.705511 0.5
883 38 0.345829 0.727449 0.5
45 27 0.403174 0.679867 0.5
53 37 0.409415 0.715664 0.5
804 28 0.436626 0.691484 0.5
758 18 0.458865 0.675042 0.5
386 39 0.446298 0.724781 0.5
604 18 0.482973 0.67378 0.5
226 32 0.472552 0.70057 0.5
486 40 0.509518 0.69194 0.5
388 24 0.501556 0.723705 0.5
371 29 0.544554 0.685661 0.5
820 29 0.574887 0.678098 0.5
755 23 0.597311 0.702972 0.5
25 34 0.566991 0.709707 0.5
152 36 0.533329 0.726273 0.5
602 23 0.604457 0.674704 0.5
481 30 0.655498 0.673907 0.5
30 33 0.629271 0.697855 0.5
454 32 0.66587 0.704128 0.5
184 25 0.611803 0.727646 0.5
198 37 0.646263 0.732025 0.5
411 31 0.688844 0.68036 0.5
108 34 0.698263 0.713022 0.5
254 34 0.722048 0.688539 0.5
334 34 0.730721 0.727009 0.5
932 25 0.677475 0.737638 0.5
605 22 0.748955 0.702747 0.5
711 36 0.767974 0.679446 0.5
147 30 0.798357 0.692767 0.5
50 33 0.774633 0.717164 0.5
35 40 0.827921 0.674214 0.5
142 31 0.860496 0.684865 0.5
867 40 0.835711 0.711498 0.5
654 22 0.805074 0.722773 0.5
501 36 0.869199 0.72494 0.5
119 28 0.919782 0.670879 0.5
93 48 0.898096 0.70145 0.5
435 20 0.921435 0.727371 0.5
584 23 0.998585 0.690376 0.5
759 38 0.939266 0.698412 0.5
134 36 0.966275 0.675853 0.5
946 29 0.972135 0.70991 0.5
237 37 1.00181 0.726106 0.5
190 44 0.0341999 0.745935 0.5
200 36 0.0568265 0.77696 0.5
643 26 0.023326 0.780156 0.5
240 28 0.0705178 0.743983 0.5
401 22 0.099889 0.741931 0.5
992 40 0.125905 0.761391 0.5
98 37 0.0911173 0.772489 0.5
74 37 0.150402 0.734433 0.5
747 21 0.163533 0.763349 0.5
419 34 0.183693 0.74 0.5
320 34 0.19372 0.771503 0.5
801 24 0.148398 0.786741 0.5
352 25 0.215855 0.746999 0.5
399 35 0.248495 0.74776 0.5
194 31 0.227092 0.776373 0.5
657 22 0.258196 0.776322 0.5
954 21 0.204377 0.799211 0.5
300 39 0.286472 0.761797 0.5
627 34 0.323133 0.757885 0.5
670 35 0.280252 0.79693 0.5
535 22 0.309446 0.785069 0.5
942 23 0.354711 0.758733 0.5
235 37 0.381937 0.739142 0.5
739 48 0.384229 0.777927 0.5
884 39 0.343199 0.790015 0.5
640 39 0.416533 0.752396 0.5
507 28 0.450192 0.761387 0.5
220 30 0.41965 0.790124 0.5
69 37 0.456022 0.797324 0.5
13 32 0.477058 0.741647 0.5
437 33 0.484499 0.774477 0.5
526 30 0.509818 0.75171 0.5
79 41 0.520076 0.786769 0.5
209 24 0.541068 0.758351 0.5
638 55 0.577918 0.74652 0.5
321 31 0.558265 0.784633 0.5
292 27 0.591286 0.78241 0.5
370 40 0.621442 0.762033 0.5
782 26 0.659501 0.761993 0.5
800 20 0.644504 0.785294 0.5
221 20 0.705202 0.741263 0.5
337 28 0.69024 0.766273 0.5
319 29 0.724811 0.760871 0.5
373 37 0.674347 0.795266 0.5
850 20 0.711724 0.787184 0.5
276 37 0.758037 0.750414 0.5
878 32 0.793646 0.750253 0.5
297 30 0.746433 0.78261 0.5
975 25 0.778139 0.779032 0.5
635 19 0.822088 0.741362 0.5
354 36 0.818827 0.773144 0.5
683 36 0.849253 0.754335 0.5
285 30 0.862319 0.785875 0.5
314 32 0.885431 0.761385 0.5
695 17 0.898896 0.73644 0.5
868 41 0.92269 0.760445 0.5
880 44 0.897228 0.798799 0.5
477 31 0.992107 0.760645 0.5
579 26 0.948031 0.731692 0.5
489 17 0.974054 0.73798 0.5
612 25 0.956383 0.759349 0.5
223 14 1.00024 0.790281 0.5
183 27 0.934707 0.794389 0.5
359 35 0.970838 0.78755 0.5
328 20 0.0203288 0.806617 0.5
889 27 0.0484953 0.808429 0.5
697 39 0.0292294 0.838865 0.5
969 28 0.0656247 0.833569 0.5
718 15 0.0512144 0.859668 0.5
839 26 0.0796565 0.805368 0.5
724 44 0.116727 0.803843 0.5
224 29 0.0993395 0.837202 0.5
642 31 0.0798012 0.863244 0.5
207 31 0.135558 0.836955 0.5
146 22 0.150804 0.813183 0.5
468 26 0.176746 0.801415 0.5
248 23 0.193935 0.82494 0.5
1 24 0.167098 0.834356 0.5
610 30 0.188907 0.855347 0.5
86 30 0.246213 0.802827 0.5
99 23 0.221295 0.820007 0.5
449 24 0.218917 0.85025 0.5
554 28 0.245911 0.836335 0.5
32 18 0.267097 0.855685 0.5
907 25 0.243028 0.868122 0.5
659 37 0.309278 0.81734 0.5
721 26 0.275304 0.828624 0.5
391 22 0.322472 0.847091 0.5
387 28 0.294829 0.853788 0.5
291 25 0.371039 0.810803 0.5
451 34 0.343743 0.827188 0.5
667 25 0.399286 0.813869 0.5
623 39 0.351674 0.861555 0.5
247 21 0.376772 0.839665 0.5
717 30 0.430505 0.822179 0.5
122 30 0.40751 0.844504 0.5
863 24 0.437716 0.852599 0.5
362 33 0.462824 0.832751 0.5
3 34 0.488578 0.809909 0.5
417 23 0.51669 0.821392 0.5
835 34 0.497262 0.846783 0.5
494 19 0.527515 0.844583 0.5
825 39 0.549444 0.822153 0.5
304 26 0.582031 0.810659 0.5
808 24 0.550729 0.855454 0.5
395 26 0.577607 0.842249 0.5
978 19 0.601898 0.829727 0.5
817 38 0.61721 0.803612 0.5
681 21 0.649005 0.811107 0.5
327 31 0.605963 0.860503 0.5
562 39 0.633334 0.839072 0.5
415 22 0.660332 0.856915 0.5
335 35 0.700371 0.817452 0.5
163 23 0.669009 0.829367 0.5
527 27 0.731181 0.811876 0.5
52 40 0.691852 0.855379 0.5
908 17 0.722071 0.838127 0.5
185 39 0.765294 0.809921 0.5
945 36 0.751752 0.843582 0.5
570 35 0.787333 0.836591 0.5
774 35 0.801798 0.805132 0.5
463 25 0.834237 0.800885 0.5
843 36 0.862548 0.820842 0.5
719 20 0.805849 0.861454 0.5
669 44 0.825292 0.835024 0.5
630 32 0.859485 0.855656 0.5
236 45 0.925699 0.832581 0.5
622 27 0.890146 0.843027 0.5
515 28 0.91042 0.86858 0.5
149 26 0.956966 0.816837 0.5
757 42 0.992524 0.821714 0.5
539 31 0.996541 0.858948 0.5
502 23 0.939403 0.865055 0.5
38 29 0.962464 0.84759 0.5
828 28 0.027833 0.873802 0.5
518 30 0.0578037 0.887296 0.5
510 37 0.0289038 0.908857 0.5
505 34 0.0678265 0.919512 0.5
780 29 0.000101549 0.891453 0.5
459 38 0.117385 0.869266 0.5
775 34 0.0917612 0.896583 0.5
213 32 0.10027 0.928629 0.5
433 22 0.122016 0.904133 0.5
37 28 0.130625 0.933533 0.5
131 26 0.155802 0.861324 0.5
894 25 0.144853 0.888609 0.5
731 36 0.178426 0.888686 0.5
466 48 0.167232 0.927984 0.5
947 35 0.213817 0.880983 0.5
552 29 0.203456 0.913768 0.5
819 29 0.242944 0.897049 0.5
567 28 0.265484 0.918061 0.5
989 36 0.23393 0.928712 0.5
5 35 0.315783 0.878072 0.5
984 33 0.273657 0.883963 0.5
339 38 0.300342 0.910494 0.5
330 26 0.33362 0.906066 0.5
547 34 0.38711 0.871163 0.5
222 34 0.363438 0.895451 0.5
941 28 0.387637 0.918253 0.5
738 33 0.35716 0.930306 0.5
523 18 0.417416 0.871863 0.5
890 35 0.464748 0.868242 0.5
218 20 0.404924 0.896192 0.5
735 26 0.416584 0.924881 0.5
150 42 0.438235 0.897687 0.5
59 20 0.493058 0.876629 0.5
937 32 0.524122 0.873146 0.5
979 37 0.47519 0.904855 0.5
537 25 0.507165 0.900365 0.5
159 36 0.575517 0.875073 0.5
520 32 0.53659 0.910431 0.5
773 16 0.549535 0.88561 0.5
708 24 0.569978 0.905564 0.5
509 25 0.559288 0.932664 0.5
302 24 0.636614 0.874104 0.5
268 49 0.607467 0.89806 0.5
355 32 0.645956 0.903837 0.5
102 19 0.623757 0.926936 0.5
173 30 0.671229 0.885332 0.5
810 31 0.725299 0.867344 0.5
482 29 0.70345 0.890756 0.5
609 30 0.679927 0.917325 0.5
444 35 0.712296 0.925318 0.5
919 21 0.752955 0.876321 0.5
56 26 0.779168 0.867499 0.5
76 24 0.733532 0.901066 0.5
88 46 0.772437 0.904038 0.5
214 35 0.746441 0.931551 0.5
703 30 0.831704 0.871715 0.5
123 12 0.855125 0.885028 0.5
613 26 0.80479 0.888758 0.5
75 17 0.803726 0.916758 0.5
484 35 0.833111 0.905493 0.5
924 23 0.882126 0.874827 0.5
436 31 0.870364 0.906001 0.5
219 26 0.900441 0.897935 0.5
182 33 0.924835 0.920376 0.5
660 26 0.89165 0.928954 0.5
299 22 0.930592 0.890522 0.5
420 36 0.967445 0.880642 0.5
308 24 0.953388 0.908775 0.5
931 29 0.982062 0.919268 0.5
238 22 0.00845561 0.9332 0.5
396 32 0.0421605 0.941576 0.5
113 37 0.015686 0.963653 0.5
873 33 0.0491758 0.977555 0.5
710 40 0.0832643 0.992295 0.5
987 36 0.0761425 0.954709 0.5
261 41 0.113676 0.965133 0.5
215 26 0.142277 0.986486 0.5
565 26 0.147178 0.958434 0.5
197 28 0.17597 0.96556 0.5
160 28 0.201454 0.946517 0.5
257 35 0.204553 0.984282 0.5
168 39 0.25319 0.985691 0.5
439 27 0.228844 0.960883 0.5
351 31 0.259768 0.951059 0.5
148 35 0.286209 0.998781 0.5
462 28 0.325065 0.934268 0.5
61 33 0.292825 0.944112 0.5
639 18 0.281267 0.97023 0.5
473 31 0.310768 0.975191 0.5
31 20 0.337142 0.990574 0.5
852 35 0.368877 0.987822 0.5
903 31 0.345557 0.96141 0.5
380 41 0.385439 0.95311 0.5
525 24 0.451809 0.999836 0.5
453 23 0.444781 0.935914 0.5
650 28 0.402363 0.985406 0.5
78 15 0.430073 0.983095 0.5
455 31 0.421916 0.955692 0.5
15 35 0.454322 0.965913 0.5
844 34 0.505388 0.931551 0.5
230 31 0.474312 0.93931 0.5
752 24 0.479856 0.985693 0.5
189 5 0.480002 0.963728 0.5
961 29 0.504685 0.967311 0.5
982 33 0.568299 0.995356 0.5
192 38 0.591872 0.937115 0.5
256 34 0.53591 0.980455 0.5
366 29 0.53342 0.948826 0.5
558 32 0.595041 0.975431 0.5
16 32 0.565046 0.962302 0.5
741 35 0.654062 0.937268 0.5
877 28 0.628572 0.990522 0.5
598 35 0.625878 0.957514 0.5
243 34 0.657202 0.972661 0.5
241 34 0.69192 0.982962 0.5
253 29 0.685956 0.950066 0.5
153 40 0.725575 0.963381 0.5
912 42 0.778029 0.995838 0.5
836 28 0.783608 0.937241 0.5
499 13 0.746361 0.985693 0.5
307 33 0.763623 0.962268 0.5
895 28 0.796691 0.9655 0.5
229 33 0.837151 1.00015 0.5
250 30 0.817154 0.942441 0.5
158 37 0.853544 0.936799 0.5
340 18 0.810627 0.990219 0.5
211 13 0.823703 0.969963 0.5
746 21 0.847326 0.969055 0.5
483 27 0.870309 0.996788 0.5
990 44 0.881455 0.962547 0.5
943 50 0.90948 0.994913 0.5
258 41 0.9208 0.955086 0.5
689 30 0.953989 0.94007 0.5
905 30 0.988945 0.983055 0.5
922 39 0.954655 0.975411 0.5
842 27 0.984308 0.952597 0.5
