ITEM: TIMESTEP
250000
ITEM: NUMBER OF ATOMS
1000
ITEM: BOX BOUNDS pp pp pp
-1.6661811000000000e+01 1.6661811000000000e+01
-1.6661811000000000e+01 1.6661811000000000e+01
-5.0000000000000000e-01 5.0000000000000000e-01
ITEM: ATOMS id type xs ys zs
369 36 0.0373082 0.0329703 0.5
345 33 0.00413923 0.0192774 0.5
233 25 -0.0042712 0.0499675 0.5
54 28 0.0789754 0.0401029 0.5
252 37 0.0635957 0.00721383 0.5
24 29 0.0998274 0.00947845 0.5
720 27 0.110866 0.0368403 0.5
80 29 0.13132 0.0140699 0.5
564 25 0.144413 0.0400906 0.5
754 31 0.164651 0.0156458 0.5
293 38 0.176603 0.0510831 0.5
162 32 0.195439 0.018553 0.5
815 30 0.210511 0.0528941 0.5
216 46 0.233228 0.0232289 0.5
646 26 0.270231 0.012931 0.5
403 23 0.278628 0.0406635 0.5
834 31 0.302622 0.0240178 0.5
144 35 0.338724 0.024524 0.5
991 34 0.376744 0.0255838 0.5
517 39 0.354982 0.0563827 0.5
734 33 0.409237 0.0311115 0.5
914 23 0.43047 0.00974011 0.5
500 46 0.451689 0.0345344 0.5
72 23 0.481115 0.0129633 0.5
402 40 0.485656 0.0499224 0.5
666 33 0.510773 0.002702 0.5
761 29 0.516237 0.033769 0.5
568 32 0.544575 0.0202038 0.5
637 27 0.547239 0.0517491 0.5
44 34 0.575961 0.0335377 0.5
980 27 0.605136 0.0467844 0.5
265 46 0.608794 0.00997086 0.5
176 33 0.635855 0.0352901 0.5
363 23 0.64214 0.00393372 0.5
521 33 0.669687 0.0261118 0.5
353 28 0.700604 0.0354132 0.5
408 26 0.695495 0.00710147 0.5
859 43 0.733852 0.0237842 0.5
615 27 0.767218 0.0220735 0.5
12 36 0.757175 0.0528805 0.5
661 30 0.785569 0.0462086 0.5
776 31 0.798207 0.0114377 0.5
377 25 0.821543 0.0295369 0.5
611 39 0.850647 0.0142979 0.5
698 17 0.868478 0.0399909 0.5
751 22 0.844873 0.0468989 0.5
244 28 0.8816 0.000307982 0.5
548 39 0.900368 0.0311549 0.5
2 28 0.933319 0.0212673 0.5
770 45 0.966065 0.031962 0.5
976 19 0.980483 0.00203342 0.5
407 24 0.0230733 0.0584658 0.5
792 31 0.0317087 0.0903863 0.5
787 25 0.00390426 0.112184 0.5
628 31 -0.000504005 0.0825563 0.5
171 35 0.0545456 0.0643495 0.5
199 39 0.0657034 0.102218 0.5
917 42 0.0912172 0.0743059 0.5
756 27 0.124569 0.0631426 0.5
786 41 0.124682 0.0972957 0.5
179 31 0.154931 0.0783327 0.5
376 44 0.191902 0.0855574 0.5
837 34 0.250289 0.0561114 0.5
84 25 0.22103 0.10598 0.5
966 22 0.228097 0.0776401 0.5
848 28 0.254695 0.0885172 0.5
753 33 0.311293 0.0573079 0.5
96 30 0.280475 0.0718312 0.5
935 23 0.307614 0.089438 0.5
427 31 0.337956 0.0869343 0.5
950 32 0.37263 0.0867001 0.5
73 31 0.389334 0.0578644 0.5
674 26 0.424395 0.0593392 0.5
424 20 0.402418 0.0847647 0.5
121 33 0.430657 0.0945965 0.5
497 33 0.457058 0.0721249 0.5
443 27 0.490106 0.0826198 0.5
645 34 0.461424 0.109848 0.5
952 35 0.519039 0.0685169 0.5
426 19 0.519714 0.0976515 0.5
21 31 0.547245 0.0855007 0.5
217 33 0.577293 0.0679731 0.5
566 32 0.574574 0.10362 0.5
136 40 0.605769 0.0916824 0.5
94 22 0.626276 0.063458 0.5
100 34 0.643892 0.0882678 0.5
879 35 0.66232 0.0593769 0.5
829 22 0.674934 0.0869747 0.5
289 19 0.691886 0.0635721 0.5
418 36 0.706089 0.0911197 0.5
141 33 0.721638 0.0597405 0.5
364 33 0.74448 0.0862344 0.5
652 46 0.782324 0.0826885 0.5
901 39 0.816633 0.0634858 0.5
27 34 0.815216 0.1025 0.5
983 32 0.851814 0.0776659 0.5
606 36 0.884337 0.104854 0.5
618 38 0.885421 0.0671546 0.5
326 48 0.931971 0.0581836 0.5
428 27 0.912295 0.0873912 0.5
288 38 0.945018 0.0957468 0.5
124 26 0.971017 0.0687662 0.5
881 25 0.977383 0.0994745 0.5
897 31 0.0327523 0.122716 0.5
597 21 0.0400795 0.150913 0.5
26 43 0.00637627 0.150191 0.5
851 32 0.0684077 0.13937 0.5
672 31 0.0959781 0.117485 0.5
812 25 0.0989928 0.14683 0.5
586 47 0.160875 0.114246 0.5
686 30 0.126783 0.132714 0.5
541 34 0.15355 0.154976 0.5
636 19 0.196927 0.117921 0.5
687 34 0.186746 0.145083 0.5
616 29 0.220441 0.134926 0.5
885 22 0.245723 0.118819 0.5
651 21 0.23903 0.157616 0.5
331 25 0.264344 0.140158 0.5
847 41 0.282709 0.112302 0.5
841 31 0.319103 0.119264 0.5
707 52 0.299883 0.151249 0.5
977 38 0.355193 0.117215 0.5
949 36 0.341322 0.150407 0.5
664 32 0.37884 0.14524 0.5
368 34 0.394873 0.113432 0.5
101 26 0.432033 0.125916 0.5
333 30 0.410262 0.149272 0.5
529 27 0.495542 0.10992 0.5
384 47 0.451436 0.156089 0.5
581 20 0.480425 0.134964 0.5
491 29 0.490338 0.162481 0.5
383 37 0.515804 0.137172 0.5
225 36 0.543108 0.117462 0.5
988 14 0.54272 0.14736 0.5
206 32 0.569883 0.139222 0.5
91 22 0.598166 0.124583 0.5
421 35 0.595232 0.162384 0.5
360 11 0.615801 0.141349 0.5
278 34 0.632111 0.120206 0.5
476 18 0.654483 0.14136 0.5
251 32 0.632657 0.160651 0.5
166 30 0.668293 0.115597 0.5
277 24 0.681925 0.14386 0.5
177 21 0.698346 0.120581 0.5
540 36 0.714991 0.145971 0.5
264 31 0.729929 0.11538 0.5
519 21 0.758276 0.110772 0.5
679 48 0.75456 0.145796 0.5
375 30 0.786007 0.121856 0.5
544 27 0.788184 0.162727 0.5
557 40 0.815288 0.141007 0.5
283 39 0.848665 0.113822 0.5
191 39 0.849427 0.154389 0.5
41 31 0.881001 0.138493 0.5
716 30 0.920331 0.119627 0.5
259 15 0.946773 0.125328 0.5
545 42 0.911916 0.157324 0.5
196 31 0.948936 0.152677 0.5
929 35 0.975384 0.129454 0.5
959 25 0.976055 0.162086 0.5
781 28 0.0277875 0.180582 0.5
962 53 0.0151013 0.217876 0.5
750 33 0.0606581 0.171576 0.5
631 30 0.0550508 0.202631 0.5
882 38 0.0931647 0.181002 0.5
234 35 0.0852368 0.213933 0.5
120 30 0.124356 0.168807 0.5
111 28 0.121772 0.201807 0.5
985 22 0.149445 0.187135 0.5
965 29 0.145386 0.220014 0.5
709 30 0.211021 0.167057 0.5
532 27 0.179634 0.176405 0.5
8 23 0.174294 0.207408 0.5
534 35 0.205816 0.201208 0.5
902 29 0.265109 0.170006 0.5
154 27 0.23546 0.185725 0.5
556 28 0.263658 0.198836 0.5
785 34 0.239385 0.221311 0.5
888 27 0.293548 0.189262 0.5
228 26 0.312528 0.213375 0.5
36 39 0.326801 0.181574 0.5
794 31 0.345121 0.21044 0.5
175 49 0.367617 0.181386 0.5
665 46 0.414318 0.184243 0.5
232 26 0.406781 0.219023 0.5
549 29 0.435492 0.223874 0.5
593 22 0.445053 0.194593 0.5
348 26 0.472263 0.185626 0.5
587 38 0.470924 0.219208 0.5
692 27 0.501121 0.192571 0.5
112 23 0.522244 0.170082 0.5
619 32 0.531913 0.198846 0.5
626 37 0.557413 0.173239 0.5
727 38 0.565949 0.208259 0.5
864 22 0.595242 0.193548 0.5
6 7 0.615086 0.17932 0.5
9 26 0.621587 0.204922 0.5
892 19 0.645566 0.190646 0.5
578 28 0.663384 0.167291 0.5
821 24 0.672779 0.19542 0.5
478 29 0.69468 0.173864 0.5
632 30 0.705973 0.204127 0.5
343 35 0.72812 0.1775 0.5
911 28 0.738157 0.211113 0.5
772 33 0.764013 0.186342 0.5
553 32 0.773845 0.218545 0.5
341 23 0.821302 0.173632 0.5
313 34 0.796973 0.1953 0.5
156 22 0.824633 0.205586 0.5
723 28 0.849731 0.18859 0.5
480 24 0.871894 0.211738 0.5
533 37 0.880515 0.178903 0.5
696 26 0.900053 0.213657 0.5
967 22 0.936315 0.179655 0.5
807 20 0.912183 0.188875 0.5
713 39 0.935592 0.212497 0.5
951 29 0.995768 0.183709 0.5
791 25 0.965318 0.190355 0.5
600 38 0.973922 0.223619 0.5
336 38 0.0255095 0.260723 0.5
126 32 0.0515956 0.23617 0.5
925 19 0.0567756 0.265659 0.5
7 36 0.0839955 0.251281 0.5
641 29 0.111603 0.269617 0.5
524 35 0.117424 0.236145 0.5
690 25 0.14252 0.257225 0.5
458 39 0.172823 0.242935 0.5
51 32 0.207499 0.237724 0.5
357 39 0.203858 0.271528 0.5
92 26 0.234014 0.25351 0.5
303 28 0.263899 0.249319 0.5
361 34 0.28298 0.224686 0.5
783 24 0.282961 0.273105 0.5
349 45 0.310618 0.248886 0.5
296 29 0.377473 0.215427 0.5
406 29 0.342487 0.269159 0.5
771 23 0.350136 0.239215 0.5
728 35 0.382917 0.248456 0.5
740 35 0.417382 0.251391 0.5
730 32 0.454115 0.250057 0.5
688 25 0.485379 0.251022 0.5
306 25 0.467174 0.27954 0.5
125 30 0.497661 0.279092 0.5
309 35 0.506157 0.224475 0.5
17 25 0.517786 0.255386 0.5
133 32 0.537992 0.23208 0.5
157 33 0.547117 0.266671 0.5
866 28 0.569741 0.242559 0.5
910 30 0.59785 0.224499 0.5
590 22 0.602053 0.257315 0.5
43 37 0.651889 0.220212 0.5
760 24 0.624452 0.236598 0.5
70 26 0.632044 0.26442 0.5
282 26 0.660948 0.252364 0.5
267 25 0.684705 0.226285 0.5
110 30 0.690144 0.257535 0.5
625 33 0.714668 0.237782 0.5
974 24 0.724633 0.267022 0.5
137 34 0.748746 0.242963 0.5
39 25 0.755978 0.273834 0.5
438 26 0.77937 0.252258 0.5
960 44 0.807498 0.23404 0.5
853 14 0.804512 0.265861 0.5
784 27 0.829963 0.2607 0.5
822 37 0.845012 0.23143 0.5
973 18 0.857608 0.25865 0.5
188 32 0.880197 0.242162 0.5
971 16 0.897717 0.265153 0.5
575 33 0.915274 0.241973 0.5
95 33 0.927712 0.271012 0.5
793 28 0.94748 0.244396 0.5
862 22 0.957581 0.272825 0.5
764 40 0.98788 0.258243 0.5
972 28 0.0425125 0.28971 0.5
512 32 0.0265868 0.325899 0.5
22 35 0.00960697 0.294176 0.5
826 30 0.0590016 0.318144 0.5
872 42 0.0783015 0.289161 0.5
833 33 0.111853 0.305672 0.5
702 26 0.137633 0.285549 0.5
151 41 0.156881 0.313837 0.5
928 34 0.1695 0.279185 0.5
20 37 0.198458 0.307393 0.5
77 15 0.227664 0.297294 0.5
875 35 0.250372 0.280696 0.5
563 38 0.248927 0.318728 0.5
201 35 0.28111 0.305686 0.5
275 32 0.312193 0.285716 0.5
105 31 0.31181 0.318649 0.5
620 26 0.372025 0.277853 0.5
11 40 0.34616 0.301958 0.5
65 32 0.383967 0.307908 0.5
412 28 0.40328 0.281205 0.5
128 31 0.436171 0.279434 0.5
893 29 0.422251 0.307431 0.5
765 21 0.451314 0.304826 0.5
1000 38 0.480719 0.3148 0.5
281 23 0.525683 0.286261 0.5
23 26 0.513913 0.311172 0.5
118 24 0.550719 0.296989 0.5
42 45 0.5443 0.33127 0.5
431 31 0.578195 0.277413 0.5
47 31 0.577198 0.310164 0.5
805 26 0.609073 0.285041 0.5
691 42 0.611781 0.320965 0.5
999 39 0.641585 0.29652 0.5
471 22 0.670435 0.279649 0.5
599 34 0.676815 0.310731 0.5
997 36 0.702304 0.288307 0.5
46 35 0.708751 0.324552 0.5
381 33 0.731781 0.29921 0.5
294 29 0.765413 0.30417 0.5
778 22 0.783778 0.283324 0.5
585 33 0.789921 0.328356 0.5
109 47 0.814908 0.298103 0.5
777 25 0.849973 0.284044 0.5
187 34 0.880911 0.28732 0.5
546 33 0.85469 0.314465 0.5
869 33 0.88872 0.321049 0.5
60 25 0.911743 0.297348 0.5
913 28 0.92086 0.326648 0.5
447 39 0.946833 0.303431 0.5
212 22 0.978113 0.289842 0.5
748 37 0.988058 0.322086 0.5
204 35 0.0240025 0.381072 0.5
129 39 0.0530976 0.353285 0.5
680 29 0.00569989 0.352588 0.5
970 19 0.0533771 0.383681 0.5
342 43 0.0890954 0.337688 0.5
186 32 0.081569 0.376246 0.5
460 36 0.115432 0.367687 0.5
422 30 0.12635 0.335507 0.5
40 43 0.155207 0.354673 0.5
475 24 0.18392 0.336382 0.5
286 31 0.194193 0.365578 0.5
668 19 0.17087 0.386472 0.5
506 39 0.21734 0.34124 0.5
10 29 0.225656 0.377187 0.5
948 39 0.254283 0.354554 0.5
246 34 0.25819 0.39003 0.5
446 27 0.285497 0.337602 0.5
693 28 0.286286 0.368681 0.5
796 25 0.31236 0.351176 0.5
62 27 0.313285 0.38356 0.5
958 19 0.336076 0.335624 0.5
595 37 0.367168 0.340681 0.5
504 43 0.343715 0.368223 0.5
266 37 0.383412 0.373659 0.5
324 42 0.403887 0.337985 0.5
347 50 0.423126 0.374381 0.5
767 44 0.442046 0.338169 0.5
432 28 0.460362 0.373483 0.5
311 26 0.475723 0.347609 0.5
404 31 0.496422 0.371022 0.5
323 30 0.505721 0.342072 0.5
83 31 0.52944 0.364697 0.5
573 30 0.562044 0.371639 0.5
522 38 0.582966 0.3445 0.5
678 29 0.594371 0.376743 0.5
496 30 0.621275 0.354618 0.5
64 32 0.646841 0.333242 0.5
870 29 0.652649 0.367125 0.5
195 39 0.679897 0.345697 0.5
816 33 0.689162 0.380408 0.5
318 37 0.715489 0.358437 0.5
968 41 0.745299 0.334028 0.5
338 28 0.745633 0.372934 0.5
818 23 0.770127 0.354839 0.5
633 30 0.776534 0.383817 0.5
725 42 0.828072 0.33935 0.5
269 32 0.799805 0.361243 0.5
601 31 0.831456 0.374773 0.5
135 28 0.862224 0.34708 0.5
918 43 0.867292 0.381602 0.5
503 40 0.899017 0.359016 0.5
916 23 0.922066 0.383467 0.5
465 26 0.935671 0.356042 0.5
450 21 0.954708 0.334441 0.5
906 42 0.955927 0.382592 0.5
790 33 0.990668 0.379592 0.5
472 25 0.974232 0.350714 0.5
714 29 0.0233425 0.432141 0.5
48 23 0.0419049 0.407288 0.5
19 27 0.00405221 0.408346 0.5
830 28 0.0544234 0.434405 0.5
441 29 0.0713912 0.407717 0.5
617 34 0.0862646 0.438229 0.5
316 41 0.106194 0.404633 0.5
594 34 0.141814 0.39241 0.5
145 22 0.132623 0.421283 0.5
410 44 0.168681 0.422538 0.5
284 37 0.198722 0.400067 0.5
576 34 0.206305 0.434211 0.5
423 35 0.232843 0.412097 0.5
956 34 0.264137 0.427893 0.5
29 28 0.237114 0.446963 0.5
732 27 0.289516 0.405035 0.5
45 27 0.294811 0.436757 0.5
117 32 0.324782 0.41365 0.5
804 28 0.326558 0.447765 0.5
572 35 0.358884 0.403098 0.5
758 18 0.348622 0.431208 0.5
604 18 0.373026 0.43012 0.5
840 24 0.38901 0.406924 0.5
470 29 0.416713 0.411613 0.5
371 29 0.438202 0.435184 0.5
394 29 0.448002 0.404178 0.5
814 31 0.480218 0.397221 0.5
820 29 0.469797 0.427493 0.5
602 23 0.501323 0.421247 0.5
899 19 0.516118 0.390078 0.5
915 25 0.54356 0.394524 0.5
479 16 0.524508 0.413775 0.5
481 30 0.549446 0.42459 0.5
30 33 0.522009 0.44172 0.5
560 28 0.572083 0.401613 0.5
411 31 0.580836 0.434034 0.5
904 36 0.605351 0.408264 0.5
49 26 0.629086 0.385174 0.5
322 19 0.635584 0.415879 0.5
392 30 0.660112 0.396717 0.5
711 36 0.666025 0.43209 0.5
474 27 0.69333 0.413012 0.5
981 29 0.722264 0.392319 0.5
35 40 0.727539 0.428854 0.5
271 29 0.751321 0.401263 0.5
142 31 0.760315 0.443908 0.5
675 26 0.805738 0.393008 0.5
295 34 0.780627 0.417665 0.5
119 28 0.81471 0.421119 0.5
876 31 0.84377 0.408012 0.5
861 37 0.873919 0.427706 0.5
726 29 0.898077 0.399033 0.5
495 34 0.910921 0.430578 0.5
789 27 0.934283 0.409142 0.5
205 26 0.990732 0.436661 0.5
854 27 0.97223 0.413043 0.5
827 45 0.951493 0.442389 0.5
684 23 0.0345785 0.460103 0.5
74 37 0.045125 0.491654 0.5
624 21 0.0142179 0.48032 0.5
344 17 0.00847415 0.456154 0.5
647 30 0.0649436 0.464311 0.5
82 35 0.101879 0.469416 0.5
550 22 0.11803 0.442864 0.5
722 34 0.148067 0.452277 0.5
116 19 0.129763 0.478918 0.5
127 20 0.165907 0.483282 0.5
909 26 0.181176 0.457483 0.5
287 38 0.196948 0.486336 0.5
634 12 0.214735 0.464772 0.5
883 38 0.239997 0.481384 0.5
543 35 0.269297 0.461741 0.5
235 37 0.275215 0.496617 0.5
53 37 0.303097 0.471213 0.5
386 39 0.337639 0.481432 0.5
226 32 0.366643 0.460047 0.5
13 32 0.370978 0.493834 0.5
486 40 0.402936 0.442623 0.5
388 24 0.395185 0.474847 0.5
152 36 0.42821 0.4723 0.5
25 34 0.461179 0.459229 0.5
755 23 0.491633 0.448385 0.5
184 25 0.496062 0.47613 0.5
198 37 0.530347 0.478666 0.5
454 32 0.556465 0.454728 0.5
932 25 0.563726 0.48735 0.5
108 34 0.589228 0.466113 0.5
254 34 0.613979 0.441282 0.5
334 34 0.624248 0.476253 0.5
605 22 0.643376 0.451221 0.5
50 33 0.668095 0.466858 0.5
147 30 0.697593 0.446359 0.5
654 22 0.698501 0.475833 0.5
635 19 0.715574 0.496128 0.5
867 40 0.730904 0.467876 0.5
501 36 0.768213 0.480324 0.5
93 48 0.797739 0.453916 0.5
695 17 0.79956 0.488505 0.5
759 38 0.828806 0.481323 0.5
134 36 0.836494 0.444083 0.5
946 29 0.862847 0.463145 0.5
579 26 0.858841 0.496837 0.5
237 37 0.890254 0.489571 0.5
584 23 0.891456 0.455577 0.5
231 32 0.918959 0.469432 0.5
514 23 0.947977 0.477754 0.5
398 41 0.980856 0.470776 0.5
992 40 0.0231734 0.523846 0.5
801 24 0.0491512 0.545376 0.5
747 21 0.0591391 0.518665 0.5
419 34 0.0793798 0.494944 0.5
352 25 0.111198 0.501278 0.5
320 34 0.0861912 0.530435 0.5
399 35 0.144291 0.505439 0.5
194 31 0.121814 0.53134 0.5
657 22 0.152061 0.533333 0.5
300 39 0.18002 0.516859 0.5
535 22 0.204409 0.538615 0.5
627 34 0.220623 0.514333 0.5
670 35 0.177865 0.554304 0.5
884 39 0.237107 0.546367 0.5
942 23 0.250886 0.516173 0.5
739 48 0.280612 0.533356 0.5
640 39 0.310232 0.506364 0.5
220 30 0.317521 0.539612 0.5
507 28 0.342302 0.516926 0.5
437 33 0.376916 0.5264 0.5
69 37 0.350414 0.550298 0.5
526 30 0.401333 0.504167 0.5
209 24 0.431124 0.508062 0.5
79 41 0.412951 0.538619 0.5
638 55 0.466171 0.497234 0.5
321 31 0.449002 0.536591 0.5
292 27 0.482845 0.53146 0.5
370 40 0.509166 0.509967 0.5
800 20 0.54375 0.507204 0.5
681 21 0.534324 0.531405 0.5
817 38 0.509936 0.551943 0.5
221 20 0.591398 0.496448 0.5
373 37 0.562955 0.550385 0.5
782 26 0.570695 0.516738 0.5
337 28 0.596434 0.53237 0.5
319 29 0.618128 0.507981 0.5
850 20 0.621988 0.542062 0.5
276 37 0.652536 0.50125 0.5
297 30 0.649128 0.533588 0.5
878 32 0.686403 0.503848 0.5
975 25 0.67974 0.534678 0.5
354 36 0.713062 0.526641 0.5
683 36 0.74401 0.504694 0.5
285 30 0.75641 0.536028 0.5
314 32 0.780542 0.513152 0.5
880 44 0.791415 0.548508 0.5
868 41 0.817861 0.518908 0.5
612 25 0.837595 0.548274 0.5
435 20 0.851201 0.524273 0.5
489 17 0.875267 0.517957 0.5
359 35 0.870462 0.549852 0.5
477 31 0.899855 0.531636 0.5
190 44 0.927459 0.506632 0.5
643 26 0.92499 0.549939 0.5
401 22 0.997901 0.502375 0.5
200 36 0.95425 0.536443 0.5
240 28 0.963433 0.504516 0.5
98 37 0.986916 0.532651 0.5
724 44 0.0128992 0.561931 0.5
207 31 0.0318021 0.600081 0.5
146 22 0.0457798 0.571606 0.5
468 26 0.0750324 0.561309 0.5
1 24 0.0630315 0.593538 0.5
248 23 0.0914523 0.58572 0.5
954 21 0.104046 0.553995 0.5
99 23 0.118974 0.578233 0.5
86 30 0.141392 0.560573 0.5
554 28 0.143183 0.593018 0.5
449 24 0.113556 0.6063 0.5
32 18 0.162431 0.612688 0.5
721 26 0.174869 0.587533 0.5
659 37 0.209508 0.569314 0.5
391 22 0.214482 0.600494 0.5
387 28 0.188891 0.614011 0.5
291 25 0.265803 0.564518 0.5
451 34 0.240932 0.583729 0.5
247 21 0.271593 0.59316 0.5
667 25 0.29859 0.56508 0.5
122 30 0.30405 0.596562 0.5
717 30 0.328088 0.57613 0.5
362 33 0.358825 0.585746 0.5
863 24 0.332937 0.607347 0.5
3 34 0.383904 0.56061 0.5
835 34 0.391212 0.596368 0.5
417 23 0.410908 0.572023 0.5
494 19 0.420789 0.595187 0.5
825 39 0.442378 0.571023 0.5
304 26 0.474204 0.558137 0.5
395 26 0.474015 0.589544 0.5
808 24 0.448401 0.605411 0.5
978 19 0.502796 0.581636 0.5
562 39 0.537117 0.578683 0.5
415 22 0.556124 0.609492 0.5
163 23 0.56943 0.58242 0.5
335 35 0.596264 0.570685 0.5
52 40 0.589481 0.607591 0.5
908 17 0.617587 0.594757 0.5
527 27 0.627999 0.569492 0.5
945 36 0.647891 0.598703 0.5
185 39 0.66069 0.565378 0.5
570 35 0.683627 0.59337 0.5
774 35 0.700754 0.558541 0.5
463 25 0.730319 0.553006 0.5
669 44 0.722984 0.588214 0.5
843 36 0.757885 0.570164 0.5
630 32 0.763162 0.604294 0.5
622 27 0.789609 0.583932 0.5
183 27 0.82041 0.570237 0.5
236 45 0.820431 0.604922 0.5
149 26 0.848148 0.579894 0.5
757 42 0.884589 0.587349 0.5
223 14 0.897715 0.559099 0.5
328 20 0.916412 0.576104 0.5
697 39 0.932008 0.604022 0.5
889 27 0.94503 0.572447 0.5
839 26 0.974276 0.565115 0.5
224 29 0.999281 0.594518 0.5
969 28 0.966565 0.597308 0.5
131 26 0.0531986 0.623701 0.5
459 38 0.0188482 0.634367 0.5
894 25 0.0484918 0.652712 0.5
433 22 0.0234338 0.666884 0.5
610 30 0.0838007 0.616566 0.5
731 36 0.0788393 0.651153 0.5
947 35 0.10979 0.638193 0.5
907 25 0.138349 0.623354 0.5
819 29 0.137199 0.656857 0.5
984 33 0.170024 0.645607 0.5
5 35 0.211507 0.636758 0.5
623 39 0.240795 0.620108 0.5
222 34 0.259564 0.650498 0.5
330 26 0.230858 0.663557 0.5
547 34 0.28123 0.623572 0.5
523 18 0.310636 0.625605 0.5
218 20 0.300446 0.648379 0.5
150 42 0.336797 0.646262 0.5
890 35 0.362306 0.620235 0.5
979 37 0.375441 0.653021 0.5
59 20 0.393099 0.626878 0.5
937 32 0.423415 0.62439 0.5
537 25 0.408721 0.651129 0.5
773 16 0.452002 0.634796 0.5
159 36 0.478205 0.621385 0.5
708 24 0.471343 0.652149 0.5
327 31 0.51428 0.607678 0.5
268 49 0.507174 0.653143 0.5
302 24 0.535847 0.63074 0.5
355 32 0.544931 0.660028 0.5
173 30 0.568406 0.636962 0.5
482 29 0.599063 0.646898 0.5
810 31 0.621509 0.625949 0.5
919 21 0.650658 0.630286 0.5
76 24 0.629558 0.655971 0.5
88 46 0.666264 0.659634 0.5
56 26 0.679068 0.624614 0.5
719 20 0.704823 0.615137 0.5
613 26 0.704974 0.644385 0.5
703 30 0.734477 0.621008 0.5
123 12 0.740406 0.647131 0.5
924 23 0.762031 0.633272 0.5
515 28 0.789182 0.622919 0.5
219 26 0.790579 0.654136 0.5
299 22 0.814404 0.637789 0.5
38 29 0.856837 0.610981 0.5
502 23 0.841609 0.636446 0.5
420 36 0.873446 0.64105 0.5
539 31 0.901478 0.620387 0.5
780 29 0.904757 0.65627 0.5
828 28 0.929028 0.638661 0.5
718 15 0.959553 0.623385 0.5
518 30 0.960769 0.64964 0.5
642 31 0.986656 0.623279 0.5
775 34 0.993805 0.657566 0.5
37 28 0.0326635 0.696271 0.5
565 26 0.0490973 0.722756 0.5
213 32 0.00161681 0.690866 0.5
552 29 0.107992 0.670906 0.5
466 48 0.0685244 0.688978 0.5
160 28 0.102216 0.704358 0.5
197 28 0.0808835 0.726206 0.5
989 36 0.136524 0.689959 0.5
351 31 0.161743 0.712155 0.5
439 27 0.130196 0.723556 0.5
339 38 0.199226 0.666694 0.5
567 28 0.165697 0.678931 0.5
61 33 0.192518 0.701328 0.5
462 28 0.222531 0.69205 0.5
738 33 0.254293 0.685319 0.5
903 31 0.244891 0.715343 0.5
941 28 0.283988 0.671706 0.5
380 41 0.283762 0.70698 0.5
735 26 0.313998 0.673606 0.5
455 31 0.320714 0.703694 0.5
453 23 0.344554 0.681753 0.5
230 31 0.378016 0.687201 0.5
189 5 0.383221 0.710917 0.5
15 35 0.356717 0.713988 0.5
520 32 0.4392 0.659794 0.5
844 34 0.411007 0.685009 0.5
366 29 0.439792 0.700188 0.5
961 29 0.41046 0.718155 0.5
509 25 0.463082 0.680678 0.5
16 32 0.468832 0.71304 0.5
192 38 0.495087 0.690375 0.5
102 19 0.527048 0.683631 0.5
598 35 0.528484 0.71334 0.5
741 35 0.556095 0.69265 0.5
609 30 0.57777 0.668908 0.5
253 29 0.587394 0.706359 0.5
444 35 0.609807 0.681531 0.5
214 35 0.64553 0.692739 0.5
153 40 0.621993 0.721248 0.5
836 28 0.681149 0.69261 0.5
75 17 0.696189 0.670446 0.5
250 30 0.710923 0.697982 0.5
484 35 0.724959 0.668545 0.5
436 31 0.760136 0.663408 0.5
158 37 0.74787 0.696772 0.5
990 44 0.777798 0.719943 0.5
182 33 0.820017 0.669186 0.5
660 26 0.787912 0.685405 0.5
258 41 0.816969 0.70689 0.5
308 24 0.850644 0.662321 0.5
931 29 0.879566 0.675384 0.5
689 30 0.849702 0.691495 0.5
842 27 0.878112 0.706411 0.5
510 37 0.9341 0.671579 0.5
238 22 0.905911 0.68652 0.5
396 32 0.944275 0.704863 0.5
505 34 0.968097 0.681419 0.5
987 36 0.977496 0.714642 0.5
261 41 0.015073 0.728537 0.5
215 26 0.0425945 0.75104 0.5
490 32 0.0132606 0.765854 0.5
461 33 0.0727437 0.75931 0.5
257 35 0.106793 0.747031 0.5
865 17 0.105019 0.776441 0.5
255 29 0.13104 0.769981 0.5
168 39 0.157917 0.745464 0.5
639 18 0.184342 0.730175 0.5
473 31 0.213958 0.727149 0.5
148 35 0.193268 0.758071 0.5
31 20 0.238898 0.744944 0.5
852 35 0.268824 0.741046 0.5
374 36 0.292267 0.766374 0.5
650 28 0.302957 0.732948 0.5
896 29 0.324581 0.754572 0.5
78 15 0.331833 0.728059 0.5
752 24 0.383731 0.734642 0.5
525 24 0.352862 0.745492 0.5
763 36 0.3781 0.766843 0.5
256 34 0.439689 0.733408 0.5
993 29 0.411122 0.750572 0.5
649 38 0.440866 0.770106 0.5
982 33 0.470002 0.747514 0.5
558 32 0.49847 0.728215 0.5
445 37 0.500514 0.764883 0.5
877 28 0.527341 0.746704 0.5
243 34 0.56052 0.728083 0.5
561 32 0.559957 0.763226 0.5
241 34 0.590906 0.745291 0.5
307 33 0.664453 0.721263 0.5
107 29 0.621343 0.757142 0.5
499 13 0.643617 0.7416 0.5
139 28 0.649726 0.768646 0.5
895 28 0.695353 0.722654 0.5
912 42 0.680383 0.754712 0.5
340 18 0.711532 0.745035 0.5
583 21 0.709611 0.773388 0.5
211 13 0.721288 0.721752 0.5
229 33 0.73787 0.757787 0.5
746 21 0.745863 0.7291 0.5
483 27 0.768701 0.755175 0.5
943 50 0.810695 0.747138 0.5
588 24 0.843543 0.759889 0.5
922 39 0.85087 0.72693 0.5
656 17 0.868602 0.757118 0.5
905 30 0.884968 0.736125 0.5
113 37 0.913988 0.718433 0.5
648 22 0.895576 0.769003 0.5
538 35 0.923556 0.754672 0.5
873 33 0.95046 0.736988 0.5
143 30 0.954541 0.77024 0.5
710 40 0.983705 0.75081 0.5
498 29 0.0456665 0.782826 0.5
743 33 0.0496684 0.813971 0.5
262 32 0.0170858 0.800572 0.5
891 34 0.0227432 0.834794 0.5
180 34 0.0798921 0.792368 0.5
67 30 0.0819403 0.826711 0.5
227 32 0.110196 0.806998 0.5
172 16 0.108903 0.836086 0.5
81 26 0.142471 0.797214 0.5
927 33 0.136194 0.827985 0.5
315 27 0.166236 0.77761 0.5
811 24 0.166631 0.811296 0.5
14 28 0.192927 0.791368 0.5
694 31 0.196848 0.825127 0.5
860 30 0.222896 0.771214 0.5
769 28 0.219721 0.801872 0.5
559 34 0.255499 0.773833 0.5
831 28 0.248852 0.807109 0.5
682 38 0.282541 0.800735 0.5
592 22 0.314255 0.788836 0.5
701 41 0.314911 0.821617 0.5
921 40 0.345932 0.783861 0.5
621 26 0.349675 0.816292 0.5
798 36 0.379705 0.802728 0.5
467 32 0.408356 0.783332 0.5
715 19 0.407388 0.817494 0.5
934 22 0.405626 0.843989 0.5
898 27 0.432266 0.803472 0.5
845 26 0.474808 0.780799 0.5
926 35 0.46353 0.81323 0.5
57 33 0.498926 0.799132 0.5
824 32 0.531441 0.779905 0.5
425 33 0.529119 0.813049 0.5
301 39 0.594316 0.78063 0.5
485 36 0.560986 0.796469 0.5
779 40 0.590035 0.8197 0.5
930 24 0.626554 0.78718 0.5
655 28 0.628053 0.816094 0.5
569 34 0.657696 0.800962 0.5
955 27 0.684757 0.818717 0.5
55 27 0.687241 0.789291 0.5
356 22 0.713973 0.800949 0.5
106 15 0.731903 0.786522 0.5
591 24 0.757766 0.783704 0.5
68 32 0.741795 0.811863 0.5
115 19 0.775538 0.805106 0.5
858 34 0.789809 0.779708 0.5
34 31 0.822861 0.782825 0.5
365 26 0.803729 0.810243 0.5
663 34 0.835502 0.813955 0.5
249 35 0.858795 0.78795 0.5
379 25 0.866887 0.81786 0.5
378 32 0.891575 0.80005 0.5
242 38 0.927397 0.79375 0.5
589 21 0.914257 0.823539 0.5
920 28 0.94345 0.825601 0.5
89 30 0.962173 0.802393 0.5
161 25 0.985954 0.784499 0.5
33 30 0.992039 0.819254 0.5
846 35 0.0283108 0.868547 0.5
487 30 0.0570261 0.846652 0.5
290 31 0.0595315 0.88017 0.5
298 41 0.0891361 0.861213 0.5
469 39 0.12874 0.86397 0.5
280 41 0.166442 0.846 0.5
706 33 0.18837 0.877902 0.5
673 25 0.209152 0.853914 0.5
181 32 0.231888 0.832936 0.5
511 41 0.244903 0.864755 0.5
203 43 0.276836 0.839112 0.5
385 32 0.278824 0.878551 0.5
71 35 0.307383 0.858777 0.5
464 30 0.340952 0.847366 0.5
536 26 0.374238 0.835947 0.5
409 30 0.374217 0.864968 0.5
957 38 0.343195 0.879793 0.5
414 36 0.405484 0.878071 0.5
390 33 0.435478 0.834043 0.5
551 30 0.437389 0.866223 0.5
492 43 0.469441 0.849935 0.5
434 22 0.488478 0.882878 0.5
178 20 0.460695 0.882677 0.5
413 24 0.497817 0.8313 0.5
699 20 0.499822 0.859943 0.5
788 35 0.527739 0.848629 0.5
104 23 0.520767 0.880694 0.5
580 26 0.549153 0.873503 0.5
208 32 0.559144 0.83582 0.5
795 38 0.585347 0.858899 0.5
737 36 0.619327 0.84736 0.5
103 34 0.654107 0.837973 0.5
530 28 0.648452 0.868802 0.5
317 40 0.613258 0.882896 0.5
397 33 0.712557 0.830841 0.5
749 27 0.673385 0.884784 0.5
138 32 0.683342 0.854543 0.5
704 36 0.717107 0.86644 0.5
857 43 0.776289 0.836026 0.5
986 27 0.743379 0.845035 0.5
644 30 0.762723 0.871724 0.5
806 26 0.793489 0.866805 0.5
964 34 0.814182 0.842721 0.5
939 40 0.828656 0.878236 0.5
272 39 0.850409 0.847039 0.5
923 35 0.865703 0.880541 0.5
393 42 0.887807 0.846348 0.5
382 41 0.903654 0.880628 0.5
998 31 0.922833 0.85261 0.5
933 28 0.936316 0.881814 0.5
350 10 0.968127 0.829383 0.5
193 27 0.956108 0.85535 0.5
516 44 0.991532 0.855187 0.5
210 26 0.00236061 0.89058 0.5
813 30 0.0335943 0.901931 0.5
245 18 0.0438493 0.937475 0.5
662 33 0.0154659 0.928355 0.5
596 26 0.0882352 0.894316 0.5
170 34 0.0633791 0.914403 0.5
260 27 0.100504 0.921766 0.5
18 46 0.152521 0.893528 0.5
513 26 0.11834 0.897479 0.5
279 33 0.130649 0.926314 0.5
28 26 0.16428 0.928429 0.5
442 37 0.222475 0.891184 0.5
953 28 0.18789 0.908996 0.5
823 27 0.192988 0.940091 0.5
87 27 0.219104 0.92309 0.5
274 26 0.25462 0.898992 0.5
577 39 0.252957 0.935042 0.5
608 29 0.280631 0.912252 0.5
239 37 0.310228 0.89566 0.5
325 33 0.311678 0.931891 0.5
169 17 0.284807 0.939716 0.5
263 28 0.338002 0.913193 0.5
440 43 0.375169 0.901523 0.5
871 27 0.35946 0.93385 0.5
856 26 0.408672 0.911234 0.5
58 26 0.389393 0.934406 0.5
944 29 0.438905 0.903848 0.5
671 23 0.425885 0.935666 0.5
900 22 0.456646 0.927999 0.5
629 23 0.47551 0.906681 0.5
90 43 0.488374 0.942199 0.5
358 27 0.504764 0.907041 0.5
430 34 0.525279 0.932514 0.5
372 25 0.540438 0.902647 0.5
305 29 0.559013 0.928099 0.5
874 41 0.575845 0.895638 0.5
799 26 0.588952 0.930212 0.5
994 27 0.615627 0.916675 0.5
744 34 0.643069 0.901935 0.5
768 31 0.640459 0.936859 0.5
571 48 0.680029 0.923119 0.5
63 28 0.70401 0.895854 0.5
676 31 0.717818 0.924838 0.5
745 37 0.736386 0.895573 0.5
938 20 0.769361 0.899753 0.5
528 34 0.753787 0.925873 0.5
332 25 0.796924 0.895136 0.5
677 42 0.789015 0.927687 0.5
729 20 0.819573 0.911548 0.5
940 26 0.824896 0.936336 0.5
456 31 0.84706 0.908565 0.5
310 34 0.881792 0.911856 0.5
155 30 0.918928 0.914547 0.5
574 18 0.936201 0.937115 0.5
766 28 0.970232 0.884158 0.5
685 30 0.951673 0.912462 0.5
886 27 0.983744 0.914312 0.5
448 33 0.0259082 0.961112 0.5
405 28 0.0313987 0.99939 0.5
705 28 0.00341253 0.985443 0.5
849 37 0.0735659 0.948361 0.5
429 25 0.0540432 0.977214 0.5
542 32 0.0851401 0.980465 0.5
614 29 0.108966 0.953049 0.5
167 25 0.117812 0.982486 0.5
367 26 0.140117 0.955825 0.5
555 30 0.148808 0.984382 0.5
488 24 0.170213 0.958977 0.5
995 23 0.180078 0.989408 0.5
936 22 0.199521 0.968386 0.5
140 29 0.215786 0.99154 0.5
132 31 0.22618 0.957761 0.5
802 37 0.251222 0.987441 0.5
996 24 0.273037 0.962682 0.5
809 25 0.28803 0.990699 0.5
400 36 0.320903 0.995375 0.5
273 27 0.303817 0.9625 0.5
389 43 0.34027 0.960015 0.5
457 40 0.360757 0.992779 0.5
493 22 0.374671 0.964377 0.5
607 40 0.398961 0.997034 0.5
174 31 0.408249 0.961545 0.5
114 23 0.428896 0.982704 0.5
531 24 0.455878 0.998311 0.5
658 38 0.453024 0.961894 0.5
452 34 0.484255 0.980446 0.5
4 34 0.514977 0.965816 0.5
508 26 0.540894 0.988909 0.5
742 31 0.547882 0.957258 0.5
832 45 0.570833 0.99447 0.5
603 28 0.579107 0.958605 0.5
165 19 0.600904 0.977197 0.5
582 27 0.60978 0.952076 0.5
887 33 0.631205 0.976078 0.5
312 42 0.664837 0.96097 0.5
963 25 0.668973 0.994138 0.5
270 32 0.70271 0.955023 0.5
838 19 0.69124 0.981687 0.5
329 36 0.720701 0.984866 0.5
797 32 0.735709 0.954715 0.5
416 35 0.753022 0.99248 0.5
855 31 0.767821 0.958523 0.5
653 22 0.783975 0.98463 0.5
346 29 0.80542 0.960887 0.5
164 35 0.82248 0.9884 0.5
733 41 0.863456 0.941997 0.5
85 19 0.836122 0.960575 0.5
762 33 0.859339 0.978175 0.5
803 31 0.902161 0.940549 0.5
97 20 0.889135 0.96818 0.5
202 42 0.91497 0.990056 0.5
712 29 0.94287 0.965429 0.5
700 24 0.962237 0.941793 0.5
130 27 0.95306 0.99757 0.5
66 32 0.992646 0.952974 0.5
736 23 0.973227 0.976497 0.5
