ITEM: TIMESTEP
2250000
ITEM: NUMBER OF ATOMS
1000
ITEM: BOX BOUNDS pp pp pp
-1.6661811000000000e+01 1.6661811000000000e+01
-1.6661811000000000e+01 1.6661811000000000e+01
-5.0000000000000000e-01 5.0000000000000000e-01
ITEM: ATOMS id type xs ys zs
242 38 0.0253668 0.0406345 0.5
143 30 0.0575648 0.0143588 0.5
538 35 0.0234145 0.00551939 0.5
161 25 0.0875881 0.0271427 0.5
89 30 0.0609049 0.0461889 0.5
498 29 0.145245 0.0197677 0.5
262 32 0.117133 0.0396682 0.5
490 32 0.114585 0.00683617 0.5
865 17 0.201969 0.0167495 0.5
180 34 0.176001 0.0319566 0.5
227 32 0.207621 0.0501138 0.5
461 33 0.169784 -0.00155459 0.5
255 29 0.227604 0.00871432 0.5
315 27 0.261204 0.0195509 0.5
81 26 0.237525 0.0394444 0.5
811 24 0.265848 0.0525256 0.5
860 30 0.316049 0.0135284 0.5
14 28 0.290218 0.0319277 0.5
769 28 0.322089 0.0441032 0.5
148 35 0.28722 -0.00238152 0.5
559 34 0.353274 0.0209255 0.5
831 28 0.351888 0.0537429 0.5
374 36 0.387904 0.0203959 0.5
896 29 0.423178 0.0112631 0.5
592 22 0.412958 0.0393458 0.5
682 38 0.385775 0.0595783 0.5
921 40 0.446376 0.0362658 0.5
763 36 0.481558 0.0199326 0.5
798 36 0.477952 0.0552252 0.5
993 29 0.511057 1.64879e-05 0.5
649 38 0.540273 0.0165818 0.5
467 32 0.509835 0.0409736 0.5
898 27 0.541871 0.0494229 0.5
845 26 0.573287 0.0284885 0.5
445 37 0.60111 0.011169 0.5
57 33 0.60252 0.0451969 0.5
982 33 0.569624 -0.00333352 0.5
824 32 0.632624 0.0281543 0.5
561 32 0.659768 0.00695645 0.5
485 36 0.663372 0.041293 0.5
301 39 0.692637 0.0198629 0.5
930 24 0.725743 0.0373105 0.5
139 28 0.750509 0.0190937 0.5
569 34 0.75465 0.0509254 0.5
583 21 0.810436 0.0182862 0.5
55 27 0.784108 0.0352079 0.5
356 22 0.814068 0.0435163 0.5
912 42 0.78109 0.000641291 0.5
106 15 0.832641 0.0283623 0.5
591 24 0.857277 0.0271479 0.5
115 19 0.871881 0.0485107 0.5
68 32 0.843168 0.0548634 0.5
229 33 0.839576 -0.000497916 0.5
858 34 0.891057 0.027246 0.5
34 31 0.923698 0.0324347 0.5
648 22 0.994609 0.0180773 0.5
588 24 0.944163 0.00953508 0.5
656 17 0.970557 0.0108296 0.5
249 35 0.958037 0.0371803 0.5
378 32 0.990504 0.0498182 0.5
589 21 0.0120481 0.0720306 0.5
920 28 0.0413327 0.0722853 0.5
998 31 0.0249886 0.099616 0.5
33 30 0.0911955 0.0570751 0.5
193 27 0.0567341 0.100566 0.5
350 10 0.068375 0.0706303 0.5
516 44 0.091094 0.0943998 0.5
743 33 0.149839 0.0522108 0.5
891 34 0.121702 0.0733269 0.5
487 30 0.155335 0.0884551 0.5
846 35 0.127907 0.105932 0.5
67 30 0.179904 0.06719 0.5
172 16 0.205498 0.0780919 0.5
298 41 0.187767 0.103572 0.5
927 33 0.237073 0.0702163 0.5
280 41 0.265853 0.093996 0.5
469 39 0.225471 0.104731 0.5
694 31 0.29395 0.0630404 0.5
673 25 0.3007 0.0927373 0.5
181 32 0.326475 0.0753336 0.5
203 43 0.360258 0.0886844 0.5
701 41 0.42236 0.0695018 0.5
71 35 0.395665 0.0935887 0.5
464 30 0.427667 0.106408 0.5
621 26 0.454264 0.078712 0.5
409 30 0.486309 0.087271 0.5
414 36 0.460778 0.111791 0.5
715 19 0.508014 0.0694716 0.5
390 33 0.54137 0.0822351 0.5
536 26 0.514114 0.0976866 0.5
926 35 0.571284 0.0626004 0.5
492 43 0.573398 0.100747 0.5
413 24 0.603164 0.0770086 0.5
425 33 0.633761 0.0609194 0.5
788 35 0.635413 0.0954153 0.5
699 20 0.605389 0.104358 0.5
779 40 0.696816 0.0570254 0.5
208 32 0.663862 0.0762014 0.5
737 36 0.706345 0.0949112 0.5
795 38 0.674488 0.109257 0.5
655 28 0.728112 0.069416 0.5
103 34 0.758632 0.0854718 0.5
530 28 0.734992 0.10918 0.5
955 27 0.785228 0.06665 0.5
397 33 0.815728 0.0740254 0.5
138 32 0.791694 0.0980985 0.5
986 27 0.843881 0.0879728 0.5
857 43 0.879427 0.0826396 0.5
365 26 0.902202 0.057525 0.5
663 34 0.935214 0.064702 0.5
964 34 0.914777 0.0937243 0.5
379 25 0.967374 0.0672845 0.5
393 42 0.988972 0.096335 0.5
272 39 0.951178 0.09741 0.5
933 28 0.0422855 0.12933 0.5
382 41 0.00797367 0.130816 0.5
155 30 0.0288784 0.159591 0.5
766 28 0.073948 0.126554 0.5
210 26 0.103239 0.12794 0.5
685 30 0.0612398 0.154889 0.5
886 27 0.0952023 0.161833 0.5
813 30 0.130191 0.141791 0.5
290 31 0.157664 0.123828 0.5
170 34 0.15969 0.157725 0.5
596 26 0.187204 0.139771 0.5
513 26 0.216206 0.13634 0.5
260 27 0.203961 0.164456 0.5
18 46 0.252648 0.132524 0.5
279 33 0.235265 0.166305 0.5
706 33 0.289733 0.121802 0.5
442 37 0.31458 0.146464 0.5
953 28 0.28162 0.153227 0.5
511 41 0.328656 0.113139 0.5
385 32 0.364593 0.126016 0.5
274 26 0.347202 0.15176 0.5
608 29 0.378379 0.156279 0.5
239 37 0.399992 0.128477 0.5
325 33 0.410406 0.164911 0.5
957 38 0.436367 0.138891 0.5
440 43 0.475626 0.146794 0.5
934 22 0.491644 0.1176 0.5
551 30 0.538623 0.116031 0.5
856 26 0.513818 0.13486 0.5
944 29 0.539033 0.151956 0.5
178 20 0.563066 0.132858 0.5
434 22 0.589596 0.131678 0.5
629 23 0.578565 0.156655 0.5
358 27 0.607568 0.156066 0.5
580 26 0.645733 0.124588 0.5
104 23 0.617636 0.129188 0.5
372 25 0.639544 0.154312 0.5
317 40 0.708853 0.131537 0.5
874 41 0.673814 0.145269 0.5
744 34 0.744422 0.142157 0.5
749 27 0.766086 0.117206 0.5
704 36 0.823475 0.113925 0.5
63 28 0.795063 0.132209 0.5
676 31 0.812827 0.157814 0.5
644 30 0.861312 0.113449 0.5
938 20 0.873579 0.139477 0.5
745 37 0.842811 0.143891 0.5
806 26 0.892931 0.118357 0.5
939 40 0.931843 0.130247 0.5
332 25 0.903695 0.149547 0.5
729 20 0.926576 0.163647 0.5
923 35 0.970426 0.129504 0.5
310 34 0.989872 0.160681 0.5
456 31 0.955943 0.159528 0.5
574 18 0.0403392 0.187462 0.5
803 31 0.012572 0.187052 0.5
712 29 0.0286395 0.213643 0.5
97 20 -0.00213189 0.212958 0.5
700 24 0.0705979 0.182807 0.5
66 32 0.0964236 0.197917 0.5
736 23 0.0576756 0.207255 0.5
662 33 0.124367 0.175083 0.5
245 18 0.14994 0.190314 0.5
448 33 0.129367 0.210284 0.5
429 25 0.161598 0.215013 0.5
849 37 0.179937 0.186468 0.5
614 29 0.214001 0.193577 0.5
28 26 0.265278 0.177732 0.5
367 26 0.244407 0.198235 0.5
488 24 0.273787 0.20534 0.5
823 27 0.294083 0.182433 0.5
87 27 0.323291 0.1792 0.5
936 22 0.302776 0.208997 0.5
577 39 0.355438 0.183451 0.5
132 31 0.332559 0.208808 0.5
996 24 0.375543 0.211669 0.5
169 17 0.388505 0.184759 0.5
273 27 0.404768 0.207797 0.5
263 28 0.447852 0.170468 0.5
389 43 0.438373 0.204117 0.5
871 27 0.475196 0.182308 0.5
493 22 0.475214 0.211919 0.5
58 26 0.505782 0.165603 0.5
671 23 0.531021 0.183167 0.5
174 31 0.502619 0.197971 0.5
114 23 0.523682 0.21933 0.5
658 38 0.554007 0.208804 0.5
900 22 0.557317 0.17591 0.5
90 43 0.589259 0.190888 0.5
430 34 0.625739 0.183291 0.5
742 31 0.650721 0.209062 0.5
4 34 0.616732 0.217672 0.5
305 29 0.660214 0.178298 0.5
799 26 0.693127 0.174415 0.5
603 28 0.682184 0.203812 0.5
582 27 0.712863 0.195564 0.5
994 27 0.721759 0.164067 0.5
768 31 0.742844 0.186229 0.5
312 42 0.771376 0.208545 0.5
887 33 0.735781 0.219817 0.5
571 48 0.776233 0.165049 0.5
270 32 0.805151 0.190411 0.5
838 19 0.804078 0.218929 0.5
528 34 0.869203 0.168621 0.5
797 32 0.837525 0.18313 0.5
855 31 0.864634 0.202319 0.5
677 42 0.901376 0.18519 0.5
653 22 0.890835 0.218835 0.5
346 29 0.920766 0.215628 0.5
940 26 0.93649 0.190132 0.5
733 41 0.970382 0.192883 0.5
85 19 0.94861 0.216324 0.5
202 42 0.0100796 0.244542 0.5
130 27 0.0501148 0.23523 0.5
2 28 0.0413679 0.265004 0.5
976 19 0.0805215 0.222692 0.5
770 45 0.0788291 0.256367 0.5
705 28 0.107639 0.232398 0.5
405 28 0.136997 0.242066 0.5
345 33 0.115373 0.265502 0.5
369 36 0.14949 0.273948 0.5
542 32 0.194516 0.220102 0.5
252 37 0.172085 0.246523 0.5
24 29 0.204769 0.253388 0.5
167 25 0.225867 0.223588 0.5
555 30 0.255305 0.229517 0.5
80 29 0.23569 0.254179 0.5
754 31 0.26739 0.259372 0.5
995 23 0.286694 0.232543 0.5
140 29 0.315843 0.237986 0.5
162 32 0.300079 0.26488 0.5
802 37 0.352702 0.235873 0.5
646 26 0.371418 0.263522 0.5
216 46 0.335923 0.269879 0.5
809 25 0.386346 0.237629 0.5
400 36 0.419793 0.23761 0.5
834 31 0.403967 0.266375 0.5
144 35 0.436936 0.269895 0.5
457 40 0.457346 0.239562 0.5
991 34 0.475661 0.269549 0.5
607 40 0.495765 0.238012 0.5
914 23 0.52831 0.249906 0.5
734 33 0.510497 0.274079 0.5
531 24 0.554548 0.242817 0.5
452 34 0.583256 0.228186 0.5
72 23 0.580298 0.260328 0.5
666 33 0.609719 0.250213 0.5
508 26 0.640449 0.239259 0.5
568 32 0.651643 0.268727 0.5
165 19 0.705215 0.221321 0.5
832 45 0.676881 0.240279 0.5
265 46 0.715736 0.253296 0.5
363 23 0.756504 0.245926 0.5
963 25 0.78386 0.240298 0.5
408 26 0.813048 0.246058 0.5
521 33 0.774546 0.271116 0.5
329 36 0.833245 0.217756 0.5
416 35 0.864065 0.237675 0.5
859 43 0.841503 0.266283 0.5
615 27 0.880956 0.26699 0.5
776 31 0.903349 0.245458 0.5
164 35 0.939163 0.247107 0.5
377 25 0.919141 0.271454 0.5
762 33 0.974644 0.229348 0.5
244 28 0.979345 0.261096 0.5
611 39 0.951242 0.280845 0.5
548 39 0.0105287 0.282767 0.5
326 48 0.0370667 0.313357 0.5
233 25 0.092838 0.292737 0.5
124 26 0.062211 0.287252 0.5
881 25 0.0727167 0.31842 0.5
628 31 0.104066 0.321127 0.5
407 24 0.123074 0.296231 0.5
792 31 0.138441 0.330131 0.5
54 28 0.184871 0.279665 0.5
720 27 0.215071 0.282359 0.5
171 35 0.16297 0.307156 0.5
917 42 0.199499 0.316773 0.5
564 25 0.245823 0.282325 0.5
756 27 0.232195 0.307603 0.5
179 31 0.258338 0.322555 0.5
293 38 0.277145 0.294017 0.5
815 30 0.311081 0.29718 0.5
376 44 0.294122 0.328006 0.5
966 22 0.328761 0.320799 0.5
837 34 0.354794 0.302315 0.5
403 23 0.385602 0.290211 0.5
96 30 0.381873 0.320461 0.5
753 33 0.418578 0.299724 0.5
935 23 0.409762 0.332024 0.5
517 39 0.456731 0.300665 0.5
73 31 0.491611 0.300997 0.5
427 31 0.439816 0.332877 0.5
950 32 0.475609 0.331104 0.5
500 46 0.549574 0.279023 0.5
674 26 0.522717 0.305384 0.5
424 20 0.505233 0.326419 0.5
497 33 0.560084 0.315182 0.5
402 40 0.587747 0.292341 0.5
443 27 0.590394 0.328078 0.5
761 29 0.622033 0.281731 0.5
637 27 0.654266 0.299667 0.5
952 35 0.622023 0.315204 0.5
44 34 0.683884 0.276775 0.5
217 33 0.682822 0.314012 0.5
980 27 0.712348 0.290852 0.5
176 33 0.742545 0.279417 0.5
94 22 0.736066 0.309316 0.5
879 35 0.766158 0.30466 0.5
353 28 0.806213 0.277533 0.5
289 19 0.797841 0.307325 0.5
141 33 0.828607 0.300849 0.5
12 36 0.863798 0.297042 0.5
364 33 0.85081 0.329983 0.5
661 30 0.897738 0.293895 0.5
901 39 0.92667 0.315871 0.5
652 46 0.889884 0.329514 0.5
618 38 0.994343 0.316675 0.5
698 17 0.980248 0.288751 0.5
751 22 0.962344 0.310749 0.5
428 27 0.0167501 0.343224 0.5
716 30 0.0161258 0.374337 0.5
259 15 0.0410776 0.386446 0.5
288 38 0.0498152 0.352206 0.5
929 35 0.0836674 0.351239 0.5
196 31 0.0692876 0.381062 0.5
26 43 0.106293 0.38468 0.5
787 25 0.114808 0.351503 0.5
897 31 0.143609 0.362812 0.5
199 39 0.171942 0.343501 0.5
672 31 0.201656 0.363394 0.5
851 32 0.172801 0.379642 0.5
786 41 0.229536 0.342779 0.5
586 47 0.265811 0.360866 0.5
686 30 0.230754 0.379671 0.5
636 19 0.300247 0.361095 0.5
616 29 0.32183 0.378816 0.5
848 28 0.354661 0.337216 0.5
84 25 0.324706 0.348178 0.5
885 22 0.347894 0.364785 0.5
331 25 0.365331 0.386328 0.5
847 41 0.385606 0.356086 0.5
841 31 0.421232 0.36014 0.5
977 38 0.461091 0.362115 0.5
664 32 0.48285 0.389257 0.5
368 34 0.498894 0.357607 0.5
121 33 0.530591 0.338936 0.5
101 26 0.539235 0.370702 0.5
645 34 0.563531 0.350027 0.5
529 27 0.596214 0.357455 0.5
581 20 0.577017 0.379176 0.5
21 31 0.651917 0.330649 0.5
426 19 0.622383 0.345276 0.5
225 36 0.648157 0.363969 0.5
383 37 0.616648 0.383571 0.5
136 40 0.714013 0.335342 0.5
566 32 0.680036 0.34815 0.5
91 22 0.703126 0.366997 0.5
206 32 0.67603 0.385172 0.5
360 11 0.714563 0.387064 0.5
100 34 0.750013 0.336674 0.5
278 34 0.73476 0.367731 0.5
476 18 0.758263 0.387843 0.5
418 36 0.814622 0.332997 0.5
166 30 0.771666 0.36237 0.5
829 22 0.782703 0.333444 0.5
177 21 0.802301 0.361452 0.5
277 24 0.785746 0.38803 0.5
264 31 0.836074 0.360552 0.5
519 21 0.865215 0.355441 0.5
375 30 0.891106 0.369774 0.5
27 34 0.921344 0.354027 0.5
983 32 0.954101 0.339773 0.5
606 36 0.986346 0.353746 0.5
283 39 0.954579 0.373776 0.5
545 42 0.0194623 0.40897 0.5
807 20 0.0388498 0.435341 0.5
967 22 0.0531298 0.409244 0.5
959 25 0.0808309 0.409662 0.5
951 29 0.101502 0.431 0.5
791 25 0.0676252 0.435416 0.5
597 21 0.139086 0.392703 0.5
781 28 0.131921 0.421711 0.5
812 25 0.201508 0.393826 0.5
750 33 0.162215 0.41131 0.5
882 38 0.194633 0.425321 0.5
541 34 0.258727 0.400577 0.5
120 30 0.22616 0.41238 0.5
985 22 0.252707 0.434854 0.5
687 34 0.291329 0.390029 0.5
532 27 0.284989 0.423096 0.5
709 30 0.315671 0.41091 0.5
651 21 0.341197 0.399066 0.5
902 29 0.368129 0.415775 0.5
154 27 0.342486 0.432384 0.5
707 52 0.403029 0.393864 0.5
36 39 0.42979 0.427192 0.5
888 27 0.396294 0.430514 0.5
949 36 0.445437 0.395162 0.5
175 49 0.469761 0.427882 0.5
333 30 0.515176 0.393256 0.5
665 46 0.512369 0.435075 0.5
384 47 0.548631 0.4068 0.5
491 29 0.590948 0.404613 0.5
348 26 0.574 0.433528 0.5
692 27 0.604628 0.433355 0.5
988 14 0.646848 0.39483 0.5
112 23 0.626386 0.414409 0.5
626 37 0.662515 0.419461 0.5
421 35 0.699278 0.410997 0.5
864 22 0.698683 0.441472 0.5
251 32 0.736281 0.406406 0.5
578 28 0.767354 0.413722 0.5
6 7 0.72057 0.426599 0.5
892 19 0.746671 0.433575 0.5
540 36 0.820266 0.390201 0.5
478 29 0.798269 0.415973 0.5
821 24 0.778758 0.44074 0.5
343 35 0.832832 0.423387 0.5
679 48 0.859312 0.391396 0.5
772 33 0.866991 0.432021 0.5
544 27 0.891035 0.410708 0.5
557 40 0.919488 0.391452 0.5
341 23 0.923271 0.424007 0.5
313 34 0.899823 0.443805 0.5
41 31 0.987989 0.389676 0.5
191 39 0.953387 0.410198 0.5
533 37 0.986108 0.424708 0.5
723 28 0.959531 0.443982 0.5
696 26 0.012964 0.444289 0.5
575 33 0.0110861 0.476955 0.5
713 39 0.0460487 0.465019 0.5
600 38 0.0834686 0.463098 0.5
764 40 0.0997404 0.498648 0.5
962 53 0.126211 0.461254 0.5
631 30 0.163348 0.443841 0.5
126 32 0.162 0.478515 0.5
234 35 0.191874 0.460593 0.5
7 36 0.192792 0.495489 0.5
111 28 0.22677 0.446881 0.5
524 35 0.224866 0.480328 0.5
965 29 0.254319 0.46476 0.5
534 35 0.311803 0.44445 0.5
458 39 0.276466 0.493165 0.5
8 23 0.280912 0.451608 0.5
51 32 0.307565 0.477795 0.5
556 28 0.369361 0.447377 0.5
785 34 0.34149 0.464903 0.5
303 28 0.361441 0.494499 0.5
361 34 0.387451 0.476632 0.5
228 26 0.412131 0.456534 0.5
349 45 0.422063 0.491035 0.5
794 31 0.44238 0.460307 0.5
296 29 0.473846 0.465819 0.5
771 23 0.456119 0.488958 0.5
728 35 0.484935 0.498834 0.5
593 22 0.546687 0.442721 0.5
232 26 0.505115 0.471352 0.5
549 29 0.536372 0.470591 0.5
587 38 0.57099 0.466285 0.5
688 25 0.588363 0.495275 0.5
619 32 0.634894 0.443829 0.5
309 35 0.606372 0.466676 0.5
133 32 0.642034 0.475581 0.5
17 25 0.618208 0.499387 0.5
727 38 0.669385 0.455037 0.5
910 30 0.700251 0.470952 0.5
866 28 0.675814 0.490227 0.5
9 26 0.726716 0.450792 0.5
43 37 0.756532 0.463298 0.5
760 24 0.729147 0.481016 0.5
282 26 0.757979 0.496795 0.5
632 30 0.809695 0.447186 0.5
267 25 0.788387 0.468742 0.5
625 33 0.81741 0.478431 0.5
110 30 0.790543 0.500815 0.5
911 28 0.841935 0.454785 0.5
553 32 0.872485 0.466372 0.5
137 34 0.848568 0.489168 0.5
438 26 0.879771 0.497655 0.5
156 22 0.931051 0.451066 0.5
960 44 0.908857 0.480316 0.5
480 24 0.984001 0.458553 0.5
822 37 0.948552 0.477444 0.5
188 32 0.981603 0.489463 0.5
95 33 0.0340458 0.500814 0.5
971 16 0.00606492 0.504887 0.5
913 28 0.0197065 0.529441 0.5
793 28 0.0652627 0.492631 0.5
60 25 0.0488409 0.52753 0.5
862 22 0.0763458 0.521543 0.5
447 39 0.0706797 0.55323 0.5
336 38 0.136769 0.503584 0.5
22 35 0.114777 0.533381 0.5
972 28 0.150963 0.534417 0.5
925 19 0.166629 0.509784 0.5
872 42 0.185771 0.535148 0.5
833 33 0.216233 0.55188 0.5
641 29 0.217938 0.519085 0.5
690 25 0.245129 0.504572 0.5
702 26 0.242792 0.535717 0.5
928 34 0.273605 0.529459 0.5
357 39 0.306536 0.516069 0.5
20 37 0.299731 0.553048 0.5
92 26 0.332986 0.496986 0.5
77 15 0.328242 0.545023 0.5
875 35 0.350353 0.524604 0.5
783 24 0.387959 0.509461 0.5
275 32 0.416849 0.527733 0.5
201 35 0.384137 0.540658 0.5
406 29 0.448515 0.517734 0.5
620 26 0.476154 0.528574 0.5
11 40 0.450221 0.552335 0.5
740 35 0.520341 0.500238 0.5
412 28 0.50685 0.528807 0.5
128 31 0.537768 0.529374 0.5
730 32 0.555736 0.499125 0.5
306 25 0.566692 0.529643 0.5
125 30 0.595619 0.525353 0.5
157 33 0.648859 0.507747 0.5
281 23 0.62609 0.527701 0.5
118 24 0.652239 0.540342 0.5
590 22 0.703575 0.502334 0.5
431 31 0.679247 0.522258 0.5
805 26 0.709005 0.53225 0.5
47 31 0.679678 0.555761 0.5
70 26 0.732233 0.509931 0.5
999 39 0.743339 0.542766 0.5
471 22 0.771342 0.524793 0.5
997 36 0.801952 0.532342 0.5
974 24 0.822722 0.509195 0.5
39 25 0.859228 0.519535 0.5
381 33 0.834654 0.54201 0.5
294 29 0.870085 0.550022 0.5
778 22 0.885988 0.526254 0.5
853 14 0.905434 0.510743 0.5
784 27 0.932155 0.507719 0.5
109 47 0.915603 0.541481 0.5
973 18 0.959447 0.508483 0.5
187 34 0.982876 0.526775 0.5
777 25 0.95056 0.532405 0.5
465 26 0.0368 0.554396 0.5
869 33 0.00303654 0.55706 0.5
450 21 0.0240963 0.578705 0.5
503 40 -0.00571855 0.593354 0.5
916 23 0.0232073 0.607257 0.5
472 25 0.0511894 0.579803 0.5
748 37 0.0836678 0.589139 0.5
212 22 0.103528 0.563622 0.5
512 32 0.13362 0.562007 0.5
680 29 0.120163 0.591265 0.5
129 39 0.15647 0.598627 0.5
826 30 0.165782 0.563834 0.5
342 43 0.196175 0.584243 0.5
422 30 0.231072 0.581333 0.5
151 41 0.261847 0.564893 0.5
40 43 0.263082 0.604238 0.5
475 24 0.291498 0.584186 0.5
506 39 0.323766 0.581012 0.5
563 38 0.353551 0.559542 0.5
948 39 0.357706 0.600241 0.5
105 31 0.414188 0.563096 0.5
446 27 0.385657 0.578412 0.5
796 25 0.414006 0.594517 0.5
65 32 0.486353 0.556409 0.5
958 19 0.437278 0.581211 0.5
595 37 0.468792 0.585302 0.5
893 29 0.522698 0.55735 0.5
324 42 0.505225 0.588971 0.5
767 44 0.54637 0.587472 0.5
765 21 0.552123 0.554097 0.5
1000 38 0.586073 0.557585 0.5
311 26 0.580003 0.590393 0.5
23 26 0.619098 0.555239 0.5
323 30 0.611391 0.584874 0.5
42 45 0.648429 0.575696 0.5
522 38 0.686388 0.591946 0.5
691 42 0.715154 0.566363 0.5
64 32 0.74947 0.577486 0.5
496 30 0.719557 0.602597 0.5
870 29 0.751577 0.609351 0.5
599 34 0.777455 0.556853 0.5
46 35 0.811471 0.56903 0.5
195 39 0.782288 0.591844 0.5
318 37 0.819226 0.604094 0.5
968 41 0.848021 0.5773 0.5
818 23 0.873531 0.599605 0.5
585 33 0.892681 0.573653 0.5
725 42 0.930231 0.58001 0.5
269 32 0.905305 0.607543 0.5
546 33 0.96813 0.558843 0.5
135 28 0.9617 0.590575 0.5
726 29 0.0203782 0.638594 0.5
789 27 0.049053 0.649629 0.5
906 42 0.0557118 0.615257 0.5
790 33 0.0948895 0.621487 0.5
854 27 0.078994 0.646894 0.5
19 27 0.109686 0.64999 0.5
204 35 0.130313 0.623991 0.5
48 23 0.146948 0.652988 0.5
970 19 0.160844 0.630415 0.5
186 32 0.189921 0.620084 0.5
441 29 0.176082 0.652755 0.5
316 41 0.214303 0.65175 0.5
460 36 0.22358 0.614889 0.5
594 34 0.250033 0.638618 0.5
286 31 0.299911 0.61296 0.5
668 19 0.278784 0.632589 0.5
284 37 0.306058 0.646171 0.5
410 44 0.276056 0.668676 0.5
10 29 0.331234 0.621243 0.5
246 34 0.366787 0.636882 0.5
423 35 0.338884 0.65642 0.5
693 28 0.389372 0.609512 0.5
62 27 0.413091 0.63043 0.5
732 27 0.395487 0.653393 0.5
117 32 0.428097 0.660875 0.5
504 43 0.443513 0.613633 0.5
266 37 0.482463 0.619186 0.5
572 35 0.46179 0.648351 0.5
840 24 0.493917 0.649088 0.5
347 50 0.523898 0.6266 0.5
470 29 0.521041 0.663029 0.5
394 29 0.555092 0.650815 0.5
404 31 0.59889 0.615633 0.5
432 28 0.565293 0.619256 0.5
814 31 0.588453 0.645825 0.5
83 31 0.632265 0.609577 0.5
899 19 0.616127 0.639378 0.5
915 25 0.643218 0.640503 0.5
479 16 0.626784 0.662845 0.5
573 30 0.664243 0.618168 0.5
678 29 0.696888 0.625219 0.5
560 28 0.676796 0.648231 0.5
904 36 0.710174 0.655793 0.5
49 26 0.730476 0.630618 0.5
392 30 0.762351 0.640114 0.5
322 19 0.739942 0.658466 0.5
816 33 0.794034 0.626201 0.5
981 29 0.824689 0.637373 0.5
474 27 0.794497 0.657412 0.5
338 28 0.850535 0.61691 0.5
271 29 0.854999 0.648317 0.5
633 30 0.88131 0.628545 0.5
295 34 0.886049 0.662138 0.5
675 26 0.913956 0.642226 0.5
601 31 0.93867 0.61473 0.5
918 43 0.973568 0.626408 0.5
876 31 0.944159 0.64934 0.5
861 37 0.993995 0.658989 0.5
495 34 0.0253489 0.672852 0.5
584 23 -0.00334234 0.692453 0.5
231 32 0.0272582 0.707235 0.5
827 45 0.0613749 0.683968 0.5
205 26 0.0959956 0.680062 0.5
514 23 0.0557307 0.717838 0.5
398 41 0.0885154 0.714269 0.5
714 29 0.126766 0.675581 0.5
344 17 0.116535 0.701181 0.5
684 23 0.142523 0.703849 0.5
830 28 0.158393 0.678828 0.5
617 34 0.193221 0.6807 0.5
647 30 0.171813 0.709301 0.5
82 35 0.205497 0.713124 0.5
145 22 0.242546 0.668154 0.5
550 22 0.222623 0.689103 0.5
722 34 0.252046 0.698032 0.5
576 34 0.312401 0.680372 0.5
909 26 0.287077 0.70137 0.5
634 12 0.322064 0.707202 0.5
956 34 0.369926 0.671332 0.5
29 28 0.343012 0.693073 0.5
543 35 0.373059 0.705566 0.5
45 27 0.401948 0.682556 0.5
53 37 0.409279 0.718115 0.5
804 28 0.434372 0.692407 0.5
604 18 0.482209 0.672761 0.5
758 18 0.458461 0.679944 0.5
226 32 0.474583 0.705398 0.5
486 40 0.50844 0.694766 0.5
371 29 0.542332 0.687348 0.5
820 29 0.573638 0.677142 0.5
755 23 0.594095 0.70015 0.5
25 34 0.565416 0.711234 0.5
602 23 0.603594 0.672454 0.5
481 30 0.653505 0.66967 0.5
30 33 0.627022 0.695706 0.5
454 32 0.660631 0.701953 0.5
411 31 0.686506 0.680368 0.5
108 34 0.691628 0.713389 0.5
254 34 0.718751 0.691384 0.5
605 22 0.748465 0.699174 0.5
711 36 0.767747 0.675177 0.5
147 30 0.797445 0.688712 0.5
35 40 0.826249 0.670949 0.5
142 31 0.860664 0.685512 0.5
867 40 0.83041 0.709166 0.5
119 28 0.920004 0.672101 0.5
93 48 0.896896 0.701007 0.5
759 38 0.937048 0.702123 0.5
134 36 0.964517 0.676889 0.5
946 29 0.96989 0.711444 0.5
190 44 0.0339509 0.744673 0.5
477 31 -0.0084899 0.764563 0.5
237 37 -0.00182887 0.729867 0.5
240 28 0.0706445 0.745403 0.5
401 22 0.100059 0.74543 0.5
200 36 0.0546037 0.777214 0.5
624 21 0.119716 0.726684 0.5
74 37 0.149984 0.73553 0.5
992 40 0.126295 0.764678 0.5
747 21 0.159686 0.764129 0.5
419 34 0.185698 0.741798 0.5
320 34 0.190438 0.774711 0.5
116 19 0.234301 0.722682 0.5
352 25 0.217005 0.744774 0.5
399 35 0.24864 0.74906 0.5
127 20 0.271154 0.729028 0.5
194 31 0.227752 0.775746 0.5
287 38 0.305383 0.729742 0.5
300 39 0.283951 0.759882 0.5
627 34 0.32181 0.762669 0.5
883 38 0.343486 0.728346 0.5
942 23 0.352803 0.758908 0.5
235 37 0.379157 0.73987 0.5
640 39 0.415731 0.754886 0.5
386 39 0.444846 0.72554 0.5
13 32 0.475877 0.743851 0.5
507 28 0.449177 0.760654 0.5
437 33 0.485182 0.777811 0.5
388 24 0.500916 0.726819 0.5
152 36 0.534038 0.72589 0.5
526 30 0.509603 0.755659 0.5
209 24 0.539114 0.760743 0.5
184 25 0.60721 0.726819 0.5
638 55 0.575493 0.749641 0.5
198 37 0.640749 0.731308 0.5
370 40 0.617204 0.7621 0.5
782 26 0.655506 0.761192 0.5
932 25 0.672525 0.736713 0.5
221 20 0.706721 0.739084 0.5
337 28 0.690559 0.763094 0.5
50 33 0.773531 0.717332 0.5
319 29 0.722668 0.764244 0.5
334 34 0.734239 0.725819 0.5
276 37 0.756011 0.752728 0.5
654 22 0.802223 0.723819 0.5
878 32 0.790626 0.751765 0.5
635 19 0.822379 0.741804 0.5
354 36 0.815438 0.773252 0.5
501 36 0.865471 0.724751 0.5
683 36 0.848293 0.757318 0.5
314 32 0.884601 0.763199 0.5
695 17 0.893781 0.736183 0.5
868 41 0.920892 0.761684 0.5
435 20 0.917576 0.728986 0.5
579 26 0.945506 0.735549 0.5
489 17 0.971143 0.744647 0.5
612 25 0.953381 0.763632 0.5
643 26 0.0206708 0.777175 0.5
328 20 0.0204315 0.806464 0.5
223 14 -0.00098393 0.792573 0.5
98 37 0.0895535 0.774685 0.5
889 27 0.0471983 0.809519 0.5
839 26 0.079529 0.807703 0.5
724 44 0.115376 0.806072 0.5
146 22 0.149197 0.816201 0.5
801 24 0.147822 0.78949 0.5
468 26 0.1742 0.803632 0.5
954 21 0.203168 0.801014 0.5
657 22 0.257671 0.777459 0.5
86 30 0.246769 0.804565 0.5
99 23 0.217922 0.823971 0.5
670 35 0.281822 0.797116 0.5
535 22 0.311659 0.79197 0.5
659 37 0.308248 0.824242 0.5
721 26 0.275086 0.827933 0.5
739 48 0.382131 0.779207 0.5
884 39 0.343174 0.791964 0.5
291 25 0.369587 0.812766 0.5
451 34 0.343361 0.828745 0.5
220 30 0.4194 0.789129 0.5
667 25 0.398773 0.811328 0.5
717 30 0.430488 0.820982 0.5
69 37 0.454128 0.793602 0.5
3 34 0.487065 0.812126 0.5
79 41 0.520543 0.7902 0.5
825 39 0.548251 0.82237 0.5
417 23 0.516113 0.823802 0.5
321 31 0.557938 0.786123 0.5
292 27 0.589671 0.785259 0.5
304 26 0.582305 0.813863 0.5
978 19 0.601613 0.835077 0.5
800 20 0.640493 0.784002 0.5
817 38 0.616164 0.806077 0.5
681 21 0.646843 0.810728 0.5
373 37 0.672127 0.79123 0.5
335 35 0.699577 0.817136 0.5
163 23 0.667705 0.829344 0.5
850 20 0.705218 0.787707 0.5
297 30 0.744782 0.786126 0.5
527 27 0.731754 0.814434 0.5
185 39 0.765848 0.812505 0.5
975 25 0.778732 0.782079 0.5
774 35 0.802954 0.806381 0.5
463 25 0.834346 0.800933 0.5
285 30 0.862541 0.787523 0.5
843 36 0.861405 0.82125 0.5
880 44 0.898898 0.796829 0.5
183 27 0.936187 0.793913 0.5
236 45 0.921995 0.831742 0.5
359 35 0.970062 0.791958 0.5
149 26 0.956072 0.820047 0.5
757 42 0.991052 0.823155 0.5
697 39 0.0264628 0.840882 0.5
539 31 -0.00480794 0.85938 0.5
828 28 0.024252 0.876506 0.5
969 28 0.0647449 0.835294 0.5
224 29 0.0976684 0.839266 0.5
718 15 0.0497224 0.860224 0.5
642 31 0.078423 0.865524 0.5
518 30 0.0532488 0.88891 0.5
207 31 0.132828 0.840641 0.5
131 26 0.14929 0.871623 0.5
459 38 0.114086 0.872269 0.5
248 23 0.1886 0.828168 0.5
1 24 0.163963 0.839424 0.5
610 30 0.188354 0.859006 0.5
947 35 0.213653 0.882711 0.5
449 24 0.217933 0.852993 0.5
554 28 0.243787 0.837677 0.5
32 18 0.26645 0.855153 0.5
907 25 0.242771 0.868629 0.5
391 22 0.32424 0.852532 0.5
387 28 0.295541 0.862504 0.5
5 35 0.321924 0.883654 0.5
984 33 0.271021 0.883263 0.5
623 39 0.35407 0.864155 0.5
247 21 0.377287 0.840923 0.5
547 34 0.38792 0.874469 0.5
122 30 0.405287 0.844125 0.5
523 18 0.417724 0.875331 0.5
863 24 0.435023 0.853515 0.5
362 33 0.460878 0.834782 0.5
890 35 0.46556 0.869238 0.5
835 34 0.49337 0.846504 0.5
59 20 0.496333 0.876418 0.5
494 19 0.522909 0.850501 0.5
937 32 0.528521 0.878231 0.5
808 24 0.549287 0.856933 0.5
395 26 0.575198 0.843636 0.5
159 36 0.57506 0.877279 0.5
327 31 0.606518 0.862912 0.5
562 39 0.633179 0.840046 0.5
302 24 0.637051 0.873307 0.5
415 22 0.660549 0.856767 0.5
52 40 0.692225 0.852218 0.5
173 30 0.675495 0.883849 0.5
908 17 0.720679 0.84014 0.5
810 31 0.723617 0.869521 0.5
945 36 0.75198 0.846937 0.5
919 21 0.751899 0.878837 0.5
56 26 0.777726 0.869972 0.5
570 35 0.787743 0.838548 0.5
719 20 0.803528 0.863375 0.5
669 44 0.826326 0.836663 0.5
703 30 0.832091 0.875019 0.5
630 32 0.858395 0.856049 0.5
123 12 0.857052 0.882755 0.5
924 23 0.880248 0.877737 0.5
622 27 0.890061 0.845718 0.5
515 28 0.911621 0.869981 0.5
299 22 0.936108 0.89005 0.5
502 23 0.940863 0.862944 0.5
38 29 0.965959 0.84899 0.5
420 36 0.967084 0.881907 0.5
780 29 -0.00202439 0.89849 0.5
510 37 0.0282579 0.911862 0.5
238 22 0.00921684 0.936583 0.5
775 34 0.0886411 0.896761 0.5
505 34 0.0630504 0.921719 0.5
213 32 0.0977718 0.929214 0.5
894 25 0.145198 0.900246 0.5
433 22 0.118193 0.904828 0.5
37 28 0.130085 0.930175 0.5
731 36 0.17614 0.889764 0.5
552 29 0.200848 0.913713 0.5
466 48 0.167017 0.927903 0.5
819 29 0.242392 0.897799 0.5
567 28 0.263338 0.921165 0.5
989 36 0.230959 0.929471 0.5
339 38 0.295465 0.909064 0.5
462 28 0.32689 0.94349 0.5
330 26 0.330106 0.914556 0.5
222 34 0.36278 0.898687 0.5
738 33 0.357981 0.933674 0.5
941 28 0.386462 0.920177 0.5
218 20 0.406669 0.900144 0.5
735 26 0.416588 0.929317 0.5
150 42 0.4392 0.900049 0.5
453 23 0.444632 0.936848 0.5
979 37 0.475817 0.906537 0.5
230 31 0.473605 0.941456 0.5
537 25 0.507098 0.900441 0.5
520 32 0.534807 0.916075 0.5
844 34 0.50567 0.932814 0.5
773 16 0.552475 0.895011 0.5
708 24 0.576437 0.908359 0.5
509 25 0.561219 0.931034 0.5
192 38 0.596487 0.940504 0.5
268 49 0.611325 0.901887 0.5
355 32 0.650298 0.903813 0.5
102 19 0.626174 0.931425 0.5
741 35 0.656583 0.94023 0.5
482 29 0.704632 0.896515 0.5
609 30 0.68109 0.917257 0.5
444 35 0.713466 0.928678 0.5
76 24 0.736566 0.905406 0.5
214 35 0.750011 0.934447 0.5
88 46 0.77381 0.905131 0.5
613 26 0.806889 0.891511 0.5
75 17 0.804119 0.919035 0.5
836 28 0.785117 0.941487 0.5
250 30 0.81929 0.94464 0.5
484 35 0.834007 0.909384 0.5
436 31 0.868643 0.908312 0.5
158 37 0.854956 0.939062 0.5
219 26 0.900273 0.900271 0.5
182 33 0.925962 0.918876 0.5
660 26 0.894191 0.929152 0.5
308 24 0.95533 0.911649 0.5
931 29 0.98168 0.925077 0.5
689 30 0.954312 0.942349 0.5
396 32 0.0393765 0.945005 0.5
113 37 0.0144142 0.968223 0.5
873 33 0.0482592 0.980415 0.5
710 40 0.0830659 0.990417 0.5
987 36 0.0744513 0.954858 0.5
215 26 0.139613 0.987556 0.5
261 41 0.112403 0.964825 0.5
565 26 0.144907 0.958243 0.5
160 28 0.19777 0.94707 0.5
257 35 0.202788 0.986132 0.5
197 28 0.174007 0.965833 0.5
168 39 0.253727 0.985708 0.5
439 27 0.226259 0.962147 0.5
351 31 0.257437 0.951997 0.5
61 33 0.294184 0.944056 0.5
639 18 0.279718 0.96894 0.5
473 31 0.314285 0.976011 0.5
31 20 0.338112 0.993488 0.5
852 35 0.3712 0.99023 0.5
903 31 0.349158 0.965866 0.5
380 41 0.388526 0.954874 0.5
650 28 0.403925 0.986132 0.5
78 15 0.433605 0.98728 0.5
455 31 0.423579 0.961218 0.5
525 24 0.453835 1.0021 0.5
752 24 0.48247 0.988855 0.5
15 35 0.456884 0.969707 0.5
189 5 0.482356 0.965946 0.5
256 34 0.536973 0.981956 0.5
961 29 0.506448 0.966129 0.5
366 29 0.534242 0.949816 0.5
558 32 0.59553 0.976246 0.5
16 32 0.56545 0.962691 0.5
877 28 0.629809 0.993386 0.5
598 35 0.625432 0.961551 0.5
243 34 0.660125 0.973732 0.5
241 34 0.695265 0.982477 0.5
253 29 0.688305 0.951724 0.5
107 29 0.722666 1.00294 0.5
499 13 0.745738 0.989573 0.5
153 40 0.727283 0.965011 0.5
307 33 0.765311 0.966917 0.5
340 18 0.811622 0.993304 0.5
895 28 0.79977 0.968783 0.5
211 13 0.825663 0.973186 0.5
483 27 0.874691 0.997362 0.5
746 21 0.849304 0.970882 0.5
990 44 0.882821 0.963362 0.5
943 50 0.911703 0.993396 0.5
258 41 0.9205 0.953525 0.5
905 30 0.985811 0.987037 0.5
922 39 0.952296 0.976331 0.5
842 27 0.983813 0.955891 0.5
