ITEM: TIMESTEP
1000000
ITEM: NUMBER OF ATOMS
1000
ITEM: BOX BOUNDS pp pp pp
-1.7574559000000001e+01 1.7574559000000001e+01
-1.7574559000000001e+01 1.7574559000000001e+01
-5.0000000000000000e-01 5.0000000000000000e-01
ITEM: ATOMS id type xs ys zs
854 28 0.0368429 0.0341942 0.555333
146 25 0.00953766 0.0330388 0.580693
907 27 0.0475034 0.00698459 0.382168
294 29 0.0624358 0.0499916 0.475468
357 36 0.0743293 0.0215385 0.466264
420 34 0.106716 0.0187663 0.498083
174 31 0.136925 0.0188487 0.563971
490 32 0.166202 0.0244302 0.560945
64 31 0.190895 0.0406004 0.491385
118 26 0.192077 0.00913356 0.389337
647 30 0.219217 0.0341105 0.406584
296 30 0.249642 0.0202434 0.552413
927 32 0.271966 0.0405812 0.436275
585 32 0.310174 0.0245474 0.463705
276 35 0.282013 0.00692074 0.504804
305 30 0.343309 0.0148235 0.666767
830 29 0.358217 0.0444922 0.440385
639 22 0.331703 0.0415882 0.441171
234 34 0.385385 0.0341405 0.551875
227 32 0.399829 0.00116526 0.472927
442 35 0.418745 0.0339897 0.561609
525 26 0.442619 0.0168958 0.454565
62 28 0.446495 0.0450552 0.471804
298 38 0.475674 0.028543 0.59378
898 28 0.506973 0.0348336 0.506237
273 28 0.505787 0.00696658 0.505454
52 37 0.538211 0.0286471 0.551005
746 24 0.568033 0.00180784 0.492637
887 32 0.586848 0.0359783 0.532075
321 31 0.598186 0.0025422 0.483986
260 28 0.615916 0.0360768 0.451649
569 33 0.627899 0.00574883 0.540776
571 42 0.651419 0.0328474 0.650872
265 41 0.674977 0.00400449 0.437739
601 31 0.685575 0.0398115 0.362025
340 22 0.704943 -0.00039939 0.471566
951 29 0.723471 0.0188951 0.589911
122 30 0.713825 0.0470528 0.500284
336 35 0.758445 0.027566 0.481386
203 39 0.786523 0.0467363 0.552207
18 41 0.817075 0.0189868 0.425533
925 23 0.823717 0.0508651 0.591799
938 23 0.846084 0.0370503 0.517187
695 21 0.876392 0.0527465 0.482266
904 34 0.884987 0.0181561 0.559857
312 38 0.859083 -0.00446829 0.462973
73 31 0.903406 0.0475009 0.388863
740 34 0.950804 0.0247034 0.611468
832 41 0.918693 0.0130604 0.430586
334 33 0.931863 0.0523028 0.693646
659 35 0.983532 0.0112116 0.545371
775 33 0.984042 0.0472812 0.496521
555 30 0.00679922 0.0712958 0.551836
108 33 0.0366518 0.0701881 0.636378
272 36 0.0373357 0.104415 0.531184
744 33 0.0802715 0.0820294 0.431858
487 30 0.0912489 0.0471988 0.423131
219 28 0.12755 0.0560288 0.360641
710 37 0.158116 0.0564102 0.526089
342 39 0.116848 0.0864004 0.525682
67 30 0.151994 0.0874348 0.484962
953 29 0.185639 0.0770425 0.541534
214 34 0.211776 0.0634796 0.475446
826 30 0.231884 0.0867242 0.558071
513 27 0.246542 0.0553406 0.498894
813 30 0.272002 0.074332 0.510141
144 34 0.303689 0.0559868 0.462767
987 35 0.285811 0.102449 0.534586
367 28 0.330647 0.0773971 0.524549
967 24 0.356229 0.0744712 0.304422
747 24 0.343284 0.101396 0.307443
498 29 0.37372 0.0951097 0.49296
66 31 0.383559 0.0672076 0.528662
741 34 0.404857 0.092218 0.570046
354 34 0.426543 0.0690793 0.527904
538 34 0.45958 0.0901107 0.586725
896 29 0.470951 0.0620431 0.557749
392 30 0.499052 0.0703802 0.60512
736 26 0.524171 0.0882429 0.415272
776 31 0.491876 0.0988868 0.505731
769 29 0.553474 0.0568498 0.457198
553 32 0.556928 0.0889733 0.47457
407 26 0.583718 0.0640265 0.540661
211 19 0.584058 0.090566 0.573988
930 26 0.610008 0.0725871 0.540069
716 30 0.611503 0.0999598 0.518447
320 33 0.644881 0.0673714 0.576603
875 34 0.681084 0.0692571 0.576072
780 29 0.663883 0.0932506 0.472956
866 29 0.727536 0.0728974 0.590142
632 30 0.694778 0.0967692 0.563271
494 23 0.751686 0.0562572 0.46728
748 35 0.749469 0.10068 0.436964
825 36 0.779558 0.0870249 0.4686
928 33 0.811409 0.07652 0.4758
428 28 0.833276 0.100701 0.413304
280 38 0.848643 0.0712881 0.447017
242 35 0.881256 0.0812415 0.533
895 29 0.913665 0.0754293 0.438447
72 26 0.94226 0.0837135 0.466586
32 22 0.963542 0.0672103 0.523082
397 32 0.982091 0.0877221 0.596933
614 29 0.957004 0.108756 0.53618
261 38 0.0252759 0.139102 0.693206
451 33 0.0550357 0.154 0.511899
577 36 0.0984747 0.115415 0.557248
941 29 0.083261 0.14596 0.59125
332 27 0.0614801 0.125032 0.514143
326 43 0.135351 0.116463 0.420603
623 36 0.113402 0.146913 0.436188
850 23 0.201715 0.105511 0.468377
735 28 0.164672 0.132241 0.512008
212 25 0.171943 0.106199 0.552212
554 29 0.197842 0.137994 0.452818
222 33 0.254715 0.107433 0.506431
867 37 0.227368 0.123816 0.38689
423 34 0.253169 0.146757 0.520054
307 32 0.282862 0.13834 0.491515
145 25 0.30904 0.128232 0.494466
488 26 0.314859 0.100332 0.394589
403 25 0.334915 0.127683 0.445444
345 32 0.356736 0.150715 0.441016
778 24 0.363473 0.120417 0.567864
637 28 0.39103 0.120253 0.496305
199 36 0.409823 0.144546 0.569668
373 35 0.430781 0.117055 0.616077
104 25 0.47081 0.146017 0.570296
706 32 0.443012 0.147915 0.615549
31 23 0.467611 0.119971 0.620964
949 34 0.497547 0.133829 0.660578
563 35 0.521979 0.157842 0.547316
148 34 0.525646 0.117747 0.482145
275 32 0.55839 0.118834 0.423913
774 33 0.552908 0.149948 0.489133
540 35 0.590078 0.122021 0.402295
386 36 0.622243 0.134159 0.459523
352 27 0.582142 0.157125 0.529096
667 27 0.642337 0.110803 0.560451
315 28 0.674005 0.124963 0.595539
973 22 0.679939 0.149615 0.405594
758 22 0.699734 0.127819 0.612635
364 32 0.721533 0.112063 0.552141
611 36 0.712049 0.152911 0.501348
837 33 0.77441 0.122815 0.413225
965 29 0.744398 0.135295 0.546076
115 23 0.767626 0.151144 0.495009
9 28 0.802802 0.108134 0.548082
17 27 0.834331 0.127627 0.579083
155 30 0.804982 0.136704 0.460924
635 23 0.822037 0.157461 0.434934
723 29 0.86634 0.107916 0.50469
39 27 0.851077 0.149559 0.458639
416 34 0.890384 0.127929 0.527451
349 40 0.921488 0.109357 0.501647
309 34 0.935831 0.144905 0.456054
556 29 0.910571 0.163968 0.453489
893 30 0.997759 0.151747 0.430106
779 37 1.00472 0.111641 0.562951
528 33 0.976249 0.13223 0.622504
240 29 0.0223054 0.169359 0.496526
645 33 0.0470912 0.188021 0.681268
516 40 0.0112697 0.198971 0.544713
981 30 0.0772151 0.176055 0.561783
989 34 0.107308 0.178252 0.570748
370 37 0.0815866 0.206444 0.496831
492 39 0.145473 0.164711 0.464039
807 23 0.144583 0.205168 0.560338
596 27 0.175544 0.158218 0.480945
378 31 0.168988 0.186637 0.479298
426 23 0.195383 0.176666 0.448821
560 29 0.227742 0.163086 0.559174
408 28 0.219324 0.192544 0.423315
427 31 0.247276 0.197227 0.503283
841 31 0.296942 0.164953 0.402272
570 34 0.267682 0.174395 0.533591
524 33 0.290859 0.194659 0.515874
21 31 0.325944 0.154063 0.472585
181 32 0.323191 0.191817 0.539534
704 34 0.356018 0.195211 0.59683
651 24 0.385505 0.195059 0.471529
702 28 0.382635 0.165655 0.457541
133 32 0.414107 0.183045 0.492425
175 43 0.447701 0.185298 0.550724
753 32 0.483676 0.174315 0.558963
252 35 0.512104 0.19057 0.481804
247 24 0.559168 0.188391 0.47296
924 26 0.537028 0.207428 0.397839
361 33 0.588155 0.187416 0.544971
353 29 0.613712 0.163425 0.517203
446 28 0.61611 0.195735 0.473496
59 23 0.650268 0.145616 0.619624
114 26 0.643015 0.176198 0.596531
857 39 0.676375 0.183681 0.496301
179 31 0.703784 0.20088 0.545866
728 34 0.737255 0.176059 0.432289
359 34 0.740759 0.208328 0.45295
561 32 0.767387 0.179447 0.584548
139 29 0.795699 0.164491 0.42257
124 28 0.840985 0.179174 0.504555
594 33 0.808307 0.191943 0.510583
470 29 0.872294 0.192195 0.580804
308 26 0.878821 0.154372 0.579134
712 29 0.900593 0.193411 0.514757
946 30 0.939097 0.179311 0.517118
92 28 0.962391 0.160265 0.517724
888 28 0.98666 0.179082 0.516616
143 30 0.964691 0.197973 0.455561
604 22 0.0317288 0.219934 0.508404
899 23 0.0311132 0.253827 0.529977
41 31 0.0584417 0.228208 0.499821
313 33 0.0901346 0.250617 0.497188
390 32 0.0608261 0.258536 0.436807
311 28 0.111399 0.211987 0.516617
455 31 0.127257 0.237719 0.439637
511 37 0.193059 0.210525 0.486082
173 30 0.165145 0.224094 0.574696
77 20 0.179411 0.248215 0.472038
149 27 0.154522 0.25038 0.439905
911 29 0.225286 0.220595 0.501929
431 31 0.207761 0.245935 0.520405
879 33 0.239908 0.247029 0.506623
745 35 0.273516 0.220561 0.436277
40 39 0.311234 0.225304 0.460426
28 27 0.293213 0.254396 0.453624
678 30 0.342078 0.230857 0.401935
788 33 0.361238 0.253504 0.5133
344 21 0.332831 0.256028 0.443587
885 25 0.371995 0.227487 0.449912
399 34 0.403718 0.221263 0.402585
671 25 0.391599 0.253884 0.454753
545 38 0.424832 0.250209 0.455787
984 32 0.435443 0.218077 0.43109
457 37 0.457322 0.240729 0.420032
503 37 0.480279 0.21338 0.453746
573 30 0.488795 0.243591 0.558215
284 35 0.512069 0.223948 0.427202
762 32 0.514664 0.257862 0.331302
642 31 0.543978 0.23496 0.563078
852 34 0.567992 0.216067 0.582379
163 26 0.596138 0.224118 0.593885
477 31 0.624154 0.233397 0.363465
874 37 0.573058 0.249692 0.570157
785 33 0.659155 0.241779 0.461498
458 36 0.64678 0.211652 0.546969
605 24 0.681087 0.21661 0.437213
714 29 0.690683 0.257315 0.433778
335 33 0.717469 0.228402 0.459417
36 37 0.723069 0.266284 0.543626
383 35 0.746667 0.240555 0.541224
691 38 0.779536 0.20885 0.448626
713 37 0.778489 0.245924 0.462076
253 29 0.80415 0.227036 0.455224
593 25 0.839499 0.252086 0.35416
80 29 0.810784 0.255493 0.457258
724 40 0.835846 0.220618 0.568803
413 26 0.885201 0.219008 0.445323
193 28 0.863112 0.23669 0.410093
254 33 0.944524 0.250822 0.500071
939 37 0.914347 0.230015 0.508935
291 27 0.942066 0.214189 0.444969
283 36 1.00003 0.237878 0.499487
343 33 0.966849 0.229225 0.420489
812 27 0.97492 0.25783 0.432861
14 29 0.0198408 0.304191 0.546581
846 33 0.0416655 0.283403 0.579345
835 33 0.000533236 0.281662 0.351815
848 29 0.070744 0.289083 0.530276
787 27 0.0874228 0.311113 0.559305
400 34 0.100337 0.281704 0.554598
34 31 0.11559 0.308951 0.479799
700 26 0.132128 0.276276 0.4491
33 30 0.149195 0.303497 0.54291
355 31 0.16349 0.277725 0.461073
652 41 0.199793 0.278544 0.551956
793 29 0.177661 0.309523 0.450001
849 35 0.207183 0.316297 0.55268
598 34 0.232823 0.284259 0.524519
279 32 0.265164 0.264886 0.577351
856 28 0.261048 0.293615 0.516271
687 33 0.308424 0.279206 0.569856
512 31 0.295826 0.307797 0.551259
8 25 0.350369 0.280861 0.55113
116 23 0.333364 0.302111 0.536839
733 37 0.370594 0.307963 0.65317
475 26 0.409491 0.280175 0.433545
799 27 0.382493 0.279437 0.497524
820 29 0.402712 0.309231 0.604244
27 33 0.469307 0.272991 0.410526
462 29 0.441294 0.287362 0.459319
469 36 0.480486 0.309178 0.374617
631 30 0.501351 0.283881 0.511201
966 25 0.548256 0.273596 0.490693
371 29 0.539553 0.303336 0.558617
764 37 0.576514 0.283929 0.507513
801 26 0.606189 0.285631 0.592093
42 40 0.628656 0.265015 0.464967
551 30 0.660182 0.275804 0.555474
300 36 0.640873 0.29896 0.429894
303 29 0.672584 0.308879 0.516599
232 27 0.693479 0.284997 0.347575
880 40 0.727085 0.301032 0.58911
331 26 0.753802 0.271139 0.652304
95 32 0.759741 0.312621 0.386806
58 27 0.785163 0.278218 0.536426
718 20 0.819997 0.280626 0.634131
208 32 0.803526 0.307719 0.465
739 42 0.836052 0.314143 0.601247
638 47 0.853489 0.281061 0.499079
109 42 0.885693 0.260047 0.508612
629 25 0.881342 0.29932 0.440786
913 29 0.919656 0.267501 0.629362
889 28 0.911947 0.296237 0.456683
337 29 0.935236 0.312905 0.523123
12 34 0.949731 0.282469 0.59202
523 22 0.976759 0.295481 0.521543
847 37 0.0451229 0.321653 0.52809
917 39 0.013594 0.337294 0.549011
708 26 0.037695 0.356203 0.527227
465 27 0.0655784 0.345486 0.520358
188 31 0.0954605 0.340414 0.33946
506 37 0.105861 0.373454 0.489251
588 26 0.12397 0.338593 0.448203
56 27 0.150628 0.335349 0.535179
167 27 0.141783 0.36359 0.393578
202 38 0.184452 0.339491 0.510749
592 25 0.206944 0.362163 0.628383
905 30 0.250917 0.321371 0.461629
722 33 0.228794 0.341443 0.537482
950 32 0.260487 0.354539 0.458409
339 36 0.288402 0.340312 0.481211
608 29 0.309641 0.361861 0.472647
126 32 0.32029 0.328194 0.558929
185 36 0.347634 0.345336 0.563248
414 34 0.379332 0.339888 0.476292
4 33 0.409549 0.351158 0.525993
131 28 0.375599 0.369423 0.515438
547 33 0.430133 0.322156 0.441202
111 28 0.457485 0.33139 0.527387
990 40 0.441856 0.358592 0.560035
251 32 0.509648 0.321492 0.44509
768 31 0.485818 0.339129 0.473017
409 30 0.51253 0.350315 0.605195
434 24 0.541599 0.332669 0.540069
943 44 0.57208 0.320462 0.544294
734 32 0.58614 0.353027 0.458748
955 28 0.612068 0.313315 0.484757
83 31 0.61704 0.345073 0.567206
445 35 0.649426 0.332258 0.507935
205 27 0.681073 0.342027 0.49545
418 34 0.662833 0.36868 0.430381
690 27 0.698702 0.319319 0.511216
398 37 0.711242 0.350481 0.43997
861 35 0.744785 0.340369 0.506264
348 27 0.739578 0.37109 0.545859
906 38 0.780621 0.340528 0.582842
391 25 0.81253 0.34052 0.558255
94 25 0.805042 0.365178 0.372508
673 27 0.842969 0.345311 0.506961
697 36 0.873222 0.328183 0.545262
964 33 0.908716 0.325229 0.625533
568 31 0.91392 0.355199 0.568932
858 33 0.943409 0.349973 0.458274
177 24 0.989796 0.318219 0.436316
583 24 0.960822 0.322532 0.464181
7 35 0.984115 0.351893 0.62945
636 22 0.0447235 0.388697 0.491518
926 34 0.0208251 0.411295 0.505269
381 32 0.0167417 0.375582 0.442305
363 25 0.0665217 0.371942 0.46553
803 31 0.0828561 0.417258 0.446247
901 37 0.140145 0.39809 0.591844
766 29 0.111448 0.40995 0.479571
71 34 0.174784 0.37052 0.419511
529 28 0.170641 0.40177 0.510864
882 36 0.201813 0.391447 0.592894
500 41 0.236393 0.378592 0.466152
347 44 0.228327 0.413959 0.452007
935 25 0.258402 0.400644 0.529209
231 32 0.283172 0.374379 0.512567
566 31 0.279022 0.419433 0.546002
393 38 0.309682 0.398744 0.560409
533 35 0.336955 0.37781 0.527084
302 26 0.360271 0.398309 0.525497
107 29 0.336986 0.412818 0.389491
471 25 0.386555 0.394986 0.525039
497 32 0.413205 0.411285 0.501131
641 29 0.412472 0.382298 0.466521
541 33 0.458857 0.391871 0.528463
274 27 0.473944 0.366221 0.574113
626 35 0.500435 0.379814 0.460705
526 30 0.48481 0.40845 0.468462
544 28 0.531958 0.393099 0.547561
20 35 0.521791 0.421656 0.420066
134 34 0.552398 0.36985 0.327144
333 30 0.571881 0.415786 0.433882
329 34 0.581345 0.386739 0.449661
388 26 0.612421 0.374911 0.525334
607 37 0.603519 0.409403 0.516916
508 28 0.671968 0.407247 0.510956
558 31 0.634969 0.403872 0.432085
30 32 0.692143 0.3826 0.533332
160 29 0.722729 0.400132 0.478214
241 33 0.702359 0.423051 0.579667
422 30 0.768209 0.371593 0.432017
485 34 0.756202 0.399608 0.52496
902 30 0.793842 0.39133 0.494714
505 33 0.824106 0.388258 0.610341
190 39 0.815003 0.42109 0.593462
750 32 0.885298 0.371012 0.467681
443 28 0.846608 0.40784 0.519088
842 28 0.851985 0.373818 0.440998
216 41 0.886016 0.404212 0.543753
929 33 0.913748 0.385549 0.452827
760 26 0.939695 0.408719 0.60491
654 25 0.912396 0.420174 0.681336
141 32 0.990726 0.392735 0.630778
833 33 0.959949 0.383743 0.474366
183 28 0.968073 0.418097 0.466781
531 26 -0.00327973 0.426947 0.452254
809 27 0.0266723 0.475706 0.459051
969 29 -0.00333105 0.460494 0.434202
542 32 0.022424 0.441832 0.45028
103 33 0.0528233 0.418731 0.496792
235 35 0.0546865 0.463867 0.256914
720 28 0.0766922 0.444951 0.565997
226 31 0.129849 0.435406 0.528576
504 39 0.145957 0.462728 0.594029
674 28 0.157969 0.431785 0.439343
610 30 0.110361 0.457052 0.477275
910 30 0.191917 0.421978 0.4819
947 33 0.177592 0.457764 0.352822
613 27 0.21054 0.445098 0.574386
29 29 0.253719 0.44189 0.492261
709 30 0.228654 0.468816 0.427594
653 24 0.259711 0.469698 0.418275
683 34 0.282058 0.451816 0.52616
763 34 0.318096 0.440268 0.379783
405 29 0.355602 0.43403 0.502204
210 28 0.350153 0.469748 0.485757
894 27 0.386244 0.422058 0.455793
74 35 0.385229 0.451694 0.519529
194 31 0.46118 0.428763 0.584522
721 27 0.424634 0.438812 0.612331
688 27 0.444189 0.458189 0.425731
6 15 0.41299 0.461665 0.55822
983 32 0.476945 0.453408 0.446309
292 28 0.507506 0.453105 0.5586
207 31 0.549394 0.433246 0.623057
78 20 0.535086 0.455044 0.511683
865 22 0.571535 0.453778 0.438318
401 25 0.593275 0.436645 0.64931
804 29 0.622346 0.436303 0.396109
646 28 0.59956 0.462951 0.513831
218 23 0.642437 0.471305 0.500147
731 35 0.654958 0.431818 0.542907
574 22 0.684135 0.451983 0.518239
980 28 0.721816 0.44875 0.535814
112 25 0.73607 0.423667 0.538255
727 36 0.779943 0.422061 0.495357
960 40 0.758269 0.448963 0.490126
871 28 0.789187 0.450756 0.553353
738 32 0.821906 0.455247 0.424467
493 25 0.852384 0.471175 0.465545
586 42 0.856042 0.439882 0.552579
940 27 0.884523 0.467044 0.477612
633 30 0.891735 0.437609 0.41635
806 27 0.938698 0.438943 0.551195
156 25 0.915998 0.461644 0.420242
304 28 0.969551 0.445954 0.570517
374 34 0.945901 0.467936 0.480569
668 23 0.002879 0.486918 0.589093
584 25 0.0230144 0.503533 0.49219
191 36 0.0849395 0.474273 0.578365
61 32 0.0502698 0.493516 0.518893
851 31 0.0807617 0.50452 0.519973
815 30 0.111078 0.497545 0.429826
791 27 0.143991 0.493694 0.614834
873 32 0.156497 0.520843 0.381904
162 32 0.102643 0.526622 0.6034
618 35 0.200594 0.482526 0.566033
970 22 0.172096 0.491993 0.523357
922 36 0.19507 0.514713 0.625257
881 27 0.238676 0.496352 0.407008
117 31 0.222525 0.527483 0.384262
956 33 0.280647 0.500105 0.552437
933 29 0.309838 0.511373 0.472235
384 41 0.308279 0.471748 0.656861
184 27 0.339434 0.494664 0.678287
93 42 0.377653 0.485692 0.533231
389 39 0.366695 0.522333 0.55448
518 30 0.397487 0.516248 0.615454
936 25 0.429183 0.515927 0.417515
287 35 0.431093 0.488079 0.646649
661 30 0.455498 0.517508 0.628056
543 33 0.467721 0.490488 0.419319
729 23 0.497288 0.514586 0.497411
689 30 0.49566 0.481972 0.58312
988 20 0.524323 0.481393 0.59832
890 33 0.532159 0.516611 0.432434
995 25 0.552509 0.493125 0.502488
123 18 0.574519 0.516542 0.379236
132 31 0.587122 0.492539 0.523565
259 20 0.599196 0.516379 0.432577
319 29 0.616353 0.48834 0.529288
220 30 0.622449 0.527699 0.539898
484 34 0.650328 0.516318 0.404157
365 27 0.66449 0.487758 0.626016
576 33 0.693322 0.479644 0.607245
962 46 0.698963 0.514201 0.44855
845 27 0.721341 0.489925 0.532596
10 29 0.731774 0.519434 0.463322
794 31 0.748415 0.4802 0.576904
246 33 0.762466 0.509249 0.407475
11 37 0.783699 0.480504 0.606811
164 33 0.815972 0.485325 0.526286
225 34 0.816932 0.519915 0.592718
138 31 0.841231 0.500897 0.380042
643 28 0.869134 0.492264 0.482246
783 26 0.86294 0.522379 0.500853
999 36 0.896673 0.505037 0.487465
415 24 0.921518 0.488992 0.496578
663 33 0.929969 0.520303 0.475969
466 42 0.986073 0.512797 0.461382
903 31 0.974873 0.480143 0.544651
972 29 0.0199551 0.533841 0.454458
730 31 0.0488281 0.565589 0.382172
517 36 0.0113784 0.570747 0.558963
377 27 0.0474264 0.525318 0.431188
165 22 0.0756658 0.536428 0.541058
142 31 0.0810516 0.573437 0.502761
63 29 0.117949 0.570065 0.577127
380 38 0.129974 0.541955 0.344956
195 37 0.153328 0.56574 0.608817
622 28 0.179812 0.546738 0.590811
209 26 0.185416 0.574878 0.454879
286 31 0.212812 0.556018 0.449578
743 32 0.240942 0.570805 0.622353
110 30 0.256338 0.537691 0.647159
992 37 0.289073 0.538104 0.492053
180 33 0.274433 0.569904 0.473769
45 28 0.320956 0.548139 0.559221
476 22 0.34843 0.555778 0.519066
438 27 0.33613 0.524063 0.434084
789 28 0.377407 0.558693 0.590626
90 39 0.40786 0.546085 0.450739
341 25 0.395108 0.579307 0.559978
978 23 0.429239 0.56909 0.558436
994 28 0.438985 0.541671 0.584722
53 35 0.457273 0.566021 0.414186
197 29 0.5111 0.540047 0.400364
387 29 0.476059 0.541024 0.602809
314 31 0.490811 0.56584 0.508965
717 30 0.529513 0.561522 0.548386
450 24 0.558709 0.545718 0.416513
281 25 0.560898 0.57539 0.355173
19 28 0.585384 0.541023 0.491135
620 28 0.611352 0.555253 0.524028
510 35 0.58915 0.578596 0.58684
855 31 0.642311 0.54783 0.76135
99 25 0.668338 0.541399 0.553928
51 31 0.658872 0.574323 0.520751
192 36 0.693939 0.563859 0.566029
282 27 0.717148 0.543851 0.477228
657 25 0.732707 0.566873 0.401574
616 30 0.786793 0.529489 0.425664
266 35 0.758605 0.541307 0.376998
701 37 0.766418 0.579548 0.588508
102 22 0.789812 0.557933 0.524151
840 26 0.813583 0.575847 0.465298
974 26 0.821273 0.548958 0.44649
433 25 0.840065 0.577376 0.398003
805 27 0.855317 0.552381 0.523149
60 27 0.885762 0.544756 0.492483
328 23 0.868797 0.583664 0.650377
46 34 0.900426 0.575532 0.438744
460 34 0.927047 0.559333 0.537637
932 27 0.955022 0.571225 0.627551
818 25 0.958461 0.529893 0.602889
295 33 0.980075 0.547514 0.523244
680 29 0.0346728 0.594803 0.557844
908 21 0.0366024 0.624125 0.572405
257 33 0.0096538 0.617279 0.51592
483 28 0.0628 0.597382 0.478262
299 25 0.0744544 0.62613 0.501088
595 35 0.0985185 0.599687 0.47142
634 18 0.13538 0.58898 0.543984
580 27 0.13166 0.622164 0.508085
565 27 0.156846 0.634716 0.464946
737 34 0.168205 0.598414 0.560403
325 32 0.1844 0.627686 0.613931
937 32 0.21332 0.58516 0.616641
991 33 0.25317 0.600573 0.444348
957 36 0.224515 0.61841 0.428121
297 30 0.304954 0.584029 0.575831
38 29 0.285195 0.604389 0.496673
449 26 0.332365 0.604924 0.759419
811 26 0.33412 0.577945 0.458447
213 32 0.357982 0.616177 0.685366
249 34 0.362868 0.584248 0.427253
959 27 0.415087 0.59891 0.442051
997 34 0.386818 0.608467 0.459746
221 23 0.443695 0.593497 0.522157
615 28 0.457812 0.624396 0.691876
402 37 0.476771 0.595407 0.432969
262 32 0.508984 0.592128 0.566046
591 26 0.516186 0.620827 0.459428
672 31 0.540465 0.596137 0.416858
521 32 0.58311 0.618729 0.468988
810 31 0.611533 0.60755 0.475101
1000 35 0.626314 0.636339 0.405187
751 24 0.629398 0.575577 0.582275
43 35 0.650829 0.607361 0.519676
290 31 0.7117 0.589393 0.561787
441 30 0.681957 0.60164 0.5219
324 38 0.709188 0.621248 0.396277
876 31 0.742264 0.603672 0.496619
602 25 0.77059 0.613559 0.476978
411 31 0.793202 0.597948 0.463906
35 37 0.827689 0.605736 0.517048
137 33 0.804993 0.628765 0.389912
507 29 0.861734 0.611461 0.494229
658 35 0.891673 0.607449 0.472164
379 27 0.920883 0.59842 0.411814
22 34 0.949875 0.602602 0.574245
91 25 0.982111 0.576111 0.543401
703 30 0.98007 0.620098 0.492296
755 25 0.0267846 0.646574 0.416349
330 27 0.0468334 0.671516 0.46249
535 25 0.000122867 0.680898 0.634606
579 28 0.102454 0.634104 0.49681
86 30 0.055335 0.64513 0.578819
244 29 0.0851877 0.65588 0.415362
824 31 0.085234 0.686772 0.527816
491 30 0.145071 0.660277 0.425258
136 37 0.116573 0.67786 0.51705
559 33 0.179314 0.664299 0.514886
301 36 0.214449 0.652686 0.482904
781 29 0.243986 0.643885 0.521763
13 31 0.237981 0.674832 0.645386
715 23 0.268145 0.631077 0.542979
798 34 0.300639 0.634771 0.631379
129 36 0.273669 0.663878 0.639335
453 25 0.318515 0.659211 0.506078
546 32 0.333097 0.633637 0.457139
536 28 0.349626 0.658646 0.444914
182 33 0.410937 0.628468 0.468629
310 33 0.377372 0.641821 0.587821
236 41 0.394879 0.669651 0.549836
669 40 0.434493 0.650664 0.521136
537 27 0.458735 0.674103 0.418952
838 23 0.48127 0.656483 0.427806
69 35 0.487152 0.626685 0.575131
834 31 0.509699 0.65352 0.498056
128 31 0.548713 0.627247 0.437918
277 26 0.572297 0.647067 0.424543
530 29 0.536123 0.666127 0.434937
424 23 0.561961 0.670578 0.350535
178 23 0.600572 0.648825 0.583035
16 32 0.613199 0.672955 0.573448
50 32 0.655691 0.65009 0.570915
784 28 0.682668 0.636618 0.533592
532 28 0.698072 0.660518 0.587892
550 25 0.730196 0.650084 0.506245
877 29 0.726622 0.680946 0.47096
120 30 0.75147 0.632829 0.411696
82 33 0.779148 0.645195 0.437691
677 38 0.75498 0.666233 0.49797
432 29 0.794447 0.670029 0.509316
515 29 0.826442 0.658728 0.440553
372 27 0.841469 0.634978 0.480538
603 29 0.849494 0.675936 0.574168
786 38 0.873666 0.640164 0.49388
396 31 0.882073 0.672294 0.573617
360 18 0.916204 0.626606 0.518536
417 25 0.934259 0.64586 0.501712
644 30 0.911305 0.660632 0.495783
675 27 0.942053 0.671247 0.539793
868 38 0.995909 0.647974 0.485787
915 27 0.963866 0.647079 0.438545
660 28 0.972244 0.675019 0.529167
606 34 0.0274347 0.692728 0.668846
650 29 0.020723 0.725712 0.498728
289 22 0.00278979 0.70695 0.535608
158 35 0.0515145 0.728335 0.591576
821 26 0.0589188 0.695484 0.405834
440 39 0.0972956 0.717352 0.491544
923 33 0.129484 0.722506 0.437978
150 38 0.15111 0.695288 0.54043
884 36 0.190126 0.708333 0.471471
461 32 0.162473 0.728996 0.456806
135 29 0.207075 0.682524 0.638634
81 27 0.258505 0.693966 0.428087
797 31 0.235616 0.711978 0.477628
649 35 0.21063 0.73504 0.546223
435 23 0.282888 0.705771 0.507555
152 34 0.299363 0.681345 0.462688
816 32 0.30854 0.715369 0.46575
693 29 0.268541 0.728628 0.210528
711 34 0.36551 0.685105 0.56976
827 40 0.333453 0.691691 0.463424
79 37 0.357236 0.719285 0.508179
679 42 0.392449 0.707514 0.495199
914 25 0.420044 0.722572 0.461627
795 35 0.42775 0.687956 0.456363
756 28 0.445119 0.712358 0.537769
823 28 0.480729 0.692798 0.570981
958 23 0.469743 0.72504 0.502511
394 29 0.511737 0.686208 0.507877
76 26 0.512721 0.722449 0.385068
49 27 0.534727 0.70637 0.47446
127 23 0.560894 0.701834 0.609784
421 34 0.586831 0.688064 0.463449
863 26 0.586359 0.728966 0.469604
567 29 0.618136 0.720808 0.423135
322 23 0.628939 0.696368 0.401189
464 30 0.669401 0.680456 0.560822
233 27 0.653486 0.703519 0.619164
539 31 0.682747 0.718124 0.620842
161 27 0.696895 0.694129 0.513641
47 31 0.719782 0.711723 0.54904
306 27 0.746972 0.700835 0.53512
481 30 0.751628 0.729706 0.630165
217 32 0.776794 0.695335 0.406403
151 37 0.82105 0.689804 0.607532
670 34 0.798856 0.722068 0.446738
68 31 0.840325 0.715752 0.421263
318 35 0.86902 0.69987 0.513708
617 33 0.90801 0.694591 0.347971
963 27 0.907319 0.727306 0.464576
872 39 0.938259 0.710102 0.505652
581 23 0.951591 0.73756 0.401334
376 40 0.973634 0.708504 0.590111
147 30 0.991877 0.738409 0.541187
765 24 0.0272902 0.752562 0.492938
157 32 0.026841 0.786816 0.527181
590 25 0.0551328 0.78427 0.444303
777 27 0.0666215 0.760135 0.613681
719 23 0.0821193 0.781652 0.606408
448 32 0.0939338 0.751548 0.440667
800 23 0.130983 0.749874 0.569358
822 35 0.124254 0.787133 0.533808
548 36 0.154214 0.76865 0.548918
819 30 0.180759 0.752802 0.51923
480 26 0.205116 0.76492 0.587001
437 32 0.1819 0.786599 0.460416
514 25 0.242494 0.739152 0.530488
575 32 0.235964 0.767704 0.449309
612 27 0.264114 0.759365 0.543067
686 30 0.293522 0.74927 0.421795
627 33 0.298243 0.778914 0.491376
269 32 0.335135 0.771317 0.55226
655 29 0.328938 0.738904 0.590327
599 33 0.364673 0.75187 0.535284
196 31 0.394137 0.743793 0.658235
977 35 0.408481 0.778211 0.48938
582 28 0.373862 0.779138 0.592077
664 32 0.461726 0.751156 0.47009
327 31 0.428853 0.74896 0.396588
522 35 0.43996 0.777401 0.479171
243 33 0.494588 0.749622 0.457461
201 34 0.476216 0.778906 0.572688
975 27 0.513558 0.773328 0.485581
761 29 0.527431 0.746844 0.580871
159 34 0.55773 0.729281 0.507509
285 30 0.541075 0.772694 0.510598
878 32 0.578474 0.758602 0.480166
263 29 0.608608 0.749656 0.48981
436 31 0.609366 0.790247 0.424952
600 35 0.635935 0.766257 0.505743
24 29 0.651643 0.731024 0.382857
839 27 0.665129 0.759944 0.487001
395 28 0.656112 0.790838 0.396679
829 25 0.726475 0.738586 0.368432
366 29 0.695986 0.74801 0.580946
619 32 0.719774 0.770716 0.436767
952 34 0.688465 0.785489 0.659517
648 25 0.781588 0.744938 0.4438
5 33 0.748448 0.759107 0.49967
268 43 0.774361 0.779977 0.591951
54 29 0.844311 0.746241 0.42375
85 23 0.805796 0.753329 0.526404
489 22 0.803488 0.788931 0.508844
463 26 0.827816 0.776222 0.547609
578 29 0.871949 0.731372 0.44183
587 36 0.862662 0.770027 0.481491
682 36 0.894262 0.758089 0.422055
153 37 0.930645 0.76076 0.510937
171 34 0.909042 0.786662 0.508776
828 29 0.941481 0.791416 0.593733
589 24 0.997275 0.76515 0.401657
853 20 0.967605 0.760019 0.508908
166 30 0.00632403 0.811244 0.587615
468 27 0.0195615 0.836246 0.414328
705 29 0.0398099 0.812578 0.449142
662 32 0.073315 0.809587 0.45279
900 25 0.0732554 0.845312 0.410172
75 21 0.0992392 0.802103 0.525373
757 38 0.100409 0.831537 0.487489
886 28 0.152648 0.800982 0.364422
245 22 0.130286 0.818507 0.522131
557 37 0.167077 0.831499 0.538309
552 30 0.204141 0.815068 0.449248
479 21 0.213695 0.790486 0.618118
119 29 0.234116 0.814967 0.647942
870 30 0.259327 0.788269 0.552128
172 21 0.223936 0.83882 0.446309
597 24 0.281088 0.809172 0.663748
430 33 0.293074 0.843507 0.550211
87 28 0.265241 0.829785 0.594182
23 28 0.347954 0.799846 0.435249
410 40 0.315739 0.809344 0.470475
921 37 0.362602 0.828298 0.463629
918 39 0.396754 0.809874 0.246869
189 13 0.372743 0.805173 0.606248
496 30 0.419845 0.836078 0.658353
609 30 0.431136 0.807567 0.464789
625 32 0.461244 0.816385 0.512971
472 27 0.494068 0.806461 0.489096
198 35 0.516062 0.828204 0.520467
412 29 0.542092 0.805913 0.548871
862 25 0.551506 0.835375 0.349353
26 39 0.571276 0.791095 0.492402
130 28 0.580803 0.823799 0.50792
501 34 0.608233 0.837186 0.373399
200 34 0.630585 0.813165 0.598691
84 27 0.669004 0.815361 0.388368
684 25 0.649183 0.834805 0.410428
419 33 0.715272 0.801351 0.499923
97 23 0.703056 0.827864 0.470052
229 32 0.744083 0.793356 0.485129
692 28 0.736622 0.822067 0.499738
520 31 0.770594 0.815933 0.551055
154 28 0.825775 0.817659 0.489135
754 31 0.798131 0.825253 0.441271
621 27 0.845602 0.796131 0.48204
916 25 0.875858 0.796946 0.488629
860 30 0.853856 0.827757 0.460918
346 29 0.887816 0.841968 0.455425
101 27 0.901071 0.8166 0.662757
271 30 0.922391 0.838551 0.57048
482 29 0.983069 0.794565 0.502934
351 31 0.946414 0.821752 0.427028
767 39 0.977339 0.825811 0.567379
382 37 0.0145342 0.866058 0.427985
792 31 0.0462209 0.849777 0.37053
562 37 0.0532408 0.879838 0.411544
406 30 0.0843312 0.880115 0.51819
509 27 0.139852 0.852124 0.526193
527 28 0.113529 0.861951 0.436695
239 35 0.116641 0.896374 0.454393
369 35 0.173458 0.87892 0.564952
891 33 0.193577 0.853809 0.560404
456 31 0.208625 0.883996 0.488896
725 38 0.243725 0.86096 0.588543
934 25 0.274909 0.867646 0.579475
362 32 0.289358 0.895142 0.52802
982 32 0.307814 0.869879 0.437399
70 28 0.36601 0.859032 0.519034
404 31 0.323167 0.845061 0.471543
467 31 0.33989 0.87243 0.451334
869 32 0.395067 0.873569 0.519186
549 30 0.390673 0.842925 0.573063
996 26 0.366656 0.885931 0.681274
65 31 0.446637 0.843528 0.373904
250 30 0.429762 0.867269 0.343407
759 36 0.45786 0.87905 0.522741
919 24 0.473336 0.849356 0.525233
317 37 0.489967 0.875447 0.589799
323 30 0.517029 0.860121 0.619689
106 20 0.543177 0.858279 0.440067
270 31 0.563011 0.876452 0.483584
186 31 0.533762 0.88472 0.562058
796 26 0.588977 0.887226 0.581042
782 28 0.589285 0.859601 0.534352
452 33 0.617151 0.878707 0.567333
892 23 0.631739 0.854697 0.520684
685 30 0.671296 0.853599 0.656349
968 37 0.656091 0.888682 0.512563
998 31 0.723897 0.852949 0.688718
961 30 0.69708 0.86459 0.4234
499 19 0.721356 0.883376 0.606463
696 27 0.744582 0.873987 0.427834
726 29 0.751604 0.846555 0.436884
694 31 0.775677 0.882463 0.43455
358 28 0.788274 0.856084 0.432571
368 33 0.830228 0.848187 0.459805
954 24 0.803353 0.877995 0.544651
628 31 0.840623 0.880305 0.44306
176 33 0.863211 0.858662 0.434963
215 28 0.865419 0.89361 0.563437
429 27 0.890896 0.873148 0.431185
105 31 0.923201 0.869544 0.60393
454 32 0.952094 0.851722 0.464626
459 36 0.981582 0.863472 0.422372
665 41 0.954852 0.888537 0.592794
385 32 0.0272474 0.900536 0.464385
942 26 0.0332632 0.933444 0.276126
375 30 0.0580285 0.9126 0.40181
238 25 0.0705864 0.936929 0.525085
2 28 0.0872487 0.909757 0.432113
1 26 0.111292 0.924553 0.504883
802 35 0.139494 0.932544 0.539413
255 29 0.149938 0.900018 0.482522
447 36 0.185307 0.913406 0.420688
169 21 0.212865 0.925346 0.510512
230 31 0.240087 0.933665 0.628247
204 34 0.239393 0.89847 0.437497
502 25 0.261653 0.91776 0.453484
681 24 0.266936 0.944572 0.483085
256 33 0.288785 0.926206 0.403779
478 29 0.322688 0.905398 0.477667
15 33 0.334503 0.93372 0.568382
732 28 0.361118 0.91462 0.5996
48 25 0.418898 0.892825 0.448211
444 33 0.392159 0.905675 0.499321
57 32 0.38044 0.941019 0.551411
808 26 0.417331 0.929258 0.509485
267 27 0.443343 0.907208 0.569084
3 33 0.450487 0.938235 0.508667
742 31 0.471461 0.907213 0.399548
486 37 0.50582 0.907524 0.510928
656 21 0.510841 0.9395 0.499831
948 36 0.482355 0.936709 0.511696
206 32 0.538092 0.926159 0.424659
224 30 0.569651 0.906238 0.473776
55 28 0.616726 0.93402 0.411023
519 24 0.60747 0.905846 0.632091
316 38 0.579406 0.940625 0.591645
699 23 0.636383 0.910042 0.45431
168 36 0.674672 0.92215 0.532265
89 30 0.646254 0.937049 0.498757
534 33 0.688733 0.893448 0.496511
883 35 0.712642 0.91313 0.495209
986 28 0.705451 0.941858 0.594025
666 32 0.741337 0.902215 0.53001
356 25 0.770286 0.910368 0.515346
258 38 0.740767 0.934109 0.438438
909 28 0.775221 0.939718 0.524163
288 35 0.831416 0.916864 0.551642
100 33 0.799821 0.906856 0.560279
817 35 0.805377 0.940659 0.405251
425 32 0.863784 0.923803 0.59161
698 21 0.889668 0.931274 0.5443
752 26 0.893735 0.901638 0.51215
749 28 0.923696 0.898713 0.482641
843 34 0.928922 0.933337 0.582407
979 35 1.00144 0.926525 0.542762
836 29 0.98945 0.892597 0.460499
859 39 0.961063 0.922475 0.532456
944 29 0.0182477 0.995194 0.490719
770 41 0.0146328 0.958963 0.49097
640 37 0.0536763 0.962155 0.557451
113 35 0.0968095 0.950905 0.521234
264 31 0.0777582 0.989698 0.460636
96 30 0.105779 0.981913 0.515279
630 32 0.135897 0.984763 0.346641
223 19 0.128959 0.960135 0.549243
897 31 0.188011 0.949753 0.4739
790 32 0.160093 0.96283 0.384271
572 34 0.166302 0.993569 0.484936
125 30 0.196778 0.979108 0.550599
140 30 0.219098 0.996852 0.436178
771 26 0.263083 0.970837 0.561661
564 27 0.236558 0.967525 0.461659
971 20 0.245116 0.993426 0.43974
985 25 0.30886 0.947288 0.532235
473 31 0.29131 0.970107 0.371606
920 29 0.310612 0.995315 0.556506
976 23 0.328065 0.967842 0.484001
814 31 0.362222 0.965731 0.520027
25 33 0.368899 0.997904 0.450413
237 35 0.395707 0.967536 0.521079
773 21 0.42664 0.996297 0.355574
844 33 0.425491 0.958349 0.546292
945 34 0.454883 0.969621 0.470171
993 30 0.480887 0.991178 0.516484
676 31 0.503269 0.965684 0.465728
831 29 0.54751 0.954356 0.461881
707 45 0.536487 0.988372 0.40666
474 28 0.568027 0.974888 0.441982
338 29 0.628526 0.958998 0.495001
121 32 0.600679 0.969913 0.516093
228 27 0.669594 0.953247 0.621398
931 30 0.651813 0.977378 0.485336
278 33 0.691851 0.971313 0.523529
98 35 0.732237 0.967838 0.537786
772 32 0.744455 0.998462 0.453282
88 41 0.783139 0.997976 0.500194
187 33 0.765127 0.969711 0.519432
624 24 0.796107 0.968836 0.476294
864 25 0.824252 0.989247 0.522501
293 35 0.829536 0.960992 0.545299
248 26 0.870321 0.956259 0.381164
37 29 0.894997 0.984253 0.499515
495 33 0.901565 0.95562 0.504255
44 33 0.928452 0.973203 0.480174
350 16 0.948557 0.956214 0.476763
170 33 0.958524 0.987726 0.524371
912 38 0.980286 0.951295 0.572664
439 28 0.991711 0.983142 0.568519
