ITEM: TIMESTEP
1250000
ITEM: NUMBER OF ATOMS
1000
ITEM: BOX BOUNDS pp pp pp
-1.5987059000000000e+01 1.5987059000000000e+01
-1.5987059000000000e+01 1.5987059000000000e+01
-5.0000000000000000e-01 5.0000000000000000e-01
ITEM: ATOMS id type xs ys zs
379 26 0.0220294 0.0200084 0.5
272 37 0.0543816 0.00946407 0.5
210 27 0.0427305 0.0422258 0.5
242 36 0.00811263 0.049639 0.5
170 33 0.0749593 0.0401227 0.5
648 24 0.0890822 0.0127592 0.5
964 33 0.109868 0.0368637 0.5
487 30 0.140217 0.0222195 0.5
193 28 0.171999 0.0143377 0.5
66 32 0.154782 0.0514991 0.5
245 21 0.125466 0.0626231 0.5
298 39 0.190563 0.0433376 0.5
694 31 0.206754 0.00976213 0.5
511 38 0.227902 0.0377871 0.5
442 35 0.263411 0.0304327 0.5
279 32 0.287994 0.0555911 0.5
260 28 0.256219 0.0630609 0.5
18 42 0.298581 0.019129 0.5
61 32 0.335265 0.011583 0.5
389 40 0.323461 0.04691 0.5
953 29 0.358145 0.0365663 0.5
203 40 0.392678 0.028256 0.5
991 33 0.412019 0.0595831 0.5
325 32 0.377486 0.0636773 0.5
559 33 0.429054 0.0225531 0.5
769 28 0.47171 0.0436391 0.5
699 23 0.460233 0.0172867 0.5
996 26 0.442634 0.0534439 0.5
798 35 0.501787 0.0293548 0.5
715 22 0.532855 0.0294168 0.5
413 26 0.560111 0.0366508 0.5
609 30 0.582358 0.0157954 0.5
649 36 0.533376 0.0622151 0.5
934 24 0.566264 0.0639701 0.5
445 36 0.593588 0.0492854 0.5
301 37 0.630697 0.0425794 0.5
499 17 0.610268 0.0217709 0.5
704 35 0.663875 0.0303654 0.5
211 18 0.697342 0.0310813 0.5
568 31 0.685762 0.0566593 0.5
138 31 0.722243 0.0161495 0.5
994 28 0.719884 0.0469392 0.5
986 28 0.749124 0.0352596 0.5
63 28 0.77821 0.0202409 0.5
356 24 0.805451 0.0344927 0.5
745 35 0.777978 0.0539856 0.5
940 27 0.834258 0.0231261 0.5
397 33 0.861978 0.0394025 0.5
317 37 0.830042 0.0557914 0.5
589 23 0.890846 0.0259535 0.5
998 31 0.92151 0.0128937 0.5
663 33 0.917843 0.0444726 0.5
164 34 0.888519 0.060968 0.5
849 36 0.951279 0.0378283 0.5
115 22 0.982261 0.0259048 0.5
377 27 0.975959 0.0589372 0.5
920 28 0.0301871 0.0754036 0.5
939 38 0.0542666 0.101003 0.5
80 29 0.0211872 0.107832 0.5
596 27 0.0601173 0.068904 0.5
249 34 0.0934347 0.0687282 0.5
766 28 0.0874113 0.102254 0.5
851 31 0.118853 0.0925862 0.5
673 27 0.147433 0.0837067 0.5
705 29 0.145385 0.116275 0.5
28 27 0.177516 0.11366 0.5
216 42 0.181248 0.0786923 0.5
823 28 0.215926 0.0700175 0.5
448 33 0.20797 0.104595 0.5
239 36 0.242388 0.0932106 0.5
927 32 0.277086 0.0877399 0.5
280 38 0.265887 0.121407 0.5
168 37 0.313131 0.0817587 0.5
167 27 0.346181 0.0732754 0.5
169 20 0.331791 0.108143 0.5
71 34 0.301095 0.113509 0.5
577 37 0.362315 0.100338 0.5
847 38 0.398706 0.0938382 0.5
181 32 0.433927 0.0857061 0.5
409 30 0.464531 0.075598 0.5
841 31 0.45666 0.110069 0.5
646 27 0.4256 0.117204 0.5
671 25 0.487704 0.101787 0.5
701 38 0.497566 0.0669013 0.5
492 40 0.520538 0.0968269 0.5
536 27 0.554274 0.090378 0.5
104 25 0.58726 0.0832551 0.5
871 28 0.577044 0.113018 0.5
358 28 0.545296 0.120074 0.5
372 26 0.618588 0.0729199 0.5
425 32 0.643973 0.0947924 0.5
788 34 0.609956 0.105085 0.5
580 27 0.655086 0.0647292 0.5
305 29 0.67692 0.0882271 0.5
178 22 0.667907 0.116653 0.5
749 28 0.696685 0.11331 0.5
208 32 0.710079 0.0785934 0.5
737 34 0.744133 0.0688167 0.5
677 39 0.73128 0.106823 0.5
797 31 0.766906 0.0936536 0.5
832 42 0.800709 0.0821178 0.5
963 26 0.789731 0.114435 0.5
779 38 0.822715 0.121757 0.5
106 19 0.832793 0.0909788 0.5
456 31 0.85933 0.0777572 0.5
569 33 0.856881 0.111028 0.5
393 39 0.890367 0.0979161 0.5
806 27 0.915968 0.07631 0.5
733 38 0.929512 0.107694 0.5
644 30 0.946334 0.0731869 0.5
155 30 0.997606 0.083664 0.5
976 22 0.968462 0.0946134 0.5
855 31 0.990985 0.116369 0.5
938 22 0.042247 0.130489 0.5
751 24 0.0144318 0.13838 0.5
614 29 0.0419109 0.159893 0.5
672 31 0.0108563 0.169551 0.5
488 25 0.072462 0.165552 0.5
923 34 0.075596 0.132953 0.5
369 35 0.110172 0.125852 0.5
770 42 0.106684 0.164786 0.5
886 28 0.136634 0.146332 0.5
736 25 0.165876 0.141103 0.5
130 28 0.156109 0.171436 0.5
427 31 0.187321 0.165002 0.5
124 27 0.198891 0.136426 0.5
837 33 0.229854 0.132303 0.5
517 37 0.222291 0.166386 0.5
608 29 0.255554 0.153896 0.5
809 27 0.29219 0.145595 0.5
856 27 0.280607 0.174422 0.5
385 32 0.324975 0.13921 0.5
756 28 0.347544 0.163435 0.5
429 27 0.313981 0.168646 0.5
274 27 0.356932 0.134533 0.5
621 27 0.387824 0.125884 0.5
263 29 0.379534 0.157934 0.5
400 35 0.412538 0.149341 0.5
651 24 0.404019 0.180937 0.5
753 32 0.447848 0.142783 0.5
949 34 0.436334 0.17484 0.5
430 33 0.480621 0.133852 0.5
144 34 0.473923 0.170482 0.5
493 24 0.5115 0.128477 0.5
114 25 0.50305 0.156267 0.5
174 31 0.534354 0.150381 0.5
761 29 0.56701 0.143119 0.5
957 36 0.55931 0.175344 0.5
452 33 0.599831 0.138354 0.5
637 28 0.593029 0.170507 0.5
795 36 0.627794 0.15969 0.5
845 27 0.634703 0.127032 0.5
912 39 0.662462 0.148504 0.5
408 27 0.696696 0.145064 0.5
44 33 0.684048 0.176391 0.5
742 31 0.72946 0.14233 0.5
27 33 0.759815 0.127921 0.5
540 35 0.756056 0.164953 0.5
265 42 0.721642 0.180235 0.5
874 38 0.789119 0.147693 0.5
312 39 0.823896 0.159062 0.5
676 31 0.786011 0.182022 0.5
857 40 0.858999 0.144797 0.5
382 38 0.886133 0.174491 0.5
571 44 0.89822 0.135856 0.5
653 24 0.933145 0.140087 0.5
611 37 0.922149 0.171073 0.5
346 29 0.954898 0.162433 0.5
933 29 0.960511 0.126554 0.5
310 33 0.98461 0.149179 0.5
881 26 0.0344617 0.189348 0.5
2 28 0.0439168 0.218568 0.5
252 36 0.00756965 0.20825 0.5
983 32 0.0666562 0.195791 0.5
367 27 0.0982276 0.200521 0.5
199 37 0.0776422 0.228725 0.5
428 28 0.114159 0.22572 0.5
202 39 0.131097 0.19508 0.5
936 24 0.164601 0.200445 0.5
120 30 0.147856 0.226012 0.5
87 28 0.180092 0.226506 0.5
171 34 0.196594 0.196338 0.5
995 25 0.227349 0.199131 0.5
848 28 0.212754 0.226785 0.5
597 24 0.251014 0.183573 0.5
376 41 0.248161 0.226294 0.5
403 25 0.27247 0.203924 0.5
458 37 0.28595 0.233857 0.5
162 32 0.302794 0.199783 0.5
54 29 0.334861 0.192091 0.5
140 30 0.319503 0.22875 0.5
728 34 0.354039 0.219662 0.5
935 25 0.366578 0.186334 0.5
785 33 0.387275 0.209233 0.5
802 35 0.423844 0.207498 0.5
464 30 0.457228 0.202408 0.5
914 25 0.44453 0.233208 0.5
476 21 0.472367 0.2269 0.5
368 33 0.491672 0.202871 0.5
90 40 0.522602 0.183988 0.5
944 29 0.522476 0.218364 0.5
434 24 0.551408 0.209571 0.5
950 32 0.58308 0.201352 0.5
424 22 0.542397 0.240395 0.5
508 27 0.573976 0.23221 0.5
485 35 0.618052 0.193436 0.5
103 33 0.644221 0.217239 0.5
603 29 0.606812 0.224164 0.5
799 27 0.651478 0.18323 0.5
402 38 0.679731 0.210997 0.5
91 24 0.66315 0.24174 0.5
988 18 0.690583 0.238671 0.5
679 43 0.719567 0.220776 0.5
136 38 0.755448 0.202838 0.5
277 26 0.746107 0.24641 0.5
360 16 0.788916 0.210172 0.5
307 33 0.815538 0.197216 0.5
521 32 0.775739 0.234913 0.5
416 34 0.810038 0.230143 0.5
859 40 0.850801 0.185624 0.5
661 30 0.876457 0.209162 0.5
615 28 0.842661 0.219432 0.5
365 27 0.909654 0.201839 0.5
353 29 0.930235 0.224866 0.5
803 31 0.89928 0.233428 0.5
901 37 0.948247 0.197282 0.5
762 33 0.980482 0.183402 0.5
574 21 0.975735 0.213184 0.5
544 28 0.958339 0.236357 0.5
244 29 0.989344 0.239407 0.5
662 32 0.0204271 0.241595 0.5
548 37 0.0358122 0.273194 0.5
729 22 0.0512651 0.246779 0.5
313 33 0.0715664 0.27068 0.5
233 27 0.0995374 0.254073 0.5
259 19 0.115721 0.27883 0.5
345 32 0.1314 0.255087 0.5
628 31 0.164989 0.255359 0.5
405 28 0.147374 0.283144 0.5
706 32 0.179858 0.285334 0.5
132 31 0.197792 0.25649 0.5
902 30 0.23155 0.259059 0.5
555 30 0.214104 0.287698 0.5
564 26 0.2612 0.258812 0.5
273 28 0.284026 0.278196 0.5
293 36 0.250952 0.291656 0.5
96 30 0.309985 0.2593 0.5
888 28 0.332742 0.281497 0.5
834 31 0.343187 0.251642 0.5
361 33 0.364598 0.277719 0.5
740 34 0.377241 0.245112 0.5
73 31 0.397945 0.272166 0.5
977 36 0.41143 0.239765 0.5
607 38 0.434305 0.266861 0.5
645 33 0.467912 0.257866 0.5
457 38 0.499903 0.243872 0.5
734 32 0.495303 0.279541 0.5
440 40 0.52847 0.270133 0.5
497 32 0.563606 0.262855 0.5
72 25 0.583773 0.285334 0.5
581 23 0.554083 0.294168 0.5
666 33 0.596164 0.255001 0.5
121 32 0.630091 0.248 0.5
744 33 0.649434 0.276519 0.5
566 31 0.616195 0.281152 0.5
225 35 0.682379 0.268338 0.5
383 36 0.706704 0.293621 0.5
329 34 0.717358 0.257724 0.5
251 32 0.740696 0.283352 0.5
217 32 0.76992 0.26829 0.5
443 28 0.802652 0.262412 0.5
12 35 0.793488 0.295218 0.5
264 31 0.835202 0.253547 0.5
156 24 0.826337 0.286618 0.5
141 33 0.866873 0.240831 0.5
363 25 0.856108 0.276866 0.5
530 29 0.877648 0.300106 0.5
557 38 0.889675 0.267507 0.5
283 37 0.925451 0.259568 0.5
652 42 0.914941 0.297781 0.5
723 28 0.949249 0.284361 0.5
618 36 0.999355 0.272443 0.5
97 22 0.968344 0.262384 0.5
776 31 0.97856 0.300017 0.5
698 20 0.0381194 0.329746 0.5
85 22 0.0488024 0.303405 0.5
545 39 0.0169904 0.305383 0.5
41 31 0.0102763 0.342955 0.5
973 21 0.0506717 0.354811 0.5
288 36 0.0690819 0.327605 0.5
929 34 0.0886043 0.298821 0.5
951 29 0.10247 0.335115 0.5
917 39 0.124604 0.309803 0.5
787 26 0.132657 0.343288 0.5
26 40 0.161036 0.315699 0.5
720 28 0.163042 0.349023 0.5
967 24 0.196344 0.312135 0.5
815 30 0.226662 0.316781 0.5
687 33 0.194783 0.347403 0.5
750 33 0.228747 0.350461 0.5
532 28 0.280444 0.309871 0.5
783 26 0.255795 0.328033 0.5
303 28 0.283339 0.342738 0.5
636 22 0.258488 0.358162 0.5
331 26 0.308383 0.298908 0.5
36 37 0.316714 0.331213 0.5
201 34 0.34639 0.311453 0.5
966 24 0.337966 0.356779 0.5
875 34 0.366189 0.341927 0.5
357 37 0.381107 0.3091 0.5
491 29 0.401828 0.336621 0.5
707 46 0.419992 0.302768 0.5
893 30 0.443286 0.333374 0.5
175 44 0.460507 0.297839 0.5
105 31 0.476541 0.336697 0.5
348 27 0.494278 0.310036 0.5
333 30 0.50925 0.336343 0.5
21 31 0.525808 0.307855 0.5
593 24 0.539581 0.336333 0.5
4 33 0.567282 0.32318 0.5
500 42 0.601952 0.314624 0.5
421 34 0.638286 0.309427 0.5
531 26 0.627806 0.340162 0.5
730 32 0.598271 0.350021 0.5
426 22 0.660912 0.334102 0.5
658 36 0.671534 0.303667 0.5
887 33 0.696647 0.327737 0.5
70 27 0.683092 0.356838 0.5
176 33 0.731579 0.316958 0.5
529 28 0.762683 0.306857 0.5
166 30 0.757038 0.339849 0.5
267 26 0.723123 0.348068 0.5
17 27 0.785191 0.328206 0.5
100 33 0.818318 0.319965 0.5
478 29 0.806657 0.351145 0.5
519 23 0.84741 0.306078 0.5
471 24 0.865969 0.328074 0.5
553 32 0.839017 0.347122 0.5
165 22 0.895085 0.323713 0.5
829 24 0.916774 0.34148 0.5
375 30 0.887155 0.350928 0.5
177 24 0.941446 0.35796 0.5
326 44 0.946322 0.321414 0.5
6 13 0.991363 0.324677 0.5
879 34 0.973831 0.346226 0.5
196 31 0.026872 0.371072 0.5
686 30 0.0590458 0.38465 0.5
764 37 0.0337259 0.406572 0.5
716 30 0.0809041 0.360129 0.5
781 29 0.0903976 0.391918 0.5
84 27 0.112666 0.365193 0.5
512 31 0.0692182 0.41741 0.5
336 36 0.122744 0.398455 0.5
792 31 0.143825 0.372209 0.5
897 31 0.176593 0.377907 0.5
812 27 0.156072 0.401712 0.5
111 28 0.208521 0.378069 0.5
542 32 0.188136 0.4098 0.5
407 26 0.220204 0.40656 0.5
179 31 0.240164 0.383071 0.5
882 36 0.274258 0.385312 0.5
51 31 0.251852 0.413472 0.5
794 31 0.306391 0.365026 0.5
668 22 0.305562 0.394619 0.5
885 24 0.332384 0.385357 0.5
616 29 0.323418 0.41793 0.5
556 29 0.361423 0.37524 0.5
232 27 0.391266 0.366402 0.5
228 27 0.386258 0.397863 0.5
928 33 0.354816 0.407851 0.5
77 19 0.411491 0.386731 0.5
275 32 0.425234 0.360758 0.5
664 32 0.441644 0.391803 0.5
549 30 0.460492 0.365682 0.5
504 40 0.478396 0.398155 0.5
674 27 0.491654 0.365389 0.5
296 30 0.514521 0.397392 0.5
587 36 0.525232 0.36537 0.5
864 24 0.545938 0.393279 0.5
665 42 0.563007 0.362204 0.5
446 28 0.574875 0.405016 0.5
94 24 0.59158 0.379975 0.5
112 25 0.620698 0.372733 0.5
206 32 0.642765 0.39964 0.5
431 31 0.611293 0.403235 0.5
278 33 0.651178 0.364789 0.5
727 36 0.67533 0.390662 0.5
9 27 0.702512 0.409072 0.5
952 34 0.70958 0.377682 0.5
821 26 0.744462 0.369186 0.5
309 34 0.734825 0.401148 0.5
590 24 0.765573 0.392881 0.5
980 28 0.777272 0.363912 0.5
578 29 0.795095 0.38971 0.5
625 32 0.819411 0.413448 0.5
805 27 0.785988 0.418519 0.5
606 34 0.826764 0.378366 0.5
418 34 0.862487 0.371973 0.5
999 37 0.852931 0.406692 0.5
974 25 0.885839 0.394058 0.5
364 33 0.911426 0.374464 0.5
438 27 0.939328 0.391255 0.5
911 29 0.912682 0.407904 0.5
188 31 0.994149 0.374114 0.5
971 19 0.962789 0.373043 0.5
191 37 0.971518 0.402713 0.5
480 25 1.00247 0.413414 0.5
959 27 0.0161033 0.439192 0.5
862 24 0.0455077 0.437982 0.5
807 22 0.00491561 0.465379 0.5
962 48 0.0387793 0.473824 0.5
777 26 0.100482 0.425085 0.5
190 40 0.077448 0.451506 0.5
60 26 0.113086 0.454966 0.5
154 28 0.132547 0.431106 0.5
972 29 0.164704 0.433172 0.5
631 30 0.145387 0.458985 0.5
925 22 0.174629 0.461657 0.5
524 34 0.199199 0.442571 0.5
8 25 0.229097 0.436387 0.5
833 33 0.223343 0.468248 0.5
475 26 0.257651 0.445593 0.5
586 43 0.287281 0.423767 0.5
693 28 0.285604 0.459394 0.5
709 30 0.315745 0.448346 0.5
690 26 0.348282 0.439042 0.5
786 39 0.342748 0.472178 0.5
563 36 0.381647 0.432082 0.5
11 38 0.411347 0.456788 0.5
412 29 0.376965 0.465099 0.5
384 43 0.417508 0.419138 0.5
765 23 0.451126 0.422016 0.5
958 22 0.446336 0.449434 0.5
128 31 0.468376 0.473485 0.5
306 27 0.473617 0.441596 0.5
692 28 0.49984 0.424882 0.5
626 35 0.53389 0.425057 0.5
347 45 0.505478 0.460491 0.5
349 41 0.546393 0.46114 0.5
560 28 0.567149 0.434333 0.5
406 30 0.58484 0.463035 0.5
133 32 0.599569 0.433713 0.5
101 27 0.631298 0.430025 0.5
910 30 0.649948 0.45586 0.5
771 25 0.618895 0.457803 0.5
47 31 0.664175 0.425531 0.5
892 22 0.692117 0.435466 0.5
289 22 0.681187 0.460721 0.5
688 26 0.711045 0.458144 0.5
866 28 0.723736 0.431997 0.5
381 32 0.744046 0.455331 0.5
23 27 0.755465 0.42522 0.5
981 29 0.776285 0.448068 0.5
39 26 0.806273 0.442034 0.5
318 36 0.798259 0.474553 0.5
778 24 0.829481 0.461789 0.5
282 27 0.852268 0.441617 0.5
632 30 0.882687 0.425718 0.5
575 33 0.881849 0.458967 0.5
343 34 0.911899 0.442022 0.5
533 35 0.942918 0.423788 0.5
585 32 0.910868 0.476359 0.5
822 35 0.944527 0.458408 0.5
960 41 0.979577 0.439577 0.5
601 31 0.0341657 0.513777 0.5
135 29 0.00566453 0.495303 0.5
854 28 0.0606765 0.533632 0.5
696 27 0.00495772 0.526931 0.5
789 28 0.0633485 0.500905 0.5
713 37 0.0940291 0.484748 0.5
95 32 0.0894745 0.518901 0.5
579 27 0.118846 0.531304 0.5
793 28 0.127736 0.485907 0.5
472 26 0.159334 0.487792 0.5
212 24 0.141676 0.511622 0.5
422 30 0.171722 0.515619 0.5
410 41 0.193921 0.488461 0.5
186 32 0.230422 0.501316 0.5
748 35 0.20393 0.524201 0.5
714 29 0.253888 0.478062 0.5
550 24 0.283229 0.488698 0.5
872 39 0.265309 0.515194 0.5
620 27 0.305406 0.508146 0.5
92 27 0.310168 0.478059 0.5
702 27 0.334783 0.506859 0.5
965 29 0.367445 0.498902 0.5
423 34 0.399999 0.491095 0.5
65 31 0.35601 0.530377 0.5
956 33 0.389727 0.524442 0.5
20 35 0.424166 0.514501 0.5
62 28 0.436363 0.481926 0.5
79 38 0.458427 0.507537 0.5
767 40 0.494689 0.498515 0.5
479 20 0.516762 0.526815 0.5
324 39 0.531058 0.495452 0.5
814 31 0.56656 0.491198 0.5
394 29 0.552165 0.522204 0.5
108 33 0.586031 0.520205 0.5
820 29 0.600265 0.490759 0.5
619 32 0.632607 0.486165 0.5
281 25 0.618647 0.516083 0.5
83 31 0.648748 0.516859 0.5
157 32 0.665338 0.487938 0.5
404 31 0.698931 0.487396 0.5
46 34 0.6825 0.518218 0.5
522 36 0.718264 0.515992 0.5
816 32 0.733005 0.486107 0.5
338 28 0.764771 0.482222 0.5
43 35 0.754859 0.513511 0.5
35 38 0.7933 0.510552 0.5
137 33 0.827022 0.49385 0.5
916 25 0.855008 0.477213 0.5
341 25 0.855388 0.507753 0.5
633 30 0.88181 0.492982 0.5
784 28 0.828925 0.526239 0.5
295 33 0.881997 0.527487 0.5
271 30 0.909606 0.508664 0.5
110 30 0.94067 0.492765 0.5
818 25 0.936163 0.522719 0.5
503 38 0.974127 0.478865 0.5
109 43 0.970496 0.517458 0.5
906 39 0.029621 0.551511 0.5
231 32 0.00490414 0.580445 0.5
187 33 0.0365496 0.588942 0.5
790 32 0.0629654 0.567645 0.5
791 26 0.0919491 0.550764 0.5
600 36 0.0959422 0.585376 0.5
680 29 0.121889 0.562585 0.5
234 34 0.148534 0.542023 0.5
465 27 0.151874 0.574796 0.5
641 29 0.180025 0.548689 0.5
441 30 0.209989 0.560474 0.5
534 34 0.183776 0.582467 0.5
129 37 0.236316 0.539183 0.5
985 24 0.238832 0.572148 0.5
826 30 0.265351 0.556497 0.5
541 33 0.292368 0.537738 0.5
576 33 0.279598 0.586724 0.5
151 38 0.309828 0.568603 0.5
796 26 0.325661 0.536431 0.5
7 35 0.34591 0.563865 0.5
10 29 0.37871 0.554355 0.5
486 38 0.400072 0.581064 0.5
226 31 0.367572 0.591858 0.5
506 37 0.41504 0.548867 0.5
371 29 0.449483 0.542647 0.5
470 29 0.437687 0.573892 0.5
45 28 0.473035 0.568061 0.5
948 37 0.483637 0.535327 0.5
25 33 0.507549 0.560428 0.5
732 28 0.53803 0.549333 0.5
758 21 0.567527 0.547529 0.5
691 39 0.570512 0.579234 0.5
595 36 0.532892 0.583366 0.5
42 41 0.601345 0.555281 0.5
899 22 0.631751 0.541608 0.5
870 30 0.633174 0.572072 0.5
125 30 0.605605 0.591463 0.5
711 34 0.66322 0.549022 0.5
604 21 0.660641 0.581218 0.5
1000 36 0.700851 0.5486 0.5
118 26 0.689897 0.581002 0.5
573 30 0.722154 0.575987 0.5
904 34 0.738184 0.544612 0.5
64 31 0.756215 0.572598 0.5
772 33 0.774356 0.543029 0.5
584 25 0.807956 0.547943 0.5
322 22 0.787909 0.570726 0.5
392 30 0.8161 0.57858 0.5
760 26 0.837984 0.556918 0.5
853 18 0.854645 0.536559 0.5
968 38 0.874266 0.563066 0.5
119 28 0.848096 0.587816 0.5
918 40 0.91416 0.547447 0.5
675 27 0.903491 0.579306 0.5
869 32 0.934394 0.582721 0.5
725 39 0.952755 0.551858 0.5
294 29 0.988694 0.55361 0.5
495 33 0.97099 0.583191 0.5
447 37 0.0272985 0.622488 0.5
970 22 0.0556808 0.640762 0.5
398 38 0.0664049 0.608104 0.5
320 33 0.108894 0.617782 0.5
240 28 0.083727 0.638762 0.5
344 20 0.10974 0.648916 0.5
401 24 0.1305 0.596131 0.5
1 25 0.159729 0.604747 0.5
450 23 0.138253 0.625043 0.5
909 27 0.166187 0.639217 0.5
22 34 0.189628 0.617469 0.5
543 34 0.216526 0.594069 0.5
287 36 0.223432 0.631907 0.5
29 29 0.194964 0.650561 0.5
204 34 0.249913 0.603283 0.5
942 25 0.286393 0.620498 0.5
594 33 0.258506 0.635938 0.5
32 21 0.288356 0.650351 0.5
634 17 0.304727 0.600993 0.5
235 36 0.333226 0.598378 0.5
722 33 0.319165 0.630816 0.5
300 37 0.357613 0.627469 0.5
126 32 0.391213 0.617708 0.5
284 35 0.386318 0.652608 0.5
386 37 0.424531 0.606703 0.5
547 33 0.449984 0.631166 0.5
117 31 0.459185 0.597512 0.5
804 29 0.417801 0.64067 0.5
127 22 0.478744 0.619203 0.5
266 35 0.498087 0.594655 0.5
526 30 0.505831 0.630902 0.5
184 26 0.532213 0.615808 0.5
915 26 0.558244 0.630749 0.5
432 29 0.581439 0.611977 0.5
388 26 0.533178 0.648034 0.5
978 22 0.585465 0.642223 0.5
602 25 0.609004 0.62291 0.5
932 27 0.638898 0.602836 0.5
209 26 0.63684 0.633108 0.5
49 27 0.613344 0.653712 0.5
454 32 0.673189 0.610444 0.5
311 27 0.666234 0.642582 0.5
354 35 0.700802 0.639251 0.5
323 30 0.7092 0.606435 0.5
496 30 0.741918 0.602472 0.5
163 25 0.73071 0.631101 0.5
463 26 0.760677 0.62708 0.5
599 33 0.782066 0.601464 0.5
254 33 0.81661 0.610686 0.5
142 31 0.791784 0.634051 0.5
867 37 0.850422 0.621786 0.5
269 32 0.878194 0.599259 0.5
436 31 0.824412 0.64521 0.5
997 35 0.885691 0.632868 0.5
861 35 0.914379 0.611341 0.5
93 43 0.92545 0.647239 0.5
237 35 0.949822 0.613332 0.5
827 41 0.989952 0.613702 0.5
913 29 1.00267 0.648083 0.5
868 39 0.966536 0.644949 0.5
643 27 0.0315108 0.65739 0.5
724 41 0.0517598 0.686191 0.5
801 26 0.0171488 0.682958 0.5
684 25 0.0809733 0.668358 0.5
359 34 0.112491 0.6789 0.5
830 29 0.0870653 0.700592 0.5
610 30 0.119248 0.712107 0.5
74 35 0.139246 0.657987 0.5
19 28 0.170027 0.673177 0.5
205 27 0.143755 0.691848 0.5
439 28 0.174125 0.704976 0.5
116 22 0.225478 0.66259 0.5
399 34 0.200789 0.684407 0.5
194 31 0.232562 0.692962 0.5
40 40 0.258076 0.670591 0.5
865 21 0.288832 0.678247 0.5
460 35 0.273834 0.706965 0.5
220 30 0.308755 0.699418 0.5
82 34 0.317381 0.665929 0.5
286 31 0.352374 0.663142 0.5
449 26 0.339464 0.691897 0.5
13 31 0.377307 0.685502 0.5
640 37 0.412844 0.675841 0.5
507 29 0.402251 0.707611 0.5
667 26 0.446173 0.663222 0.5
69 35 0.443281 0.695703 0.5
246 33 0.477274 0.649744 0.5
572 34 0.475711 0.684203 0.5
152 34 0.506526 0.665231 0.5
198 36 0.507956 0.700669 0.5
883 36 0.538122 0.680842 0.5
800 22 0.561525 0.658234 0.5
3 33 0.587814 0.67434 0.5
417 25 0.565687 0.696571 0.5
782 27 0.617186 0.68705 0.5
411 31 0.642318 0.664972 0.5
321 31 0.593999 0.708464 0.5
297 30 0.647699 0.697448 0.5
638 49 0.680852 0.676137 0.5
678 30 0.689846 0.712384 0.5
635 22 0.715078 0.667506 0.5
850 23 0.713314 0.69522 0.5
123 17 0.738086 0.656565 0.5
474 28 0.742171 0.68381 0.5
908 20 0.749822 0.710608 0.5
843 35 0.767041 0.659875 0.5
147 30 0.774455 0.692655 0.5
276 35 0.799838 0.669176 0.5
880 41 0.80788 0.705621 0.5
759 36 0.834715 0.67887 0.5
842 28 0.860093 0.656095 0.5
200 35 0.86783 0.691295 0.5
683 34 0.89384 0.667371 0.5
546 32 0.91856 0.688972 0.5
134 34 0.949823 0.67634 0.5
946 30 0.984018 0.676059 0.5
489 21 0.967109 0.700989 0.5
514 25 0.997099 0.706198 0.5
477 31 0.0285936 0.713917 0.5
207 31 0.0373753 0.74641 0.5
617 33 0.0621093 0.722862 0.5
98 35 0.00466873 0.736975 0.5
236 42 0.0733168 0.757754 0.5
624 23 0.0937263 0.73015 0.5
342 40 0.122909 0.747807 0.5
907 27 0.151168 0.727033 0.5
160 29 0.15877 0.758338 0.5
552 30 0.183368 0.736077 0.5
131 27 0.208523 0.71671 0.5
145 24 0.214504 0.746491 0.5
351 31 0.190595 0.767705 0.5
989 35 0.242287 0.724249 0.5
462 29 0.24316 0.756511 0.5
391 24 0.269836 0.742187 0.5
731 35 0.28773 0.768926 0.5
717 30 0.299953 0.731052 0.5
291 27 0.330627 0.722238 0.5
639 21 0.344345 0.74676 0.5
48 25 0.317498 0.756928 0.5
739 43 0.366226 0.720275 0.5
941 29 0.370749 0.758508 0.5
304 27 0.396734 0.739636 0.5
78 19 0.422059 0.755563 0.5
15 34 0.430157 0.726954 0.5
670 34 0.452418 0.754432 0.5
268 45 0.473555 0.722185 0.5
890 34 0.511223 0.73628 0.5
222 33 0.486002 0.759609 0.5
494 22 0.517873 0.769367 0.5
481 30 0.539589 0.714943 0.5
825 37 0.543162 0.748896 0.5
337 29 0.570364 0.729324 0.5
437 32 0.575513 0.762084 0.5
840 25 0.600183 0.739505 0.5
292 28 0.624652 0.719669 0.5
30 33 0.630406 0.752695 0.5
185 37 0.658714 0.729488 0.5
741 34 0.691968 0.745564 0.5
159 34 0.663928 0.766326 0.5
50 33 0.721141 0.725249 0.5
334 33 0.752948 0.741565 0.5
335 34 0.724817 0.760576 0.5
221 22 0.779049 0.725275 0.5
681 23 0.782136 0.757014 0.5
299 24 0.804681 0.740057 0.5
975 27 0.807216 0.770529 0.5
945 35 0.837011 0.745057 0.5
319 29 0.842493 0.713088 0.5
588 26 0.868192 0.728124 0.5
969 28 0.866937 0.760055 0.5
630 32 0.895183 0.712194 0.5
76 26 0.895271 0.743694 0.5
695 20 0.920196 0.730281 0.5
654 24 0.940867 0.710596 0.5
605 24 0.920249 0.759538 0.5
285 30 0.946598 0.742168 0.5
839 27 0.973943 0.728029 0.5
539 31 0.976364 0.759535 0.5
747 23 0.0454733 0.777177 0.5
146 24 0.0311102 0.801279 0.5
992 37 0.0121869 0.772486 0.5
149 27 0.00111715 0.803442 0.5
697 37 0.0511215 0.827231 0.5
261 38 0.0725806 0.797286 0.5
468 27 0.103244 0.774702 0.5
987 35 0.108658 0.807041 0.5
510 35 0.135841 0.783832 0.5
647 30 0.167655 0.791741 0.5
433 24 0.144084 0.814889 0.5
352 27 0.173471 0.822748 0.5
567 29 0.220667 0.777659 0.5
248 25 0.197561 0.800129 0.5
419 33 0.227878 0.809372 0.5
339 36 0.255472 0.786089 0.5
554 29 0.286256 0.80203 0.5
197 29 0.259468 0.820379 0.5
218 22 0.31301 0.78683 0.5
86 30 0.342364 0.777084 0.5
330 27 0.342711 0.807865 0.5
387 29 0.314562 0.817753 0.5
53 35 0.371668 0.793196 0.5
627 33 0.400363 0.774733 0.5
316 39 0.406834 0.810759 0.5
535 24 0.365962 0.826213 0.5
99 25 0.432632 0.781539 0.5
937 32 0.465014 0.787862 0.5
509 26 0.442074 0.809767 0.5
773 20 0.481647 0.812567 0.5
863 26 0.497032 0.789039 0.5
362 32 0.52064 0.810964 0.5
370 37 0.547214 0.784647 0.5
59 23 0.579518 0.795942 0.5
192 36 0.556178 0.818808 0.5
817 36 0.589497 0.830138 0.5
735 27 0.604797 0.773182 0.5
453 25 0.607998 0.803794 0.5
979 35 0.635546 0.786766 0.5
373 35 0.637275 0.822218 0.5
520 32 0.66606 0.80158 0.5
195 37 0.694799 0.782867 0.5
810 31 0.700379 0.816939 0.5
774 34 0.728696 0.795813 0.5
570 34 0.757365 0.775479 0.5
746 24 0.760294 0.808733 0.5
919 23 0.785553 0.791354 0.5
183 28 0.814544 0.801951 0.5
243 33 0.788095 0.823459 0.5
858 33 0.838532 0.780925 0.5
483 28 0.869448 0.79092 0.5
501 34 0.845913 0.814529 0.5
314 32 0.878595 0.825954 0.5
612 27 0.894473 0.77449 0.5
718 19 0.895062 0.802439 0.5
726 29 0.921396 0.791306 0.5
583 24 0.911855 0.824845 0.5
435 23 0.947053 0.773304 0.5
878 32 0.97177 0.793362 0.5
88 42 0.944784 0.81891 0.5
780 29 0.980346 0.827454 0.5
238 24 0.0173984 0.827502 0.5
213 32 0.0323881 0.85608 0.5
828 29 0.0478965 0.885018 0.5
308 25 0.0116385 0.88008 0.5
905 30 0.065294 0.858779 0.5
515 29 0.0853122 0.832389 0.5
161 27 0.096986 0.862472 0.5
894 27 0.117472 0.839041 0.5
223 18 0.124162 0.865631 0.5
315 28 0.149608 0.845201 0.5
891 33 0.150295 0.88028 0.5
466 44 0.181932 0.858768 0.5
255 29 0.205309 0.831805 0.5
775 33 0.218635 0.867004 0.5
954 23 0.234752 0.840902 0.5
657 24 0.260749 0.850988 0.5
984 32 0.287783 0.837128 0.5
903 31 0.282814 0.872237 0.5
947 34 0.249994 0.881339 0.5
565 27 0.337724 0.838012 0.5
257 34 0.313729 0.859989 0.5
623 37 0.342227 0.881353 0.5
247 23 0.360645 0.854564 0.5
884 37 0.392416 0.845056 0.5
256 33 0.413992 0.872882 0.5
148 34 0.377958 0.879784 0.5
122 30 0.427326 0.840591 0.5
414 34 0.44787 0.867632 0.5
467 32 0.461328 0.835652 0.5
982 32 0.481772 0.861183 0.5
808 26 0.500523 0.834983 0.5
537 27 0.513932 0.862871 0.5
755 25 0.533613 0.841668 0.5
31 23 0.496127 0.888067 0.5
102 22 0.540132 0.871955 0.5
173 30 0.56262 0.853207 0.5
993 29 0.566845 0.887365 0.5
527 28 0.590143 0.867774 0.5
877 29 0.616425 0.849377 0.5
327 31 0.647306 0.856496 0.5
708 25 0.62105 0.880764 0.5
420 34 0.672256 0.83606 0.5
395 27 0.679041 0.869526 0.5
56 27 0.701109 0.848358 0.5
482 29 0.650307 0.888513 0.5
669 41 0.733996 0.832717 0.5
415 24 0.741441 0.866471 0.5
836 29 0.765595 0.847279 0.5
250 30 0.712186 0.878141 0.5
703 30 0.793981 0.860924 0.5
153 38 0.819585 0.83691 0.5
955 28 0.824317 0.870726 0.5
660 27 0.770498 0.879728 0.5
229 32 0.852902 0.85028 0.5
75 20 0.877355 0.869957 0.5
55 28 0.852813 0.885917 0.5
719 23 0.89762 0.850761 0.5
613 27 0.927175 0.852224 0.5
182 33 0.907333 0.880374 0.5
224 30 0.94238 0.878938 0.5
876 31 0.998375 0.852707 0.5
219 27 0.960228 0.851253 0.5
642 31 0.978147 0.877967 0.5
113 36 0.0262234 0.910915 0.5
889 28 0.0391438 0.942034 0.5
172 20 0.00868913 0.936797 0.5
700 26 0.0612844 0.919224 0.5
459 36 0.0811337 0.891333 0.5
490 32 0.0936356 0.923639 0.5
710 37 0.11807 0.897248 0.5
743 33 0.126151 0.93298 0.5
505 33 0.155413 0.914257 0.5
81 27 0.18198 0.894412 0.5
67 30 0.189388 0.9246 0.5
290 31 0.212463 0.901173 0.5
380 39 0.225534 0.941296 0.5
811 26 0.243038 0.911142 0.5
721 27 0.274797 0.904526 0.5
469 37 0.263227 0.937229 0.5
738 32 0.299699 0.926924 0.5
37 28 0.308686 0.893654 0.5
921 37 0.334265 0.917 0.5
650 29 0.367739 0.912113 0.5
844 33 0.4013 0.906031 0.5
819 30 0.355292 0.94453 0.5
896 29 0.388828 0.939329 0.5
682 36 0.423294 0.932956 0.5
451 33 0.435186 0.899837 0.5
525 25 0.46805 0.894088 0.5
835 33 0.457714 0.927709 0.5
230 31 0.490312 0.91728 0.5
5 34 0.526267 0.89787 0.5
189 11 0.51648 0.924693 0.5
523 21 0.503223 0.944595 0.5
150 39 0.55531 0.918912 0.5
598 34 0.59237 0.928209 0.5
253 29 0.531968 0.947272 0.5
302 26 0.596001 0.896919 0.5
930 25 0.622907 0.910728 0.5
366 29 0.625256 0.941085 0.5
52 38 0.653323 0.922294 0.5
562 37 0.683759 0.901138 0.5
561 32 0.686108 0.936104 0.5
551 30 0.714186 0.918453 0.5
158 35 0.741571 0.89748 0.5
214 34 0.745584 0.933981 0.5
838 22 0.715885 0.950546 0.5
270 32 0.774298 0.914477 0.5
655 29 0.799458 0.892886 0.5
990 41 0.809881 0.929847 0.5
340 21 0.827592 0.900097 0.5
895 29 0.84779 0.920373 0.5
258 39 0.882006 0.904944 0.5
931 29 0.871693 0.942326 0.5
656 20 0.899433 0.931502 0.5
757 39 0.925498 0.910975 0.5
328 22 0.949554 0.933524 0.5
502 25 0.994224 0.905097 0.5
262 32 0.962837 0.906686 0.5
38 29 0.980198 0.934258 0.5
350 15 0.0277774 0.994706 0.5
712 29 0.0494491 0.974872 0.5
538 34 0.0176528 0.966801 0.5
685 30 0.0713467 0.949632 0.5
516 41 0.116016 0.99417 0.5
846 34 0.0818038 0.982361 0.5
513 27 0.104199 0.957077 0.5
215 27 0.150879 0.991011 0.5
498 29 0.134443 0.964305 0.5
518 30 0.160994 0.9475 0.5
813 30 0.182946 0.985968 0.5
24 29 0.192321 0.955841 0.5
461 33 0.216609 0.978622 0.5
180 33 0.242663 1.00228 0.5
455 31 0.249214 0.969463 0.5
227 32 0.275361 0.990824 0.5
860 30 0.289446 0.959794 0.5
659 35 0.311814 0.985017 0.5
754 31 0.322831 0.951386 0.5
852 34 0.346101 0.978132 0.5
14 28 0.366843 1.00351 0.5
58 27 0.402137 0.995424 0.5
374 35 0.379569 0.971573 0.5
473 31 0.412072 0.965183 0.5
900 24 0.43145 0.989659 0.5
592 24 0.459562 0.987567 0.5
831 29 0.445529 0.960505 0.5
57 33 0.488711 0.997151 0.5
629 25 0.521894 1.00198 0.5
763 34 0.478819 0.962614 0.5
961 30 0.511075 0.972145 0.5
898 28 0.551807 1.00652 0.5
752 26 0.543049 0.977169 0.5
390 32 0.564946 0.953067 0.5
16 32 0.574385 0.984544 0.5
582 28 0.605508 0.994135 0.5
926 34 0.636389 1.00703 0.5
444 34 0.599407 0.96187 0.5
355 31 0.632298 0.97387 0.5
484 34 0.690257 1.00308 0.5
591 25 0.662386 0.986163 0.5
107 29 0.659378 0.955933 0.5
824 32 0.689728 0.968068 0.5
768 31 0.752873 1.00087 0.5
558 32 0.720286 0.983534 0.5
241 33 0.750198 0.967237 0.5
922 37 0.806751 1.00028 0.5
528 33 0.779119 0.948385 0.5
332 26 0.779059 0.981098 0.5
689 30 0.807905 0.966463 0.5
68 32 0.861298 1.00545 0.5
924 25 0.83551 0.985259 0.5
378 32 0.839241 0.952731 0.5
622 28 0.864614 0.973616 0.5
396 31 0.893711 0.995545 0.5
139 29 0.895862 0.963031 0.5
89 30 0.92382 0.947024 0.5
34 31 0.925867 0.980381 0.5
873 32 0.997637 0.999159 0.5
943 45 0.959759 0.99889 0.5
143 30 0.953292 0.962304 0.5
33 30 0.983907 0.969342 0.5
