ITEM: TIMESTEP
1500000
ITEM: NUMBER OF ATOMS
1000
ITEM: BOX BOUNDS pp pp pp
-2.2526731999999999e+01 2.2526731999999999e+01
-2.2526731999999999e+01 2.2526731999999999e+01
-5.0000000000000000e-01 5.0000000000000000e-01
ITEM: ATOMS id type xs ys zs
704 32 0.0118424 0.0355808 0.5
523 26 0.0371109 0.0105251 0.5
140 30 0.15288 0.0591082 0.5
213 31 0.0902689 0.0139611 0.5
71 32 0.127274 0.0563408 0.5
331 29 0.115258 0.0251377 0.5
818 28 0.16649 0.0121376 0.5
577 33 0.185251 0.0347778 0.5
488 28 0.222637 0.999398 0.5
854 29 0.198654 0.00276343 0.5
281 28 0.278048 0.0439111 0.5
647 30 0.323295 0.0237227 0.5
881 29 0.299347 0.0405295 0.5
7 32 0.336546 0.99317 0.5
724 35 0.374347 0.0258193 0.5
799 29 0.386977 0.993448 0.5
700 28 0.468727 0.0696059 0.5
652 35 0.425322 0.0256112 0.5
174 31 0.461183 0.0237657 0.5
217 31 0.47728 0.999554 0.5
882 33 0.553316 0.0287109 0.5
231 31 0.570302 0.00828651 0.5
631 30 0.602694 0.0182705 0.5
402 34 0.63578 0.0389559 0.5
990 35 0.643932 0.0116103 0.5
441 30 0.677449 0.0466406 0.5
823 29 0.671498 0.00353985 0.5
887 31 0.695605 0.0228083 0.5
556 30 0.723889 0.0221774 0.5
305 30 0.741099 0.966153 0.5
988 25 0.806935 0.026589 0.5
136 34 0.767307 0.984128 0.5
629 28 0.781469 0.00516267 0.5
326 36 0.827778 0.996533 0.5
147 30 0.833355 0.0690058 0.5
386 33 0.855437 0.0508186 0.5
387 30 0.918677 0.999506 0.5
665 35 0.931111 0.0269703 0.5
336 33 0.96477 0.0554778 0.5
956 32 0.980454 0.034882 0.5
209 28 0.9774 0.0085636 0.5
601 31 0.019632 0.0704675 0.5
830 30 0.067837 0.0692544 0.5
574 27 0.0618345 0.0068429 0.5
688 29 0.147146 0.00471186 0.5
941 30 0.227153 0.0478147 0.5
72 28 0.174126 0.0692238 0.5
589 27 0.206591 0.025659 0.5
879 32 0.256594 0.0926651 0.5
196 31 0.290475 0.081663 0.5
687 32 0.311877 0.0586106 0.5
104 28 0.344709 0.0436956 0.5
373 33 0.380918 0.0539106 0.5
893 30 0.453399 0.048866 0.5
737 32 0.397667 0.0333903 0.5
57 31 0.475346 0.0433097 0.5
767 35 0.438162 0.0878502 0.5
987 32 0.537445 0.0506422 0.5
643 29 0.560007 0.057489 0.5
874 34 0.557405 0.0832916 0.5
144 32 0.576935 0.0308437 0.5
29 30 0.612057 0.0525346 0.5
783 28 0.621534 0.0740586 0.5
368 32 0.655061 0.0531098 0.5
595 33 0.668068 0.0757725 0.5
126 31 0.701418 0.0659631 0.5
12 32 0.777355 0.0555788 0.5
937 31 0.7455 0.0549327 0.5
866 30 0.773026 0.0253226 0.5
778 28 0.780669 0.0835082 0.5
469 33 0.83912 0.0208081 0.5
218 27 0.845411 0.0886565 0.5
153 34 0.887079 0.0344557 0.5
309 32 0.878324 0.0591975 0.5
451 32 0.912183 0.0636612 0.5
15 32 0.966948 0.120436 0.5
615 29 0.950328 0.0747479 0.5
913 30 0.988225 0.0609287 0.5
18 36 0.0211169 0.107265 0.5
271 30 0.0575994 0.047563 0.5
847 34 0.0519985 0.114888 0.5
431 31 0.0438822 0.0819599 0.5
337 30 0.113873 0.117014 0.5
133 31 0.0803921 0.0963882 0.5
531 29 0.0906061 0.066705 0.5
691 34 0.104071 0.091386 0.5
142 31 0.15096 0.0837531 0.5
720 29 0.211057 0.0784038 0.5
206 31 0.263061 0.0673289 0.5
961 30 0.235856 0.0726053 0.5
613 29 0.273874 0.11472 0.5
249 32 0.246963 0.115764 0.5
625 31 0.268391 0.146895 0.5
984 31 0.334 0.119001 0.5
938 27 0.311666 0.0952688 0.5
466 36 0.385102 0.0807568 0.5
23 29 0.345184 0.0685876 0.5
449 28 0.431521 0.0591755 0.5
303 30 0.493016 0.0701023 0.5
194 31 0.410374 0.0701475 0.5
38 30 0.505757 0.101083 0.5
627 32 0.493647 0.133777 0.5
109 36 0.51989 0.123831 0.5
398 34 0.606657 0.113283 0.5
834 31 0.629227 0.104771 0.5
623 33 0.654032 0.102195 0.5
367 29 0.683489 0.0963175 0.5
338 30 0.735377 0.103894 0.5
106 26 0.790575 0.107101 0.5
886 29 0.756856 0.086601 0.5
132 31 0.80773 0.0785359 0.5
54 30 0.841426 0.112217 0.5
168 33 0.905893 0.0922165 0.5
876 31 0.915976 0.121103 0.5
719 27 0.997078 0.0813235 0.5
949 32 0.0216489 0.137087 0.5
935 28 0.0552783 0.140883 0.5
81 29 0.0884287 0.122136 0.5
374 32 0.128527 0.138331 0.5
671 28 0.0860561 0.181596 0.5
826 30 0.168665 0.114033 0.5
598 32 0.144305 0.113321 0.5
585 31 0.181007 0.0919205 0.5
462 30 0.205296 0.101801 0.5
139 30 0.220743 0.127924 0.5
128 31 0.315349 0.164526 0.5
706 31 0.327841 0.144876 0.5
742 31 0.350333 0.135818 0.5
3 32 0.345057 0.0940906 0.5
676 31 0.366605 0.10531 0.5
824 31 0.393279 0.152979 0.5
814 31 0.430593 0.174039 0.5
125 30 0.437713 0.134605 0.5
805 29 0.475652 0.111648 0.5
744 32 0.502427 0.160043 0.5
83 31 0.543744 0.137877 0.5
26 35 0.588648 0.0751039 0.5
458 33 0.569087 0.118939 0.5
705 30 0.573337 0.147273 0.5
470 30 0.650593 0.126593 0.5
918 35 0.678426 0.118841 0.5
70 29 0.709491 0.161208 0.5
755 28 0.730694 0.17513 0.5
952 32 0.738801 0.125621 0.5
17 29 0.7642 0.113437 0.5
182 31 0.7621 0.144374 0.5
112 28 0.791499 0.179492 0.5
260 29 0.791033 0.145333 0.5
162 31 0.821781 0.128061 0.5
184 29 0.849126 0.160557 0.5
846 32 0.8173 0.174658 0.5
535 28 0.894043 0.131421 0.5
477 31 0.87932 0.107273 0.5
267 29 0.910416 0.17905 0.5
295 32 0.937661 0.143773 0.5
447 33 -0.000441734 0.120546 0.5
483 29 0.972455 0.141202 0.5
472 29 0.991599 0.154872 0.5
211 25 0.986724 0.180334 0.5
835 32 0.0121098 0.163114 0.5
539 31 0.0591877 0.164233 0.5
920 30 0.0481191 0.184068 0.5
154 29 0.108024 0.149782 0.5
528 32 0.14786 0.180027 0.5
811 29 0.117155 0.185065 0.5
776 31 0.191216 0.152809 0.5
620 29 0.217219 0.168298 0.5
92 29 0.236323 0.184625 0.5
485 32 0.307555 0.198799 0.5
816 31 0.24384 0.161389 0.5
849 33 0.367231 0.1637 0.5
871 29 0.337259 0.171014 0.5
243 32 0.408622 0.180995 0.5
5 32 0.407344 0.220492 0.5
310 32 0.470673 0.139071 0.5
746 28 0.453777 0.181925 0.5
403 28 0.479009 0.17928 0.5
578 30 0.502982 0.184932 0.5
789 29 0.529286 0.157587 0.5
241 32 0.534489 0.18155 0.5
774 32 0.556048 0.163938 0.5
624 27 0.574025 0.179975 0.5
870 30 0.62054 0.140242 0.5
674 29 0.65873 0.157847 0.5
390 31 0.609902 0.163219 0.5
497 31 0.653391 0.186505 0.5
757 34 0.688281 0.180096 0.5
100 32 0.74651 0.1925 0.5
923 32 0.768606 0.171374 0.5
985 28 0.735053 0.151968 0.5
372 29 0.772775 0.198169 0.5
175 36 0.801269 0.201207 0.5
484 32 0.894433 0.157381 0.5
571 36 0.899838 0.200205 0.5
208 31 0.876082 0.173582 0.5
617 32 0.962274 0.174253 0.5
148 32 0.930271 0.167596 0.5
560 30 0.0130539 0.212529 0.5
491 30 0.042975 0.227775 0.5
751 28 0.977116 0.25781 0.5
41 31 0.997789 0.240369 0.5
608 30 0.0798138 0.245137 0.5
640 33 0.0955098 0.208176 0.5
382 34 0.122946 0.209817 0.5
673 29 0.11541 0.240752 0.5
888 29 0.159846 0.15455 0.5
516 35 0.177531 0.186744 0.5
771 28 0.164527 0.228831 0.5
996 28 0.2577 0.18482 0.5
880 35 0.196812 0.205679 0.5
597 28 0.26594 0.211102 0.5
82 32 0.287851 0.17935 0.5
626 33 0.332638 0.258837 0.5
725 34 0.346567 0.20576 0.5
651 28 0.346712 0.231789 0.5
648 28 0.379694 0.190956 0.5
917 34 0.445608 0.218391 0.5
300 33 0.469319 0.216153 0.5
727 33 0.50701 0.213516 0.5
659 33 0.45401 0.243635 0.5
908 26 0.478021 0.251061 0.5
312 34 0.539856 0.216667 0.5
443 29 0.557992 0.199231 0.5
292 29 0.632008 0.207918 0.5
929 32 0.60371 0.194492 0.5
353 30 0.66588 0.21605 0.5
641 30 0.639911 0.269892 0.5
963 29 0.645805 0.227532 0.5
976 27 0.700959 0.23869 0.5
49 29 0.683735 0.260488 0.5
506 33 0.710307 0.210868 0.5
764 33 0.749101 0.217939 0.5
392 30 0.817742 0.240286 0.5
622 29 0.789321 0.225745 0.5
707 37 0.845763 0.215238 0.5
360 24 0.842504 0.247992 0.5
141 31 0.872387 0.224499 0.5
464 30 0.871993 0.195636 0.5
693 30 0.975524 0.201784 0.5
785 32 0.932032 0.200435 0.5
59 27 0.962342 0.230234 0.5
489 26 0.0258024 0.306397 0.5
425 31 0.085537 0.287612 0.5
111 30 0.0514052 0.26071 0.5
311 29 0.0275454 0.276487 0.5
803 31 0.131151 0.278967 0.5
743 31 0.137208 0.248379 0.5
538 32 0.162922 0.255275 0.5
966 28 0.187828 0.280491 0.5
786 34 0.201492 0.256932 0.5
120 30 0.226154 0.310301 0.5
677 34 0.249674 0.229429 0.5
214 32 0.310491 0.221725 0.5
381 31 0.318051 0.323537 0.5
293 33 0.281476 0.25813 0.5
221 27 0.355548 0.254895 0.5
332 29 0.380401 0.25558 0.5
152 32 0.373629 0.281626 0.5
375 30 0.404256 0.246441 0.5
633 30 0.427106 0.247191 0.5
590 28 0.520361 0.231405 0.5
330 29 0.572571 0.236925 0.5
663 32 0.546913 0.240316 0.5
210 29 0.595221 0.221213 0.5
522 33 0.613224 0.238248 0.5
130 29 0.66251 0.271106 0.5
121 31 0.727222 0.229054 0.5
187 32 0.68071 0.296551 0.5
657 28 0.745441 0.24566 0.5
529 29 0.760398 0.272794 0.5
596 29 0.797356 0.272455 0.5
301 33 0.823946 0.27091 0.5
600 33 0.870806 0.257344 0.5
575 31 0.898239 0.2286 0.5
276 32 0.904039 0.256055 0.5
412 30 0.930711 0.239602 0.5
924 28 0.984235 0.289126 0.5
712 30 0.964061 0.299593 0.5
800 27 0.0029253 0.267336 0.5
736 28 0.995211 0.346252 0.5
891 32 0.0604179 0.307839 0.5
798 32 0.0611579 0.330678 0.5
869 31 0.115445 0.299421 0.5
55 29 0.0923436 0.311817 0.5
821 28 0.163257 0.277974 0.5
30 31 0.132391 0.320466 0.5
307 31 0.173888 0.302312 0.5
346 30 0.225255 0.340725 0.5
439 29 0.290655 0.301722 0.5
840 28 0.243556 0.281935 0.5
63 30 0.231713 0.248569 0.5
58 29 0.358453 0.329608 0.5
197 30 0.372438 0.305588 0.5
895 30 0.305541 0.278453 0.5
166 30 0.340464 0.282012 0.5
269 31 0.392249 0.323349 0.5
73 31 0.443412 0.308817 0.5
124 29 0.404344 0.296948 0.5
275 31 0.468481 0.292264 0.5
404 31 0.485104 0.327006 0.5
639 26 0.446177 0.275736 0.5
884 33 0.507206 0.249786 0.5
902 30 0.532709 0.259492 0.5
285 30 0.605881 0.296044 0.5
536 29 0.57345 0.286827 0.5
557 34 0.559242 0.313757 0.5
526 30 0.633689 0.296001 0.5
875 32 0.604855 0.330991 0.5
863 29 0.678666 0.355918 0.5
618 33 0.637258 0.333964 0.5
294 30 0.656282 0.364993 0.5
833 31 0.719483 0.267045 0.5
621 29 0.713512 0.301724 0.5
308 28 0.739401 0.280641 0.5
85 27 0.722805 0.325802 0.5
561 31 0.741855 0.309189 0.5
349 35 0.797264 0.309209 0.5
69 33 0.778471 0.29167 0.5
444 32 0.819323 0.298058 0.5
27 32 0.903665 0.285743 0.5
960 35 0.898841 0.346593 0.5
347 37 0.913388 0.31315 0.5
510 33 0.9382 0.316178 0.5
242 33 0.93045 0.265297 0.5
756 29 0.961081 0.324348 0.5
365 29 0.984392 0.311817 0.5
419 32 0.00751216 0.324916 0.5
904 32 0.0219231 0.358126 0.5
237 32 0.0375721 0.335304 0.5
878 31 0.0460211 0.365611 0.5
554 30 0.109841 0.346061 0.5
440 34 0.132636 0.344584 0.5
817 33 0.112916 0.375011 0.5
735 29 0.17586 0.34115 0.5
842 29 0.159842 0.320042 0.5
86 30 0.197973 0.352989 0.5
161 29 0.20801 0.379578 0.5
731 32 0.29334 0.331196 0.5
666 31 0.385565 0.354091 0.5
288 33 0.408627 0.351246 0.5
982 31 0.307668 0.371161 0.5
739 36 0.433018 0.335686 0.5
977 33 0.459065 0.336313 0.5
642 31 0.490855 0.361006 0.5
265 36 0.532817 0.284454 0.5
533 33 0.512281 0.300297 0.5
414 32 0.559674 0.347022 0.5
342 34 0.58452 0.366957 0.5
53 33 0.601077 0.426368 0.5
779 34 0.617021 0.375929 0.5
839 29 0.67572 0.318609 0.5
90 35 0.700494 0.340911 0.5
226 31 0.757914 0.327302 0.5
37 30 0.78261 0.350993 0.5
110 30 0.849197 0.302576 0.5
973 26 0.822302 0.340165 0.5
118 28 0.834378 0.318583 0.5
933 30 0.87989 0.385194 0.5
436 31 0.91861 0.362298 0.5
865 26 0.913012 0.384121 0.5
33 30 0.935282 0.383263 0.5
544 29 0.940995 0.343358 0.5
921 33 0.96713 0.357512 0.5
992 33 0.972422 0.390559 0.5
766 30 0.992245 0.371481 0.5
583 28 0.0423243 0.388144 0.5
675 29 0.0271621 0.408092 0.5
146 28 0.0809467 0.351649 0.5
345 31 0.082646 0.374037 0.5
401 28 0.125366 0.393822 0.5
356 28 0.182585 0.375345 0.5
343 32 0.197452 0.399642 0.5
862 28 0.171555 0.413427 0.5
728 32 0.232391 0.391673 0.5
75 26 0.2645 0.322293 0.5
820 30 0.285235 0.37377 0.5
503 34 0.260839 0.368517 0.5
388 28 0.304023 0.395498 0.5
62 29 0.332449 0.408194 0.5
752 28 0.361122 0.366224 0.5
721 29 0.338646 0.348599 0.5
549 30 0.464901 0.374869 0.5
482 30 0.376196 0.38953 0.5
845 29 0.441467 0.368635 0.5
940 29 0.48676 0.383062 0.5
163 28 0.483944 0.407231 0.5
819 30 0.553586 0.370762 0.5
499 25 0.507356 0.340013 0.5
507 30 0.514807 0.373894 0.5
230 31 0.578175 0.397022 0.5
914 28 0.634234 0.357627 0.5
457 34 0.648616 0.421782 0.5
455 31 0.657166 0.395155 0.5
282 29 0.711725 0.38424 0.5
170 32 0.733474 0.3964 0.5
546 31 0.759199 0.403701 0.5
837 32 0.741981 0.359789 0.5
851 31 0.764429 0.372283 0.5
605 28 0.825945 0.386976 0.5
946 30 0.887208 0.306978 0.5
290 31 0.865461 0.355923 0.5
855 31 0.856298 0.38871 0.5
883 33 0.873629 0.422702 0.5
201 32 0.925001 0.409592 0.5
912 34 0.0176032 0.434469 0.5
291 29 0.0312176 0.464538 0.5
426 27 0.0597247 0.424757 0.5
603 30 0.107581 0.42279 0.5
599 32 0.150581 0.399353 0.5
234 32 0.208963 0.428399 0.5
807 27 0.192788 0.448148 0.5
10 30 0.311819 0.420801 0.5
745 32 0.260066 0.409287 0.5
207 31 0.285921 0.435077 0.5
361 32 0.356986 0.403639 0.5
588 29 0.39092 0.415083 0.5
380 34 0.372112 0.435271 0.5
513 29 0.435833 0.425497 0.5
729 27 0.458663 0.421795 0.5
490 31 0.506003 0.398561 0.5
793 30 0.52855 0.400992 0.5
872 34 0.596705 0.450008 0.5
225 32 0.576832 0.422865 0.5
280 34 0.627949 0.444839 0.5
877 30 0.687682 0.39015 0.5
682 33 0.673505 0.445378 0.5
143 30 0.743889 0.430335 0.5
427 31 0.769621 0.438633 0.5
64 31 0.7975 0.430816 0.5
708 28 0.800575 0.387336 0.5
505 32 0.82563 0.413266 0.5
167 29 0.850078 0.413156 0.5
695 26 0.89565 0.455726 0.5
968 34 0.918069 0.448214 0.5
512 31 0.0118688 0.392759 0.5
570 32 0.971532 0.421183 0.5
68 31 0.984939 0.441451 0.5
543 32 0.0344626 0.501518 0.5
628 31 0.0955379 0.442614 0.5
442 33 0.122189 0.452574 0.5
430 32 0.145083 0.470426 0.5
259 26 0.17185 0.436862 0.5
660 29 0.178753 0.471852 0.5
435 27 0.237236 0.472564 0.5
970 27 0.202723 0.468014 0.5
327 31 0.261452 0.437249 0.5
103 31 0.28033 0.492256 0.5
542 31 0.288752 0.466616 0.5
572 32 0.336154 0.44642 0.5
203 35 0.360657 0.464069 0.5
958 27 0.43704 0.454409 0.5
453 28 0.408413 0.432858 0.5
299 28 0.484717 0.451525 0.5
773 26 0.460378 0.470077 0.5
366 30 0.499484 0.423129 0.5
934 28 0.543056 0.434468 0.5
532 29 0.50098 0.48395 0.5
46 32 0.514346 0.503757 0.5
658 33 0.520405 0.454633 0.5
256 32 0.568117 0.450284 0.5
689 30 0.583097 0.484878 0.5
521 31 0.703482 0.443454 0.5
604 27 0.712352 0.420512 0.5
969 30 0.688655 0.424365 0.5
116 27 0.725812 0.454692 0.5
928 32 0.752168 0.456686 0.5
692 29 0.724349 0.482864 0.5
537 29 0.78463 0.463832 0.5
198 33 0.822509 0.441501 0.5
413 28 0.840521 0.459209 0.5
795 33 0.889251 0.480208 0.5
747 27 0.840806 0.48161 0.5
939 34 0.918499 0.477315 0.5
117 31 0.973924 0.504922 0.5
686 30 0.957649 0.444475 0.5
460 32 0.97082 0.478163 0.5
8 28 0.0598674 0.472162 0.5
173 30 0.0105373 0.51522 0.5
495 32 0.0586215 0.49782 0.5
838 27 0.0960936 0.49198 0.5
828 30 0.134695 0.498065 0.5
79 34 0.118839 0.518203 0.5
177 28 0.184351 0.493494 0.5
780 30 0.23199 0.516962 0.5
348 29 0.21383 0.495822 0.5
50 31 0.304695 0.489518 0.5
468 29 0.29398 0.519008 0.5
730 31 0.316267 0.514278 0.5
702 29 0.33077 0.468468 0.5
274 29 0.339049 0.516695 0.5
334 32 0.377144 0.53958 0.5
612 29 0.392107 0.481096 0.5
696 29 0.38486 0.560631 0.5
423 32 0.388118 0.509749 0.5
670 32 0.426963 0.481074 0.5
994 29 0.45028 0.489472 0.5
980 29 0.470069 0.521596 0.5
754 31 0.5537 0.470463 0.5
558 31 0.573713 0.531033 0.5
317 33 0.590669 0.553817 0.5
199 33 0.614897 0.496615 0.5
867 33 0.615348 0.466695 0.5
995 28 0.679451 0.477517 0.5
922 33 0.67905 0.502447 0.5
545 34 0.74467 0.525027 0.5
810 31 0.77576 0.508796 0.5
98 33 0.752648 0.499658 0.5
614 30 0.796009 0.487429 0.5
796 29 0.834 0.521472 0.5
236 35 0.858232 0.498103 0.5
183 29 0.905458 0.500419 0.5
408 29 0.965101 0.549174 0.5
997 32 0.998952 0.548623 0.5
802 33 0.0222143 0.562565 0.5
858 32 0.0428593 0.523786 0.5
487 30 0.0877115 0.522975 0.5
944 30 0.0630849 0.538205 0.5
797 31 0.136444 0.570274 0.5
690 29 0.146109 0.548104 0.5
284 33 0.166717 0.532962 0.5
790 31 0.177581 0.557172 0.5
395 29 0.254062 0.499123 0.5
352 29 0.256078 0.523097 0.5
89 30 0.268297 0.547614 0.5
376 35 0.30375 0.556345 0.5
606 32 0.330353 0.578086 0.5
78 26 0.433756 0.521225 0.5
732 29 0.371917 0.582876 0.5
806 29 0.466582 0.548693 0.5
836 30 0.455556 0.573122 0.5
844 32 0.495051 0.524864 0.5
66 31 0.546475 0.530461 0.5
429 29 0.560801 0.549908 0.5
856 29 0.618454 0.549053 0.5
496 30 0.61595 0.522757 0.5
178 27 0.644389 0.462621 0.5
850 27 0.688693 0.555719 0.5
591 28 0.63889 0.502891 0.5
943 37 0.71472 0.581456 0.5
709 30 0.714565 0.54264 0.5
841 31 0.739641 0.560842 0.5
159 32 0.765763 0.536524 0.5
48 28 0.810909 0.516454 0.5
222 32 0.78816 0.559436 0.5
848 30 0.813208 0.552948 0.5
910 30 0.843948 0.542679 0.5
701 34 0.85891 0.523093 0.5
611 33 0.906918 0.542294 0.5
541 32 0.884062 0.514539 0.5
302 28 0.920399 0.522264 0.5
919 27 0.940745 0.489002 0.5
314 31 0.943361 0.523661 0.5
32 26 0.0758949 0.601677 0.5
31 27 0.0828286 0.574935 0.5
753 31 0.159317 0.584649 0.5
102 27 0.19278 0.583691 0.5
853 25 0.194037 0.536809 0.5
822 32 0.233014 0.549284 0.5
385 31 0.212384 0.607769 0.5
34 31 0.249171 0.600856 0.5
397 31 0.269342 0.583738 0.5
760 28 0.35446 0.598596 0.5
351 31 0.321464 0.538421 0.5
568 31 0.377258 0.631877 0.5
518 30 0.43884 0.55663 0.5
105 31 0.448313 0.606566 0.5
892 27 0.41544 0.571429 0.5
827 35 0.489882 0.561241 0.5
329 32 0.527927 0.544724 0.5
60 29 0.52612 0.571237 0.5
424 27 0.59867 0.580195 0.5
322 27 0.623574 0.581484 0.5
684 28 0.643094 0.537618 0.5
959 29 0.663874 0.546442 0.5
315 29 0.694515 0.597149 0.5
358 29 0.761285 0.56838 0.5
927 31 0.777811 0.606648 0.5
713 33 0.808234 0.619401 0.5
520 31 0.79659 0.585817 0.5
584 28 0.817808 0.580125 0.5
47 31 0.860134 0.594051 0.5
16 31 0.851815 0.568738 0.5
750 31 0.876686 0.568504 0.5
454 31 0.914561 0.571425 0.5
180 32 0.946385 0.581093 0.5
181 31 0.932109 0.549006 0.5
481 30 0.983902 0.594394 0.5
432 30 0.060934 0.579213 0.5
632 30 0.0144712 0.619401 0.5
527 29 0.0456956 0.609819 0.5
553 31 0.113337 0.569044 0.5
179 31 0.10317 0.627323 0.5
240 30 0.112988 0.674897 0.5
359 32 0.127962 0.603306 0.5
11 34 0.141889 0.634917 0.5
283 33 0.183767 0.609843 0.5
636 27 0.222735 0.654408 0.5
463 29 0.22397 0.571665 0.5
644 30 0.269927 0.631492 0.5
113 33 0.239645 0.626536 0.5
547 32 0.310273 0.655762 0.5
896 30 0.300469 0.608662 0.5
864 28 0.330714 0.615186 0.5
723 30 0.401457 0.623242 0.5
445 33 0.392556 0.59619 0.5
61 31 0.424913 0.616644 0.5
509 29 0.448996 0.630798 0.5
986 30 0.474106 0.609745 0.5
379 29 0.543979 0.635016 0.5
74 33 0.552613 0.575571 0.5
479 26 0.512895 0.628716 0.5
511 34 0.576471 0.587374 0.5
576 32 0.589292 0.617791 0.5
619 31 0.640989 0.611482 0.5
420 32 0.657764 0.595099 0.5
115 27 0.70502 0.617088 0.5
227 31 0.681993 0.619136 0.5
905 30 0.739525 0.611268 0.5
137 32 0.725494 0.634915 0.5
155 30 0.773869 0.630126 0.5
459 33 0.832603 0.62941 0.5
245 26 0.878418 0.654752 0.5
885 28 0.836874 0.606316 0.5
235 33 0.87066 0.629511 0.5
831 30 0.895388 0.599408 0.5
215 29 0.897869 0.648466 0.5
564 29 0.922288 0.642724 0.5
955 29 0.933149 0.604269 0.5
239 33 0.987644 0.619499 0.5
289 27 0.0429648 0.632124 0.5
364 31 0.0188804 0.689414 0.5
768 31 0.0730905 0.629701 0.5
602 28 0.0642457 0.652695 0.5
471 28 0.106139 0.652067 0.5
981 30 0.143156 0.683762 0.5
698 26 0.138885 0.658562 0.5
185 33 0.155604 0.612969 0.5
417 28 0.188181 0.673657 0.5
809 29 0.169275 0.661526 0.5
216 36 0.190468 0.638264 0.5
714 30 0.215673 0.715623 0.5
277 29 0.230407 0.688952 0.5
979 32 0.283122 0.657431 0.5
609 30 0.253008 0.683436 0.5
238 28 0.320956 0.679747 0.5
769 30 0.340471 0.650959 0.5
428 29 0.36946 0.659153 0.5
703 30 0.349976 0.695664 0.5
781 30 0.424485 0.640395 0.5
964 32 0.404755 0.660571 0.5
446 29 0.448734 0.659471 0.5
646 29 0.474729 0.657063 0.5
678 30 0.488978 0.635254 0.5
340 27 0.536174 0.65915 0.5
204 32 0.5144 0.6657 0.5
931 30 0.552777 0.610714 0.5
45 29 0.58365 0.666094 0.5
972 30 0.623372 0.639027 0.5
393 34 0.566524 0.632256 0.5
832 35 0.620803 0.669548 0.5
409 30 0.669164 0.682077 0.5
25 32 0.645957 0.656988 0.5
473 31 0.67195 0.6566 0.5
784 29 0.688753 0.641378 0.5
655 30 0.6972 0.692391 0.5
804 30 0.709972 0.671245 0.5
189 22 0.776474 0.65629 0.5
21 31 0.749918 0.643376 0.5
253 30 0.801145 0.641044 0.5
716 30 0.85234 0.655891 0.5
762 31 0.835497 0.679805 0.5
266 33 0.919412 0.681947 0.5
465 29 0.866262 0.686943 0.5
681 27 0.893943 0.719346 0.5
24 30 0.988202 0.642407 0.5
563 33 0.960431 0.646713 0.5
971 26 0.944223 0.675073 0.5
377 29 0.00711411 0.65904 0.5
500 35 0.99204 0.684318 0.5
763 32 0.0450551 0.702844 0.5
889 29 0.04894 0.672279 0.5
843 32 0.0862838 0.670004 0.5
694 31 0.119874 0.715563 0.5
171 32 0.165395 0.702641 0.5
389 34 0.211962 0.739742 0.5
165 27 0.235958 0.747083 0.5
6 23 0.251998 0.728694 0.5
97 27 0.252408 0.707082 0.5
438 29 0.339471 0.718523 0.5
416 32 0.294203 0.685309 0.5
734 31 0.368828 0.71375 0.5
998 31 0.374081 0.68253 0.5
157 31 0.418938 0.685356 0.5
915 29 0.459905 0.706669 0.5
286 31 0.460836 0.730545 0.5
932 29 0.492818 0.684219 0.5
898 29 0.504581 0.705826 0.5
812 29 0.533005 0.686566 0.5
579 29 0.529927 0.727806 0.5
14 30 0.554081 0.679892 0.5
897 31 0.554674 0.716795 0.5
80 30 0.59451 0.699144 0.5
900 28 0.618226 0.699262 0.5
772 31 0.687885 0.72667 0.5
193 29 0.713273 0.725779 0.5
88 35 0.705229 0.758148 0.5
930 28 0.720774 0.700634 0.5
448 31 0.786498 0.681922 0.5
4 31 0.748682 0.679301 0.5
573 30 0.78209 0.70692 0.5
907 29 0.807431 0.670501 0.5
901 33 0.844221 0.705437 0.5
325 31 0.843385 0.733377 0.5
661 30 0.889457 0.680248 0.5
19 29 0.971001 0.667103 0.5
244 30 0.975122 0.700255 0.5
22 32 0.00693733 0.711365 0.5
127 27 0.0748063 0.706348 0.5
978 27 0.0592232 0.730403 0.5
957 33 0.0888208 0.728717 0.5
594 32 0.134393 0.740139 0.5
791 29 0.119718 0.75796 0.5
410 35 0.162475 0.73242 0.5
741 32 0.187645 0.720774 0.5
492 35 0.1753 0.758167 0.5
77 26 0.237559 0.772774 0.5
278 32 0.279384 0.711705 0.5
450 27 0.26304 0.745707 0.5
261 34 0.305757 0.738329 0.5
950 31 0.33729 0.743313 0.5
205 29 0.323053 0.815049 0.5
825 33 0.371524 0.777483 0.5
926 32 0.381492 0.748961 0.5
916 28 0.414447 0.708132 0.5
948 33 0.48535 0.725857 0.5
974 28 0.504581 0.743224 0.5
354 32 0.531621 0.751157 0.5
947 32 0.578989 0.774965 0.5
662 31 0.582586 0.73747 0.5
188 31 0.636391 0.726413 0.5
474 29 0.654881 0.770313 0.5
114 28 0.665094 0.714412 0.5
369 32 0.69471 0.788859 0.5
391 28 0.751679 0.733128 0.5
501 32 0.76057 0.755298 0.5
341 28 0.755664 0.700555 0.5
119 30 0.774916 0.732734 0.5
257 32 0.804639 0.734369 0.5
433 28 0.823834 0.723103 0.5
749 29 0.916164 0.706774 0.5
967 28 0.854528 0.754526 0.5
906 34 0.941893 0.704409 0.5
323 30 0.923072 0.729239 0.5
228 29 0.941938 0.745091 0.5
517 33 0.965947 0.736292 0.5
176 31 0.975174 0.769842 0.5
951 30 0.00599543 0.789324 0.5
268 37 0.037069 0.744087 0.5
801 28 0.0578004 0.777364 0.5
857 35 0.0879084 0.75553 0.5
515 30 0.0771134 0.792168 0.5
192 33 0.103624 0.784205 0.5
164 32 0.136574 0.794312 0.5
272 33 0.207244 0.772547 0.5
656 26 0.159937 0.776686 0.5
514 28 0.227601 0.793823 0.5
407 28 0.322991 0.765684 0.5
95 31 0.287592 0.761108 0.5
297 30 0.368808 0.801453 0.5
653 28 0.394767 0.796068 0.5
357 33 0.39268 0.832091 0.5
999 33 0.419826 0.732282 0.5
983 31 0.430995 0.761349 0.5
494 27 0.453382 0.782942 0.5
829 28 0.459729 0.757744 0.5
328 27 0.481894 0.793796 0.5
370 33 0.509866 0.767528 0.5
525 28 0.562336 0.753467 0.5
220 30 0.622557 0.744663 0.5
903 31 0.571986 0.801783 0.5
434 28 0.614216 0.77832 0.5
664 31 0.669246 0.805952 0.5
635 27 0.658549 0.735532 0.5
610 30 0.681696 0.751883 0.5
224 30 0.718403 0.809768 0.5
634 25 0.73035 0.747061 0.5
993 30 0.746755 0.780568 0.5
581 27 0.787868 0.77346 0.5
94 28 0.796967 0.800864 0.5
873 31 0.818624 0.779278 0.5
493 28 0.848618 0.785479 0.5
630 31 0.872126 0.778324 0.5
582 30 0.900364 0.741684 0.5
186 31 0.847354 0.824247 0.5
616 30 0.880047 0.750215 0.5
151 34 0.904767 0.776377 0.5
362 31 0.921583 0.752815 0.5
333 30 0.951368 0.769252 0.5
868 34 0.980112 0.836154 0.5
320 32 0.0399711 0.794946 0.5
569 32 0.0331252 0.850848 0.5
718 26 0.0157248 0.820323 0.5
654 28 0.0409576 0.817954 0.5
740 32 0.0994087 0.818355 0.5
13 31 0.117886 0.835521 0.5
530 30 0.138326 0.818003 0.5
672 31 0.160168 0.844619 0.5
815 30 0.15685 0.805503 0.5
279 31 0.214823 0.852968 0.5
20 32 0.235352 0.815797 0.5
123 25 0.255425 0.792319 0.5
498 30 0.275143 0.804781 0.5
195 33 0.280512 0.833753 0.5
711 32 0.309624 0.784044 0.5
2 30 0.338902 0.833504 0.5
770 35 0.42595 0.794842 0.5
96 30 0.432541 0.827543 0.5
313 32 0.462092 0.849752 0.5
378 31 0.462039 0.80522 0.5
925 27 0.502912 0.798382 0.5
36 33 0.547779 0.779357 0.5
738 31 0.505719 0.82618 0.5
422 30 0.541591 0.825044 0.5
502 28 0.559444 0.865497 0.5
150 34 0.607712 0.800596 0.5
565 29 0.623525 0.820709 0.5
761 30 0.648872 0.821598 0.5
680 30 0.673388 0.828634 0.5
953 30 0.6963 0.823477 0.5
233 29 0.697645 0.850364 0.5
726 30 0.746337 0.802715 0.5
962 38 0.759321 0.822915 0.5
87 29 0.826219 0.810137 0.5
456 31 0.838872 0.845531 0.5
794 31 0.86961 0.818023 0.5
808 29 0.941773 0.798026 0.5
586 36 0.968213 0.800558 0.5
158 33 0.984623 0.862398 0.5
758 27 0.0507511 0.896653 0.5
437 31 0.0642984 0.826047 0.5
765 27 0.049065 0.87343 0.5
246 32 0.0908618 0.847296 0.5
101 29 0.118358 0.87271 0.5
107 30 0.146442 0.863107 0.5
894 29 0.142853 0.886734 0.5
84 29 0.197348 0.824194 0.5
548 33 0.174419 0.869763 0.5
51 31 0.247644 0.857959 0.5
965 30 0.301232 0.8239 0.5
480 28 0.276916 0.86649 0.5
607 34 0.310151 0.870634 0.5
899 27 0.331849 0.894271 0.5
298 34 0.353429 0.855079 0.5
475 28 0.352984 0.882015 0.5
91 28 0.365086 0.829734 0.5
251 31 0.380121 0.860293 0.5
405 30 0.41948 0.864372 0.5
232 29 0.473492 0.824932 0.5
252 33 0.45977 0.895763 0.5
396 31 0.487614 0.848613 0.5
975 29 0.567484 0.890157 0.5
138 31 0.525434 0.858377 0.5
936 28 0.568947 0.825535 0.5
592 28 0.593451 0.877454 0.5
775 32 0.611492 0.842873 0.5
550 28 0.63428 0.853624 0.5
42 35 0.633571 0.878661 0.5
685 30 0.655192 0.865195 0.5
782 29 0.67892 0.879701 0.5
56 29 0.705264 0.874856 0.5
566 31 0.73877 0.858034 0.5
911 30 0.72044 0.83916 0.5
989 32 0.765897 0.848108 0.5
371 30 0.817477 0.859081 0.5
40 34 0.833159 0.884816 0.5
476 26 0.849555 0.904502 0.5
255 30 0.863124 0.843387 0.5
1000 33 0.912265 0.803168 0.5
860 30 0.89439 0.827125 0.5
461 31 0.931522 0.822079 0.5
43 33 0.9182 0.84781 0.5
131 29 0.958455 0.823962 0.5
722 32 0.0135279 0.879866 0.5
383 33 0.0741003 0.894528 0.5
122 30 0.0175288 0.909267 0.5
759 33 0.0694697 0.933303 0.5
93 36 0.0966378 0.88264 0.5
321 31 0.131407 0.906102 0.5
551 30 0.156106 0.938421 0.5
28 29 0.161842 0.906152 0.5
65 31 0.196716 0.890607 0.5
486 34 0.204374 0.923786 0.5
587 33 0.221412 0.897366 0.5
559 32 0.248937 0.881831 0.5
637 29 0.236821 0.915143 0.5
679 36 0.300796 0.899239 0.5
699 27 0.278787 0.915716 0.5
262 31 0.334319 0.92304 0.5
149 29 0.355384 0.907361 0.5
415 28 0.381085 0.893605 0.5
580 29 0.412573 0.915091 0.5
39 29 0.409492 0.891097 0.5
169 26 0.481499 0.874869 0.5
35 34 0.496883 0.895894 0.5
909 29 0.508905 0.873746 0.5
316 34 0.565294 0.920527 0.5
715 27 0.588884 0.912058 0.5
212 28 0.609885 0.921318 0.5
258 34 0.612554 0.896961 0.5
859 35 0.635577 0.918234 0.5
324 34 0.651455 0.895245 0.5
942 28 0.707268 0.899552 0.5
191 33 0.771685 0.933959 0.5
534 32 0.789437 0.859766 0.5
777 29 0.809316 0.880449 0.5
306 29 0.761657 0.903235 0.5
250 30 0.817033 0.901504 0.5
223 25 0.869016 0.866262 0.5
399 32 0.893457 0.860917 0.5
562 33 0.874691 0.893274 0.5
318 33 0.953323 0.86084 0.5
406 30 0.968583 0.902885 0.5
350 24 0.0256665 0.964723 0.5
813 30 0.0413659 0.923951 0.5
400 32 0.0920675 0.945372 0.5
668 27 0.093483 0.918396 0.5
247 27 0.14267 0.958189 0.5
296 30 0.147773 0.978521 0.5
540 32 0.199703 0.947195 0.5
52 34 0.179233 0.924036 0.5
650 30 0.245621 0.950351 0.5
478 30 0.284965 0.955105 0.5
555 30 0.304531 0.939916 0.5
954 27 0.35836 0.951884 0.5
991 31 0.333748 0.951667 0.5
263 30 0.381351 0.933008 0.5
861 33 0.40069 0.968033 0.5
363 28 0.428047 0.931679 0.5
519 27 0.404254 0.939395 0.5
552 30 0.44853 0.916004 0.5
452 32 0.474373 0.952111 0.5
319 30 0.48629 0.9198 0.5
669 35 0.531472 0.946052 0.5
645 32 0.513779 0.915402 0.5
683 32 0.564955 0.953662 0.5
135 30 0.592412 0.936899 0.5
697 33 0.63036 0.968637 0.5
129 33 0.612208 0.95052 0.5
339 33 0.655985 0.952463 0.5
264 31 0.679773 0.980953 0.5
44 32 0.671209 0.919059 0.5
254 32 0.739738 0.915356 0.5
394 30 0.722402 0.951156 0.5
788 32 0.703437 0.96797 0.5
733 34 0.785257 0.967862 0.5
508 29 0.799962 0.91769 0.5
134 32 0.826108 0.969567 0.5
593 28 0.829064 0.944562 0.5
384 36 0.830288 0.921921 0.5
418 32 0.900369 0.932063 0.5
304 29 0.89064 0.910669 0.5
9 29 0.90408 0.956315 0.5
67 30 0.936283 0.880837 0.5
787 29 0.994078 0.918553 0.5
467 31 0.959577 0.924472 0.5
229 31 0.99818 0.946355 0.5
710 33 0.00942767 0.980169 0.5
160 30 0.100843 0.967038 0.5
99 28 0.0624193 0.956418 0.5
200 32 0.130359 0.937654 0.5
748 33 0.120922 0.981195 0.5
108 32 0.175788 0.986326 0.5
638 38 0.224938 0.974605 0.5
145 28 0.199292 0.97394 0.5
945 32 0.2422 0.0284793 0.5
219 29 0.263523 0.981965 0.5
270 31 0.304959 0.98362 0.5
344 26 0.285592 0.0160998 0.5
172 26 0.312051 0.961535 0.5
190 35 0.434629 0.977805 0.5
156 28 0.35773 0.979863 0.5
852 32 0.459181 0.978375 0.5
355 31 0.498004 0.947746 0.5
273 29 0.523557 0.0175478 0.5
649 33 0.515005 0.976448 0.5
717 30 0.535481 0.994906 0.5
411 31 0.606586 0.987999 0.5
792 31 0.568967 0.985311 0.5
76 28 0.589092 0.963098 0.5
1 28 0.71787 0.98622 0.5
202 34 0.654208 0.983748 0.5
335 32 0.756938 0.00808758 0.5
287 33 0.854098 0.968024 0.5
248 28 0.860217 0.939653 0.5
890 32 0.87514 0.988534 0.5
504 34 0.887836 0.00853862 0.5
567 30 0.939287 0.966671 0.5
524 32 0.943916 0.941485 0.5
667 29 0.979717 0.983982 0.5
421 32 0.975812 0.949231 0.5
