ITEM: TIMESTEP
1510000
ITEM: NUMBER OF ATOMS
1000
ITEM: BOX BOUNDS pp pp pp
-2.2526731999999999e+01 2.2526731999999999e+01
-2.2526731999999999e+01 2.2526731999999999e+01
-5.0000000000000000e-01 5.0000000000000000e-01
ITEM: ATOMS id type xs ys zs
451 32 0.0286657 0.0573318 0.5
551 30 0.0412467 0.00342412 0.5
704 32 0.0566997 0.0325248 0.5
830 30 0.102563 0.0413377 0.5
531 29 0.120583 0.999315 0.5
81 29 0.132182 0.0439008 0.5
71 32 0.147518 0.0221833 0.5
486 34 0.21118 0.0174041 0.5
555 30 0.178526 0.994358 0.5
140 30 0.231914 0.0563568 0.5
492 35 0.26725 0.0178805 0.5
647 30 0.313461 0.064051 0.5
514 28 0.235935 0.0345954 0.5
519 27 0.377334 0.998299 0.5
767 35 0.342054 0.0327017 0.5
687 32 0.425492 0.0357704 0.5
466 36 0.472311 0.0300023 0.5
174 31 0.456767 0.0116022 0.5
217 31 0.433911 0.0123734 0.5
263 30 0.511299 0.0266919 0.5
300 33 0.507474 0.00218603 0.5
363 28 0.53676 0.0131391 0.5
76 28 0.5611 0.0361481 0.5
990 35 0.632294 0.00669233 0.5
29 30 0.589124 0.0224726 0.5
231 31 0.620081 0.0445029 0.5
631 30 0.675618 0.0304671 0.5
402 34 0.711588 0.00936205 0.5
788 32 0.725896 0.0575718 0.5
623 33 0.736177 0.0240479 0.5
12 32 0.784645 0.0282622 0.5
254 32 0.811729 0.0311355 0.5
469 33 0.873933 0.00651022 0.5
508 29 0.851063 0.0231927 0.5
988 25 0.891279 0.0224458 0.5
387 30 0.896315 0.999698 0.5
629 28 0.915481 0.0230145 0.5
386 33 0.952112 0.0423859 0.5
247 27 0.970059 0.989012 0.5
153 34 0.975792 0.016766 0.5
350 24 0.0238256 0.0804465 0.5
15 32 0.00330078 0.061139 0.5
133 31 0.0328498 0.0324516 0.5
835 32 0.081672 0.0501897 0.5
818 28 0.144829 0.0856228 0.5
638 38 0.164946 0.0475706 0.5
613 29 0.189849 0.0382935 0.5
337 30 0.206338 0.0642724 0.5
625 31 0.238804 0.0929573 0.5
344 26 0.276492 0.0653465 0.5
589 27 0.267601 0.0421058 0.5
128 31 0.337326 0.0565301 0.5
879 32 0.388631 0.028975 0.5
725 34 0.361187 0.0175886 0.5
874 34 0.449281 0.0675253 0.5
156 28 0.464055 0.0875667 0.5
627 32 0.486501 0.0510292 0.5
984 31 0.449646 0.105977 0.5
799 29 0.515538 0.0577826 0.5
861 33 0.497005 0.0745116 0.5
893 30 0.597984 0.0594292 0.5
38 30 0.564514 0.087739 0.5
649 33 0.559162 0.064745 0.5
643 29 0.629914 0.0819549 0.5
470 30 0.642931 0.0489449 0.5
129 33 0.618203 0.106546 0.5
339 33 0.654273 0.0761028 0.5
733 34 0.695606 0.0748264 0.5
368 32 0.710445 0.0388785 0.5
335 32 0.769121 0.0616376 0.5
866 30 0.788715 0.0734332 0.5
326 36 0.838299 0.0453509 0.5
890 32 0.872042 0.0376348 0.5
134 32 0.915865 0.119246 0.5
476 26 0.925686 0.0642498 0.5
431 31 0.98489 0.0443268 0.5
148 32 -0.00324782 0.0896432 0.5
667 29 0.0148512 0.11652 0.5
336 33 0.0412366 0.110558 0.5
447 33 0.0493718 0.0687602 0.5
281 28 0.119772 0.0843838 0.5
881 29 0.138867 0.114737 0.5
206 31 0.172415 0.0786962 0.5
142 31 0.203566 0.0940234 0.5
5 32 0.259788 0.0813196 0.5
941 30 0.282003 0.0908005 0.5
23 29 0.322231 0.0966695 0.5
849 33 0.327472 0.134819 0.5
243 32 0.356141 0.0717726 0.5
676 31 0.373646 0.0553598 0.5
194 31 0.379469 0.10138 0.5
3 32 0.384835 0.0754832 0.5
403 28 0.419451 0.070722 0.5
746 28 0.402149 0.088655 0.5
57 31 0.422 0.107057 0.5
210 29 0.533092 0.0901657 0.5
273 29 0.55072 0.127351 0.5
398 34 0.593201 0.0857307 0.5
717 30 0.643789 0.110122 0.5
624 27 0.667272 0.112102 0.5
264 31 0.720532 0.0941336 0.5
705 30 0.74032 0.0797234 0.5
372 29 0.764431 0.100206 0.5
411 31 0.788394 0.0963317 0.5
887 31 0.812328 0.0717214 0.5
126 31 0.83031 0.120633 0.5
338 30 0.858249 0.0685711 0.5
309 32 0.876285 0.101102 0.5
935 28 0.930013 0.0950197 0.5
601 31 0.956843 0.0999316 0.5
331 29 0.960906 0.0696784 0.5
539 31 0.0357772 0.136583 0.5
18 36 0.0172093 0.152562 0.5
271 30 0.0637866 0.0973838 0.5
154 29 0.0475591 0.156257 0.5
462 30 0.0743247 0.0768045 0.5
826 30 0.101008 0.121658 0.5
485 32 0.185053 0.131689 0.5
816 31 0.197158 0.152065 0.5
120 30 0.223512 0.125208 0.5
651 28 0.254338 0.11492 0.5
249 32 0.312148 0.156662 0.5
739 36 0.353645 0.0960292 0.5
659 33 0.383605 0.147676 0.5
73 31 0.335315 0.173748 0.5
938 27 0.365094 0.125967 0.5
824 31 0.39021 0.125404 0.5
814 31 0.417006 0.131942 0.5
303 30 0.452383 0.138373 0.5
742 31 0.469084 0.119991 0.5
882 33 0.486907 0.135962 0.5
578 30 0.514392 0.153758 0.5
144 32 0.508906 0.104418 0.5
443 29 0.561411 0.154162 0.5
292 29 0.580402 0.167262 0.5
83 31 0.511309 0.13099 0.5
522 33 0.578281 0.112278 0.5
26 35 0.627349 0.132484 0.5
918 35 0.722133 0.122069 0.5
774 32 0.671145 0.156456 0.5
529 29 0.699446 0.129296 0.5
783 28 0.75376 0.119876 0.5
506 33 0.784953 0.122131 0.5
886 29 0.744539 0.197715 0.5
595 33 0.808721 0.131533 0.5
147 30 0.769957 0.179608 0.5
17 29 0.842459 0.0853022 0.5
778 28 0.759577 0.144265 0.5
182 31 0.829612 0.1552 0.5
168 33 0.853594 0.134624 0.5
267 29 0.864145 0.159093 0.5
208 31 0.847093 0.173197 0.5
876 31 0.897473 0.143359 0.5
785 32 0.961866 0.124732 0.5
535 28 0.98766 0.109647 0.5
382 34 0.989623 0.145144 0.5
719 27 0.0237486 0.177574 0.5
374 32 0.0768715 0.166173 0.5
617 32 0.0814389 0.209279 0.5
888 29 0.142584 0.195476 0.5
41 31 0.0990331 0.149656 0.5
585 31 0.144595 0.152052 0.5
640 33 0.168646 0.17083 0.5
720 29 0.15835 0.132771 0.5
771 28 0.121324 0.131378 0.5
620 29 0.232247 0.150054 0.5
577 33 0.21624 0.18092 0.5
633 30 0.267416 0.181146 0.5
139 30 0.269999 0.153382 0.5
597 28 0.288379 0.168635 0.5
727 33 0.316506 0.205917 0.5
196 31 0.348733 0.195527 0.5
125 30 0.378832 0.184277 0.5
744 32 0.420228 0.166094 0.5
987 32 0.462059 0.176865 0.5
648 28 0.430799 0.186987 0.5
312 34 0.492999 0.165878 0.5
700 28 0.539468 0.166189 0.5
241 32 0.57938 0.193388 0.5
590 28 0.605897 0.175833 0.5
834 31 0.604048 0.151198 0.5
367 29 0.625775 0.202542 0.5
70 29 0.681764 0.183291 0.5
497 31 0.643049 0.163979 0.5
353 30 0.67467 0.208396 0.5
764 33 0.700843 0.158511 0.5
112 28 0.782872 0.206552 0.5
952 32 0.803002 0.194908 0.5
571 36 0.888637 0.190633 0.5
693 30 0.90228 0.170347 0.5
615 29 0.970689 0.174495 0.5
59 27 0.926507 0.178477 0.5
924 28 0.936047 0.141646 0.5
920 30 0.985542 0.192667 0.5
295 32 0.0106252 0.202256 0.5
946 30 0.0213576 0.224423 0.5
472 29 0.0574498 0.218263 0.5
528 32 0.0659465 0.245861 0.5
598 32 0.127989 0.248663 0.5
30 31 0.123137 0.212725 0.5
293 33 0.171569 0.201112 0.5
917 34 0.247047 0.198891 0.5
639 26 0.293324 0.192507 0.5
288 33 0.29437 0.216778 0.5
677 34 0.340342 0.222742 0.5
275 31 0.384681 0.234081 0.5
109 36 0.409823 0.237147 0.5
513 29 0.421718 0.214827 0.5
533 33 0.382544 0.259309 0.5
845 29 0.446306 0.22681 0.5
663 32 0.51702 0.187633 0.5
908 26 0.484625 0.230291 0.5
526 30 0.447041 0.204313 0.5
875 32 0.507305 0.253003 0.5
789 29 0.524864 0.220916 0.5
330 29 0.558301 0.2151 0.5
870 30 0.544816 0.245435 0.5
929 32 0.58152 0.230984 0.5
641 30 0.654341 0.220743 0.5
260 29 0.640033 0.255838 0.5
100 32 0.701357 0.20594 0.5
130 29 0.720357 0.181306 0.5
290 31 0.755719 0.225177 0.5
477 31 0.814767 0.241432 0.5
963 29 0.771488 0.241001 0.5
923 32 0.83856 0.229623 0.5
121 31 0.851977 0.206697 0.5
184 29 0.88349 0.219296 0.5
162 31 0.912729 0.232989 0.5
671 28 0.951743 0.236256 0.5
27 32 0.952197 0.199466 0.5
63 30 0.981603 0.220969 0.5
800 27 0.059669 0.272044 0.5
516 35 0.0842112 0.274744 0.5
92 29 0.102411 0.249883 0.5
72 28 0.103117 0.228033 0.5
840 28 0.180814 0.255117 0.5
842 29 0.13304 0.282743 0.5
82 32 0.205531 0.264574 0.5
146 28 0.190915 0.22219 0.5
307 31 0.211095 0.205916 0.5
786 34 0.242501 0.224144 0.5
706 31 0.285753 0.256463 0.5
214 32 0.258499 0.268737 0.5
86 30 0.232691 0.253959 0.5
803 31 0.265424 0.238794 0.5
124 29 0.304381 0.280153 0.5
977 33 0.316934 0.243131 0.5
884 33 0.360545 0.240771 0.5
414 32 0.378484 0.28578 0.5
265 36 0.456721 0.25007 0.5
994 29 0.403819 0.29854 0.5
557 34 0.483364 0.26616 0.5
985 28 0.500256 0.28143 0.5
757 34 0.608884 0.253335 0.5
674 29 0.600585 0.212228 0.5
390 31 0.661856 0.258857 0.5
536 29 0.63858 0.311586 0.5
755 28 0.696081 0.256308 0.5
969 30 0.715847 0.300007 0.5
49 29 0.717115 0.24769 0.5
846 32 0.741484 0.247031 0.5
561 31 0.731957 0.271698 0.5
276 32 0.757908 0.266229 0.5
484 32 0.822658 0.281776 0.5
218 27 0.842592 0.261244 0.5
483 29 0.866609 0.252805 0.5
412 30 0.893495 0.270959 0.5
751 28 0.977523 0.244043 0.5
712 30 0.947291 0.268106 0.5
600 33 0.925626 0.255956 0.5
560 30 0.0241664 0.247117 0.5
211 25 0.977695 0.284177 0.5
491 30 0.0296328 0.284103 0.5
110 30 0.0300384 0.316386 0.5
776 31 0.0573345 0.298054 0.5
821 28 0.084299 0.306251 0.5
966 28 0.157805 0.312825 0.5
891 32 0.131346 0.306894 0.5
745 32 0.187024 0.293187 0.5
880 35 0.212278 0.287886 0.5
381 31 0.213494 0.311853 0.5
871 29 0.268494 0.294454 0.5
375 30 0.239983 0.303681 0.5
626 33 0.297678 0.312726 0.5
269 31 0.323545 0.307401 0.5
332 29 0.342002 0.294412 0.5
404 31 0.406285 0.340386 0.5
197 30 0.447645 0.274076 0.5
507 30 0.490204 0.304347 0.5
819 30 0.468866 0.296252 0.5
839 29 0.476442 0.335665 0.5
549 30 0.535021 0.29009 0.5
902 30 0.554533 0.278174 0.5
657 28 0.585235 0.274121 0.5
642 31 0.571377 0.295964 0.5
604 27 0.629336 0.278232 0.5
499 25 0.608877 0.293194 0.5
187 32 0.6513 0.284877 0.5
618 33 0.69187 0.28649 0.5
226 31 0.696161 0.33047 0.5
837 32 0.759125 0.294633 0.5
106 26 0.845886 0.303153 0.5
392 30 0.797935 0.262876 0.5
464 30 0.840024 0.327818 0.5
132 31 0.862252 0.321693 0.5
54 30 0.885983 0.313539 0.5
622 29 0.908421 0.294956 0.5
596 29 0.985999 0.325982 0.5
570 32 0.000613268 0.276973 0.5
237 32 0.0189753 0.353641 0.5
419 32 0.0462334 0.339984 0.5
811 29 0.0855068 0.370421 0.5
608 30 0.104316 0.391213 0.5
311 29 0.0972427 0.35101 0.5
111 30 0.144751 0.333312 0.5
425 31 0.220879 0.341195 0.5
538 32 0.184193 0.351052 0.5
177 28 0.242775 0.349983 0.5
75 26 0.26171 0.315041 0.5
895 30 0.264674 0.345708 0.5
152 32 0.29127 0.33871 0.5
666 31 0.371787 0.310195 0.5
166 30 0.353647 0.363928 0.5
453 28 0.345359 0.327975 0.5
380 34 0.375309 0.35099 0.5
58 29 0.432083 0.311823 0.5
532 29 0.437345 0.341324 0.5
729 27 0.455246 0.316209 0.5
934 28 0.520719 0.371478 0.5
90 35 0.502693 0.328708 0.5
285 30 0.547853 0.316296 0.5
342 34 0.586065 0.33549 0.5
833 31 0.561456 0.335385 0.5
457 34 0.620385 0.327861 0.5
877 30 0.609865 0.349197 0.5
621 29 0.663052 0.313818 0.5
69 33 0.669904 0.336682 0.5
53 33 0.702786 0.357548 0.5
976 27 0.751819 0.350847 0.5
708 28 0.740221 0.319591 0.5
546 31 0.769639 0.321687 0.5
855 31 0.777141 0.359457 0.5
575 31 0.813834 0.330914 0.5
973 26 0.825741 0.304334 0.5
707 37 0.918039 0.3267 0.5
510 33 0.93526 0.292351 0.5
167 29 0.938899 0.363078 0.5
798 32 0.967182 0.350082 0.5
512 31 -0.00128855 0.303104 0.5
736 28 0.994909 0.365096 0.5
583 28 0.0188869 0.391153 0.5
118 28 0.0571307 0.366668 0.5
440 34 0.129586 0.390995 0.5
878 31 0.142034 0.358715 0.5
365 29 0.119877 0.330962 0.5
743 31 0.16125 0.373614 0.5
161 29 0.205825 0.375931 0.5
673 29 0.184572 0.382818 0.5
753 31 0.242915 0.374151 0.5
820 30 0.22587 0.397669 0.5
731 32 0.278874 0.378999 0.5
207 31 0.261743 0.394568 0.5
996 28 0.300137 0.360583 0.5
869 31 0.327569 0.365001 0.5
735 29 0.344438 0.386264 0.5
221 27 0.369319 0.381722 0.5
940 29 0.406745 0.378299 0.5
588 29 0.432016 0.396543 0.5
294 30 0.463164 0.359604 0.5
958 27 0.460629 0.389049 0.5
793 30 0.484167 0.393376 0.5
225 32 0.529941 0.340527 0.5
299 28 0.548155 0.361148 0.5
779 34 0.551312 0.390525 0.5
558 31 0.605026 0.377375 0.5
85 27 0.681931 0.379886 0.5
280 34 0.704094 0.388855 0.5
37 30 0.649209 0.385472 0.5
308 28 0.730581 0.360263 0.5
230 31 0.722337 0.410115 0.5
444 32 0.753506 0.375969 0.5
992 33 0.800359 0.36854 0.5
33 30 0.835099 0.365099 0.5
605 28 0.850773 0.381182 0.5
175 36 0.878051 0.341903 0.5
349 35 0.909686 0.390341 0.5
544 29 0.879232 0.385992 0.5
360 24 0.90275 0.363779 0.5
301 33 0.979485 0.389752 0.5
242 33 0.033624 0.418828 0.5
611 33 0.978894 0.425904 0.5
291 29 0.0574628 0.407112 0.5
8 28 0.0794647 0.411925 0.5
628 31 0.123303 0.447561 0.5
599 32 0.151484 0.40353 0.5
862 28 0.138036 0.423242 0.5
542 31 0.170141 0.418903 0.5
343 32 0.196056 0.433752 0.5
780 30 0.219754 0.424913 0.5
439 29 0.246374 0.4131 0.5
728 32 0.256552 0.445723 0.5
572 32 0.290567 0.405763 0.5
807 27 0.311328 0.381054 0.5
10 30 0.337371 0.409702 0.5
752 28 0.391693 0.449165 0.5
361 32 0.402736 0.413965 0.5
721 29 0.353185 0.44764 0.5
163 28 0.427157 0.431037 0.5
658 33 0.444195 0.373052 0.5
199 33 0.490231 0.418941 0.5
914 28 0.514396 0.397721 0.5
754 31 0.537064 0.418015 0.5
455 31 0.568102 0.411905 0.5
684 28 0.57624 0.382053 0.5
867 33 0.59261 0.4056 0.5
856 29 0.619257 0.433909 0.5
143 30 0.623304 0.402057 0.5
709 30 0.666897 0.361307 0.5
178 27 0.742183 0.399303 0.5
591 28 0.680892 0.453379 0.5
919 27 0.819183 0.388451 0.5
505 32 0.724708 0.436009 0.5
766 30 0.785155 0.416509 0.5
347 37 0.856864 0.439174 0.5
933 30 0.853312 0.41314 0.5
939 34 0.878266 0.421318 0.5
408 29 0.905102 0.417204 0.5
541 32 0.938431 0.408196 0.5
912 34 0.977135 0.483535 0.5
314 31 0.0176406 0.448572 0.5
904 32 0.0357941 0.473207 0.5
346 30 0.0964841 0.491603 0.5
817 33 0.0580579 0.441081 0.5
554 30 0.0929563 0.462026 0.5
675 29 0.119347 0.478636 0.5
356 28 0.152543 0.452739 0.5
55 29 0.142549 0.481499 0.5
828 30 0.175829 0.443735 0.5
284 33 0.198088 0.486735 0.5
348 29 0.203577 0.458054 0.5
806 29 0.233547 0.44416 0.5
430 32 0.279029 0.460211 0.5
50 31 0.282996 0.436287 0.5
62 29 0.373986 0.424112 0.5
352 29 0.305474 0.436691 0.5
612 29 0.329731 0.466921 0.5
689 30 0.373524 0.516537 0.5
827 35 0.417669 0.464602 0.5
678 30 0.476756 0.463527 0.5
393 34 0.452912 0.447686 0.5
256 32 0.472657 0.489414 0.5
490 31 0.517931 0.436419 0.5
170 32 0.54905 0.460033 0.5
66 31 0.548981 0.484051 0.5
227 31 0.56593 0.438989 0.5
317 33 0.591231 0.437601 0.5
922 33 0.610789 0.461623 0.5
863 29 0.650724 0.452975 0.5
116 27 0.660978 0.426626 0.5
851 31 0.670215 0.523147 0.5
98 33 0.693108 0.424116 0.5
201 32 0.751708 0.451764 0.5
427 31 0.762201 0.409081 0.5
537 29 0.779587 0.443652 0.5
756 29 0.840957 0.466751 0.5
921 33 0.761207 0.522933 0.5
960 35 0.85409 0.489657 0.5
686 30 0.899008 0.4643 0.5
141 31 0.87273 0.511068 0.5
838 27 0.925456 0.448111 0.5
750 31 0.983425 0.450216 0.5
117 31 0.0142102 0.497021 0.5
432 30 0.137809 0.52238 0.5
345 31 0.119438 0.539518 0.5
503 34 0.162785 0.562177 0.5
395 29 0.178643 0.467372 0.5
435 27 0.210514 0.510264 0.5
234 32 0.229572 0.467125 0.5
690 29 0.241641 0.500191 0.5
970 27 0.268246 0.488952 0.5
896 30 0.274061 0.510612 0.5
702 29 0.303571 0.494059 0.5
982 31 0.302658 0.469602 0.5
397 31 0.329985 0.579452 0.5
334 32 0.348635 0.483466 0.5
482 30 0.372474 0.488772 0.5
388 28 0.338177 0.544014 0.5
329 32 0.347705 0.522522 0.5
853 25 0.448222 0.494745 0.5
423 32 0.410801 0.522124 0.5
14 30 0.461813 0.518997 0.5
872 34 0.520605 0.49745 0.5
692 29 0.518653 0.522549 0.5
60 29 0.582709 0.470517 0.5
315 29 0.648091 0.47856 0.5
850 27 0.615194 0.4839 0.5
496 30 0.627889 0.501889 0.5
413 28 0.650075 0.507845 0.5
682 33 0.701523 0.528038 0.5
198 33 0.717627 0.545266 0.5
282 29 0.774106 0.473704 0.5
885 28 0.722684 0.510479 0.5
545 34 0.797637 0.517606 0.5
796 29 0.741892 0.550938 0.5
181 31 0.803815 0.455168 0.5
795 33 0.818908 0.537497 0.5
436 31 0.844654 0.514784 0.5
236 35 0.873644 0.536674 0.5
968 34 0.938804 0.488584 0.5
495 32 0.948899 0.463364 0.5
701 34 0.952653 0.437545 0.5
460 32 0.950468 0.513715 0.5
426 27 0.0241161 0.524837 0.5
858 32 0.0643489 0.484668 0.5
944 30 0.0861139 0.546762 0.5
79 34 0.0777712 0.516105 0.5
603 30 0.193416 0.557994 0.5
489 26 0.16618 0.497678 0.5
259 26 0.198468 0.528525 0.5
327 31 0.187692 0.506852 0.5
31 27 0.217331 0.545153 0.5
185 33 0.266772 0.535896 0.5
468 29 0.290505 0.53943 0.5
606 32 0.243211 0.560567 0.5
892 27 0.307215 0.520704 0.5
730 31 0.360246 0.546209 0.5
790 31 0.385516 0.539136 0.5
844 32 0.433745 0.515645 0.5
429 29 0.472253 0.539972 0.5
836 30 0.498162 0.47734 0.5
943 37 0.497625 0.536673 0.5
959 29 0.498529 0.506657 0.5
420 32 0.536845 0.538642 0.5
619 31 0.568704 0.500507 0.5
804 30 0.56073 0.53978 0.5
424 27 0.584096 0.523994 0.5
995 28 0.660616 0.558039 0.5
928 32 0.752029 0.571482 0.5
64 31 0.814521 0.56218 0.5
810 31 0.79505 0.545968 0.5
865 26 0.846277 0.54194 0.5
695 26 0.861933 0.556303 0.5
183 29 0.912491 0.545923 0.5
302 28 0.905295 0.498865 0.5
239 33 0.92402 0.521936 0.5
266 33 0.906143 0.579585 0.5
180 32 0.975591 0.553585 0.5
543 32 0.0274839 0.554085 0.5
454 31 0.0755055 0.578487 0.5
68 31 0.0545977 0.53134 0.5
32 26 0.0999039 0.603803 0.5
660 29 0.15212 0.597949 0.5
377 29 0.0981859 0.582022 0.5
401 28 0.171628 0.615853 0.5
351 31 0.19328 0.60937 0.5
283 33 0.222566 0.587199 0.5
487 30 0.197491 0.585901 0.5
438 29 0.290984 0.563101 0.5
797 31 0.265232 0.580673 0.5
102 27 0.307909 0.584471 0.5
103 31 0.320027 0.604869 0.5
723 30 0.276695 0.612037 0.5
446 29 0.326163 0.630216 0.5
670 32 0.387752 0.5692 0.5
781 30 0.360003 0.575684 0.5
366 30 0.400405 0.597065 0.5
89 30 0.407513 0.554307 0.5
203 35 0.460122 0.591048 0.5
61 31 0.431513 0.557945 0.5
511 34 0.478137 0.567474 0.5
45 29 0.51303 0.558998 0.5
322 27 0.557961 0.571226 0.5
137 32 0.589288 0.582687 0.5
188 31 0.586609 0.553111 0.5
25 32 0.636245 0.529028 0.5
115 27 0.689903 0.547942 0.5
521 31 0.691796 0.571475 0.5
848 30 0.714778 0.571705 0.5
883 33 0.769171 0.587391 0.5
222 32 0.769339 0.623085 0.5
235 33 0.814375 0.589998 0.5
48 28 0.835423 0.579491 0.5
47 31 0.863402 0.582654 0.5
910 30 0.927117 0.60255 0.5
215 29 0.940553 0.561842 0.5
661 30 0.997423 0.569907 0.5
24 30 0.0630074 0.598502 0.5
602 28 0.0305488 0.587046 0.5
632 30 0.100248 0.681017 0.5
442 33 0.099477 0.646012 0.5
289 27 0.125308 0.636991 0.5
359 32 0.124216 0.593493 0.5
564 29 0.139326 0.619267 0.5
802 33 0.211691 0.640499 0.5
822 32 0.223291 0.615221 0.5
636 27 0.307539 0.666932 0.5
518 30 0.244748 0.605903 0.5
732 29 0.283811 0.649387 0.5
509 29 0.308397 0.643135 0.5
78 26 0.367023 0.644698 0.5
445 33 0.350147 0.603725 0.5
46 32 0.382515 0.622152 0.5
74 33 0.43529 0.590566 0.5
105 31 0.474586 0.632907 0.5
916 28 0.489616 0.655329 0.5
986 30 0.504094 0.637419 0.5
379 29 0.495895 0.615866 0.5
972 30 0.48678 0.589161 0.5
473 31 0.54015 0.625105 0.5
434 28 0.548323 0.662847 0.5
784 29 0.536606 0.581697 0.5
189 22 0.570903 0.606272 0.5
525 28 0.623767 0.559395 0.5
841 31 0.640148 0.580441 0.5
747 27 0.673605 0.583333 0.5
614 30 0.66243 0.655949 0.5
159 32 0.672466 0.612064 0.5
520 31 0.704659 0.64398 0.5
713 33 0.717819 0.599622 0.5
459 33 0.801775 0.611045 0.5
155 30 0.79588 0.575107 0.5
245 26 0.839804 0.627197 0.5
584 28 0.856999 0.612776 0.5
749 29 0.868705 0.645274 0.5
16 31 0.883745 0.601685 0.5
500 35 0.905521 0.630633 0.5
323 30 0.9487 0.590561 0.5
997 32 0.945299 0.64003 0.5
173 30 0.976254 0.598043 0.5
768 31 0.992715 0.623871 0.5
955 29 0.991393 0.654526 0.5
127 27 0.0456499 0.636744 0.5
240 30 0.0627439 0.662459 0.5
19 29 0.122531 0.661497 0.5
809 29 0.154922 0.658563 0.5
463 29 0.171562 0.644169 0.5
179 31 0.255176 0.631507 0.5
553 31 0.196735 0.667753 0.5
864 28 0.228793 0.655204 0.5
696 29 0.286063 0.691993 0.5
277 29 0.329109 0.677977 0.5
274 29 0.334438 0.654745 0.5
773 26 0.35017 0.669103 0.5
980 29 0.393348 0.649148 0.5
812 29 0.422295 0.620364 0.5
479 26 0.496733 0.713568 0.5
204 32 0.441385 0.641784 0.5
80 30 0.51904 0.65833 0.5
494 27 0.504901 0.67966 0.5
576 32 0.532229 0.687131 0.5
646 29 0.577469 0.662514 0.5
832 35 0.625944 0.605152 0.5
114 28 0.624545 0.642623 0.5
932 29 0.598967 0.629765 0.5
610 30 0.599943 0.656711 0.5
927 31 0.672176 0.684446 0.5
573 30 0.636864 0.66773 0.5
582 30 0.697531 0.682586 0.5
433 28 0.673257 0.635652 0.5
21 31 0.71523 0.666764 0.5
716 30 0.757784 0.649495 0.5
257 32 0.731665 0.630284 0.5
681 27 0.774785 0.679758 0.5
808 29 0.790117 0.664884 0.5
616 30 0.809055 0.649489 0.5
176 31 0.856938 0.665418 0.5
481 30 0.891774 0.656409 0.5
563 33 0.89555 0.704199 0.5
527 29 0.908595 0.685582 0.5
971 26 0.0239254 0.665564 0.5
364 31 0.969553 0.640908 0.5
889 29 0.00167685 0.700971 0.5
11 34 0.0719461 0.694745 0.5
698 26 0.0428703 0.732334 0.5
410 35 0.0928706 0.708395 0.5
216 36 0.132783 0.68362 0.5
471 28 0.126467 0.709222 0.5
981 30 0.167049 0.692155 0.5
385 31 0.22248 0.735004 0.5
417 28 0.247886 0.720821 0.5
843 32 0.201266 0.712951 0.5
376 35 0.264198 0.665907 0.5
714 30 0.297388 0.716714 0.5
998 31 0.264391 0.697835 0.5
965 30 0.346545 0.693146 0.5
261 34 0.387709 0.675197 0.5
609 30 0.435093 0.702845 0.5
416 32 0.420203 0.669137 0.5
157 31 0.457282 0.665973 0.5
734 31 0.480505 0.730492 0.5
313 32 0.466973 0.710598 0.5
550 28 0.52136 0.731239 0.5
897 31 0.546218 0.729489 0.5
915 29 0.559877 0.682796 0.5
898 29 0.602699 0.697493 0.5
286 31 0.623319 0.686353 0.5
931 30 0.625519 0.712253 0.5
340 27 0.646415 0.696296 0.5
905 30 0.64605 0.721928 0.5
762 31 0.694317 0.720339 0.5
907 29 0.718332 0.719406 0.5
253 30 0.766941 0.734718 0.5
493 28 0.723001 0.689493 0.5
1000 33 0.764467 0.700552 0.5
581 27 0.809781 0.708111 0.5
906 34 0.813589 0.685428 0.5
794 31 0.865685 0.688704 0.5
630 31 0.845648 0.705802 0.5
151 34 0.92327 0.726711 0.5
763 32 0.938907 0.701553 0.5
228 29 0.956419 0.663965 0.5
362 31 0.928208 0.659903 0.5
517 33 0.990428 0.724809 0.5
894 29 0.0268468 0.711854 0.5
656 26 0.0677045 0.729913 0.5
857 35 0.0434241 0.756114 0.5
815 30 0.127187 0.736666 0.5
321 31 0.166491 0.715625 0.5
84 29 0.192928 0.733906 0.5
428 29 0.206263 0.797879 0.5
113 33 0.273269 0.732784 0.5
97 27 0.217678 0.760373 0.5
389 34 0.321978 0.717757 0.5
950 31 0.302702 0.743554 0.5
760 28 0.375827 0.715535 0.5
238 28 0.390637 0.734874 0.5
711 32 0.340534 0.736341 0.5
568 31 0.399453 0.696822 0.5
770 35 0.399205 0.776488 0.5
370 33 0.454105 0.732576 0.5
378 31 0.418073 0.736332 0.5
502 28 0.52229 0.754893 0.5
354 32 0.495846 0.748042 0.5
947 32 0.561234 0.7806 0.5
328 27 0.546333 0.75479 0.5
948 33 0.568943 0.712585 0.5
829 28 0.580577 0.735268 0.5
772 31 0.61319 0.769054 0.5
655 30 0.604456 0.738728 0.5
36 33 0.639671 0.748126 0.5
358 29 0.669613 0.753522 0.5
391 28 0.692058 0.75907 0.5
448 31 0.718872 0.743355 0.5
962 38 0.750619 0.753394 0.5
901 33 0.785011 0.718131 0.5
501 32 0.794948 0.75247 0.5
873 31 0.85941 0.747129 0.5
967 28 0.822427 0.760089 0.5
325 31 0.827141 0.73454 0.5
461 31 0.893388 0.731284 0.5
94 28 0.85776 0.776652 0.5
718 26 0.881766 0.751831 0.5
131 29 0.914761 0.762406 0.5
399 32 0.968882 0.702338 0.5
333 30 0.966434 0.726198 0.5
244 30 0.987467 0.683262 0.5
22 32 0.00928037 0.752649 0.5
978 27 0.0531434 0.77764 0.5
791 29 0.0783969 0.755043 0.5
694 31 0.123265 0.759116 0.5
515 30 0.160724 0.758055 0.5
979 32 0.128585 0.801047 0.5
77 26 0.190253 0.771232 0.5
741 32 0.200436 0.828164 0.5
644 30 0.234813 0.791885 0.5
171 32 0.265692 0.787609 0.5
272 33 0.252148 0.762019 0.5
703 30 0.284845 0.768458 0.5
6 23 0.292038 0.794779 0.5
450 27 0.331801 0.757221 0.5
357 33 0.350814 0.789797 0.5
405 30 0.376407 0.782784 0.5
999 33 0.366139 0.753928 0.5
769 30 0.449266 0.791533 0.5
964 32 0.439926 0.76189 0.5
926 32 0.490341 0.780995 0.5
669 35 0.514006 0.810479 0.5
579 29 0.589229 0.764872 0.5
761 30 0.552298 0.822116 0.5
662 31 0.527453 0.782578 0.5
900 28 0.653288 0.772284 0.5
341 28 0.610454 0.798335 0.5
150 34 0.636813 0.790543 0.5
664 31 0.686398 0.784798 0.5
4 31 0.714993 0.770461 0.5
465 29 0.773466 0.777941 0.5
233 29 0.772196 0.819101 0.5
223 25 0.797572 0.797908 0.5
418 32 0.861846 0.803184 0.5
831 30 0.897379 0.807744 0.5
268 37 0.885621 0.780377 0.5
801 28 0.997729 0.77306 0.5
722 32 0.948497 0.751964 0.5
758 27 0.0230927 0.829615 0.5
93 36 0.00034831 0.86262 0.5
158 33 0.0638981 0.811984 0.5
957 33 0.0997578 0.789402 0.5
523 26 0.0432898 0.840654 0.5
765 27 0.115018 0.823366 0.5
530 30 0.134223 0.8401 0.5
278 32 0.177867 0.813432 0.5
547 32 0.227743 0.857363 0.5
672 31 0.244826 0.872992 0.5
192 33 0.224608 0.824782 0.5
480 28 0.261895 0.856521 0.5
552 30 0.329515 0.804292 0.5
95 31 0.374695 0.80801 0.5
96 30 0.406234 0.831686 0.5
297 30 0.42823 0.80528 0.5
983 31 0.442178 0.878401 0.5
2 30 0.460521 0.817079 0.5
39 29 0.48558 0.838362 0.5
645 32 0.510555 0.844682 0.5
974 28 0.532153 0.850152 0.5
993 30 0.59113 0.821507 0.5
409 30 0.583688 0.789875 0.5
775 32 0.647239 0.816961 0.5
220 30 0.671066 0.802358 0.5
930 28 0.644354 0.864926 0.5
193 29 0.685597 0.818852 0.5
936 28 0.689781 0.847223 0.5
989 32 0.710784 0.798138 0.5
726 30 0.731621 0.845463 0.5
534 32 0.745476 0.780819 0.5
88 35 0.730335 0.815916 0.5
868 34 0.799671 0.830096 0.5
860 30 0.825826 0.803872 0.5
467 31 0.878418 0.843045 0.5
318 33 0.920597 0.815298 0.5
67 30 0.952802 0.816001 0.5
586 36 0.943733 0.787798 0.5
246 32 0.968649 0.791868 0.5
320 32 0.982919 0.812152 0.5
951 30 0.977387 0.746639 0.5
28 29 -0.00237196 0.838986 0.5
668 27 0.0331273 0.898973 0.5
437 31 0.0796577 0.860957 0.5
107 30 0.0989061 0.842412 0.5
498 30 0.163295 0.834654 0.5
164 32 0.205153 0.875966 0.5
407 28 0.229711 0.889456 0.5
594 32 0.261826 0.904744 0.5
637 29 0.268023 0.879556 0.5
488 28 0.311738 0.839871 0.5
298 34 0.361058 0.826794 0.5
34 31 0.402388 0.807465 0.5
899 27 0.399622 0.854854 0.5
415 28 0.415017 0.87561 0.5
232 29 0.439605 0.903497 0.5
475 28 0.47015 0.891074 0.5
903 31 0.449208 0.84061 0.5
422 30 0.476373 0.860942 0.5
35 34 0.559936 0.869544 0.5
316 34 0.59981 0.87481 0.5
474 29 0.581638 0.856554 0.5
635 27 0.627829 0.834012 0.5
592 28 0.616071 0.855751 0.5
224 30 0.677247 0.879993 0.5
565 29 0.733549 0.876518 0.5
306 29 0.760865 0.86179 0.5
911 30 0.797097 0.882126 0.5
634 25 0.716101 0.935969 0.5
119 30 0.79379 0.854771 0.5
304 29 0.856749 0.861162 0.5
43 33 0.84146 0.830134 0.5
248 28 0.898042 0.860574 0.5
384 36 0.915667 0.884609 0.5
567 30 0.957275 0.86538 0.5
383 33 0.904072 0.833525 0.5
569 32 0.928352 0.850971 0.5
101 29 0.976705 0.849042 0.5
654 28 0.980062 0.879424 0.5
279 31 0.00773848 0.896132 0.5
200 32 0.0552734 0.868861 0.5
160 30 0.0573867 0.901701 0.5
650 30 0.132249 0.868231 0.5
52 34 0.100815 0.878629 0.5
540 32 0.132679 0.895503 0.5
195 33 0.17147 0.870645 0.5
65 31 0.180774 0.915496 0.5
205 29 0.204471 0.945054 0.5
825 33 0.227865 0.917294 0.5
123 25 0.205628 0.914462 0.5
91 28 0.249649 0.935852 0.5
954 27 0.310545 0.878574 0.5
251 31 0.339233 0.854257 0.5
149 29 0.361946 0.86861 0.5
580 29 0.368017 0.896786 0.5
252 33 0.395247 0.893648 0.5
925 27 0.39038 0.926289 0.5
738 31 0.469708 0.915217 0.5
652 35 0.519114 0.870916 0.5
369 32 0.578874 0.886974 0.5
909 29 0.51276 0.89926 0.5
135 30 0.556466 0.894565 0.5
680 30 0.606405 0.93859 0.5
42 35 0.635709 0.910637 0.5
953 30 0.641385 0.888219 0.5
44 32 0.703944 0.882287 0.5
685 30 0.669389 0.907677 0.5
859 35 0.696395 0.919725 0.5
782 29 0.744807 0.908367 0.5
371 30 0.767901 0.923782 0.5
823 29 0.775116 0.90173 0.5
566 31 0.821066 0.857307 0.5
56 29 0.801514 0.924189 0.5
87 29 0.824292 0.92002 0.5
40 34 0.8384 0.887735 0.5
202 34 0.882805 0.907428 0.5
787 29 0.870437 0.886301 0.5
255 30 0.874705 0.934447 0.5
287 33 0.918517 0.925039 0.5
593 28 0.941105 0.911021 0.5
122 30 0.961815 0.903048 0.5
400 32 0.960253 0.93073 0.5
813 30 0.98221 0.913934 0.5
710 33 0.0347773 0.953172 0.5
99 28 0.0315721 0.928923 0.5
296 30 0.0912711 0.902328 0.5
108 32 0.0802912 0.930748 0.5
165 27 0.121774 0.92612 0.5
51 31 0.151983 0.91613 0.5
478 30 0.102811 0.941617 0.5
854 29 0.200775 0.984514 0.5
548 33 0.224789 0.977874 0.5
699 27 0.228412 0.949903 0.5
145 28 0.254642 0.961693 0.5
559 32 0.277366 0.954589 0.5
679 36 0.284729 0.924296 0.5
104 28 0.301435 0.960209 0.5
270 31 0.299954 0.901563 0.5
737 32 0.337391 0.879891 0.5
607 34 0.339614 0.909584 0.5
452 32 0.438206 0.955938 0.5
653 28 0.35958 0.935674 0.5
724 35 0.434517 0.93111 0.5
169 26 0.45652 0.935516 0.5
396 31 0.494679 0.884534 0.5
961 30 0.476179 0.945099 0.5
190 35 0.502915 0.932139 0.5
683 32 0.543763 0.929269 0.5
138 31 0.576778 0.913819 0.5
975 29 0.628616 0.935511 0.5
212 28 0.683708 0.949066 0.5
942 28 0.653902 0.929554 0.5
697 33 0.711918 0.95892 0.5
324 34 0.748747 0.94095 0.5
136 34 0.788576 0.94521 0.5
191 33 0.817502 0.94826 0.5
562 33 0.84906 0.965885 0.5
186 31 0.845943 0.939078 0.5
524 32 0.883104 0.981085 0.5
421 32 0.903147 0.943346 0.5
229 31 0.926203 0.953995 0.5
406 30 0.974075 0.959563 0.5
740 32 0.950536 0.955826 0.5
13 31 0.00327583 0.954162 0.5
209 28 0.0138345 0.0120678 0.5
574 27 0.0318058 0.983363 0.5
759 33 0.0572811 0.967843 0.5
691 34 0.0774828 0.00720028 0.5
949 32 0.0988853 0.984977 0.5
847 34 0.151786 0.972641 0.5
748 33 0.118302 0.970859 0.5
219 29 0.177357 0.943333 0.5
945 32 0.175007 0.967221 0.5
172 26 0.250672 0.983187 0.5
587 33 0.243738 0.00739835 0.5
7 32 0.280392 0.978048 0.5
688 29 0.292601 0.0363681 0.5
991 31 0.34965 0.987869 0.5
20 32 0.32863 0.0135177 0.5
262 31 0.377526 0.957186 0.5
373 33 0.318636 0.929773 0.5
319 30 0.411942 0.968019 0.5
310 32 0.409189 0.0160218 0.5
805 29 0.412217 0.990683 0.5
355 31 0.451004 0.980425 0.5
449 28 0.482008 0.974845 0.5
852 32 0.525279 0.977695 0.5
715 27 0.563462 0.941353 0.5
258 34 0.556854 0.99825 0.5
458 33 0.583723 0.952766 0.5
792 31 0.634645 0.978608 0.5
937 31 0.655288 0.961459 0.5
556 30 0.596476 0.975501 0.5
305 30 0.68928 -0.00115742 0.5
394 30 0.677334 0.972558 0.5
1 28 0.73944 0.999662 0.5
441 30 0.767428 0.00585228 0.5
777 29 0.764043 0.962583 0.5
456 31 0.78208 0.984828 0.5
250 30 0.821411 0.99095 0.5
956 32 0.84177 1.00142 0.5
913 30 0.912293 0.973678 0.5
9 29 0.921387 1.00165 0.5
665 35 0.945422 0.986467 0.5
213 31 0.943022 0.010406 0.5
504 34 0.000552177 0.984229 0.5
