ITEM: TIMESTEP
1250000
ITEM: NUMBER OF ATOMS
1000
ITEM: BOX BOUNDS pp pp pp
-1.7574559000000001e+01 1.7574559000000001e+01
-1.7574559000000001e+01 1.7574559000000001e+01
-5.0000000000000000e-01 5.0000000000000000e-01
ITEM: ATOMS id type xs ys zs
589 24 0.0479768 0.00266546 0.5
189 13 0.0228985 1.00018 0.5
886 28 0.0465158 0.034668 0.5
291 27 0.0725819 0.0165388 0.5
606 34 0.103374 0.00651753 0.5
511 37 0.0730386 0.0519258 0.5
146 25 0.101236 0.0383512 0.5
165 22 0.124513 0.0270314 0.5
245 22 0.175601 0.0558009 0.5
372 27 0.153893 0.0347352 0.5
133 32 0.207971 0.0506705 0.5
158 35 0.220346 0.0200829 0.5
385 32 0.243862 0.0435198 0.5
112 25 0.248327 0.0088984 0.5
416 34 0.263385 0.981061 0.5
75 21 0.304938 0.036088 0.5
571 42 0.281826 0.0138404 0.5
637 28 0.315592 0.00914027 0.5
918 39 0.34221 0.0294224 0.5
449 26 0.359968 0.00220336 0.5
799 27 0.40931 0.0175166 0.5
480 26 0.399076 0.0560338 0.5
710 37 0.380223 0.0266649 0.5
365 27 0.43834 0.019252 0.5
996 26 0.425923 0.0442998 0.5
957 36 0.469126 0.025396 0.5
444 33 0.492097 0.0527351 0.5
346 29 0.509072 0.0201783 0.5
339 36 0.531281 0.0431799 0.5
921 37 0.564116 0.0358258 0.5
211 19 0.598223 0.0285992 0.5
911 29 0.587886 0.057228 0.5
123 18 0.618479 0.0491091 0.5
441 30 0.62489 0.0198058 0.5
973 22 0.649817 0.038398 0.5
284 35 0.641421 0.0703742 0.5
364 32 0.674797 0.067328 0.5
736 26 0.704083 0.0563013 0.5
258 38 0.678751 0.0317022 0.5
900 25 0.733959 0.0543635 0.5
54 29 0.71373 0.0245606 0.5
942 26 0.764857 0.0498024 0.5
788 33 0.788711 0.0731945 0.5
278 33 0.801428 0.0423568 0.5
434 24 0.821463 0.0701171 0.5
272 36 0.836233 0.0350294 0.5
772 32 0.870011 0.0293585 0.5
732 28 0.854332 0.0637883 0.5
759 36 0.902249 0.0226693 0.5
96 30 0.935448 0.0213695 0.5
925 23 -0.00418341 0.0190353 0.5
815 30 0.966021 0.0188549 0.5
275 32 0.986974 0.0484656 0.5
836 29 0.0167982 0.0390902 0.5
723 29 0.0402858 0.0648627 0.5
89 30 0.0103112 0.0701726 0.5
655 29 0.0699583 0.0854672 0.5
116 23 0.0988169 0.0714694 0.5
119 29 0.083908 0.117885 0.5
1 26 0.151497 0.0700798 0.5
238 25 0.125752 0.0563566 0.5
860 30 0.132901 0.0925544 0.5
491 30 0.167011 0.0977652 0.5
659 35 0.1974 0.0819146 0.5
680 29 0.268515 0.0780606 0.5
516 40 0.233297 0.0800109 0.5
498 29 0.253832 0.106998 0.5
357 36 0.302483 0.0710734 0.5
551 30 0.27954 0.0486807 0.5
768 31 0.325309 0.0984993 0.5
771 26 0.285122 0.10561 0.5
277 26 0.333894 0.0669082 0.5
847 37 0.360694 0.0959396 0.5
711 34 0.367668 0.0602334 0.5
170 33 0.394056 0.0863607 0.5
779 37 0.454319 0.0574596 0.5
676 31 0.426262 0.075605 0.5
874 37 0.45445 0.0936778 0.5
227 32 0.524763 0.0774532 0.5
386 36 0.49076 0.0922937 0.5
198 35 0.518592 0.109944 0.5
495 33 0.554282 0.10046 0.5
903 31 0.557984 0.0694242 0.5
639 22 0.610674 0.0735193 0.5
52 37 0.587167 0.100704 0.5
776 31 0.625511 0.0999259 0.5
501 34 0.659459 0.0975412 0.5
413 26 0.694182 0.0911865 0.5
651 24 0.721834 0.0907163 0.5
674 28 0.708648 0.118039 0.5
652 41 0.755387 0.0858689 0.5
193 28 0.781168 0.109441 0.5
654 25 0.7422 0.115541 0.5
20 35 0.811259 0.0993038 0.5
331 26 0.847697 0.0932393 0.5
767 39 0.835843 0.126507 0.5
770 41 0.891213 0.0566943 0.5
191 36 0.879457 0.0923337 0.5
681 24 0.92278 0.0498037 0.5
539 31 0.911865 0.0859076 0.5
936 25 0.941446 0.0803621 0.5
598 34 0.953703 0.0502315 0.5
61 32 0.972857 0.0772256 0.5
954 24 0.968529 0.107259 0.5
746 24 0.0246029 0.0941764 0.5
564 27 0.0511809 0.122488 0.5
868 38 0.0171942 0.124249 0.5
59 23 0.107327 0.101501 0.5
396 31 0.0797348 0.150465 0.5
947 33 0.110124 0.163296 0.5
906 38 0.146794 0.125678 0.5
9 28 0.143767 0.160359 0.5
73 31 0.113472 0.129166 0.5
694 31 0.187874 0.121844 0.5
276 35 0.172699 0.150615 0.5
363 25 0.222659 0.110182 0.5
157 32 0.207965 0.146641 0.5
802 35 0.241651 0.136985 0.5
172 21 0.305142 0.12455 0.5
912 38 0.27707 0.13616 0.5
471 25 0.316566 0.149474 0.5
747 24 0.292173 0.163678 0.5
478 29 0.33952 0.127844 0.5
375 30 0.369353 0.139513 0.5
641 29 0.343943 0.157495 0.5
808 26 0.385474 0.115072 0.5
389 39 0.407191 0.141311 0.5
298 38 0.4212 0.107933 0.5
661 30 0.446873 0.128558 0.5
367 28 0.435705 0.158311 0.5
969 29 0.477386 0.122293 0.5
199 36 0.504065 0.142896 0.5
447 36 0.472109 0.15621 0.5
678 30 0.535959 0.137644 0.5
228 27 0.569825 0.168581 0.5
982 32 0.567896 0.132114 0.5
175 43 0.608246 0.129591 0.5
81 27 0.600101 0.16244 0.5
904 34 0.634399 0.159636 0.5
594 33 0.642669 0.127001 0.5
931 30 0.669996 0.154776 0.5
407 26 0.677211 0.124857 0.5
513 27 0.699571 0.151212 0.5
837 33 0.729398 0.142943 0.5
883 35 0.765382 0.137754 0.5
671 25 0.756081 0.167183 0.5
649 35 0.788288 0.165668 0.5
397 32 0.800176 0.135462 0.5
744 33 0.827886 0.160982 0.5
220 30 0.873831 0.127206 0.5
835 33 0.906998 0.117743 0.5
60 27 0.896127 0.147273 0.5
877 29 0.938977 0.108533 0.5
240 29 0.956357 0.141029 0.5
271 30 0.926557 0.147556 0.5
755 25 0.995054 0.0977583 0.5
519 24 0.984456 0.133787 0.5
411 31 0.0474804 0.155396 0.5
577 36 0.0145705 0.162352 0.5
92 28 0.0400071 0.187145 0.5
8 25 0.0702088 0.179179 0.5
562 37 0.0960183 0.196107 0.5
15 33 0.163592 0.185421 0.5
161 27 0.131458 0.186819 0.5
108 33 0.195895 0.17509 0.5
25 33 0.260015 0.166691 0.5
528 33 0.221189 0.203773 0.5
814 31 0.252531 0.200436 0.5
473 31 0.227453 0.172379 0.5
578 29 0.284155 0.193641 0.5
715 23 0.308244 0.21946 0.5
384 41 0.31838 0.186264 0.5
361 33 0.354203 0.188166 0.5
704 34 0.384545 0.167341 0.5
188 31 0.413693 0.186168 0.5
542 32 0.433025 0.213488 0.5
604 22 0.38302 0.198003 0.5
897 31 0.451485 0.187306 0.5
186 31 0.466877 0.214602 0.5
629 25 0.481424 0.187939 0.5
125 30 0.499461 0.2111 0.5
871 28 0.507933 0.176347 0.5
924 26 0.540829 0.171877 0.5
115 23 0.526961 0.198694 0.5
503 37 0.591563 0.193486 0.5
340 22 0.558855 0.19999 0.5
522 35 0.624166 0.192675 0.5
742 31 0.655656 0.183229 0.5
57 32 0.680331 0.212502 0.5
721 27 0.689494 0.184727 0.5
560 29 0.712736 0.209671 0.5
431 31 0.717921 0.175423 0.5
699 23 0.777549 0.193308 0.5
237 35 0.744396 0.199844 0.5
462 29 0.806764 0.190793 0.5
487 30 0.803908 0.223338 0.5
553 32 0.849283 0.191031 0.5
917 39 0.864438 0.158825 0.5
939 37 0.882178 0.189734 0.5
520 31 0.900402 0.218986 0.5
17 27 0.944969 0.171575 0.5
252 35 0.913676 0.177735 0.5
400 34 0.935563 0.204977 0.5
600 35 0.00323683 0.194212 0.5
470 29 0.97968 0.172611 0.5
623 36 0.968939 0.203374 0.5
63 29 0.0235653 0.220311 0.5
334 33 0.0134939 0.256214 0.5
941 29 0.0508219 0.237511 0.5
628 31 0.0642053 0.210168 0.5
535 25 0.0878876 0.230217 0.5
103 33 0.112482 0.255266 0.5
630 32 0.117705 0.223731 0.5
325 32 0.150003 0.214328 0.5
726 29 0.145951 0.248486 0.5
294 29 0.187018 0.208981 0.5
572 34 0.176169 0.239589 0.5
459 36 0.209772 0.23596 0.5
380 38 0.244695 0.232414 0.5
111 28 0.233077 0.26371 0.5
232 27 0.262496 0.259991 0.5
202 38 0.279641 0.232777 0.5
512 31 0.305159 0.252775 0.5
820 29 0.3362 0.219262 0.5
329 34 0.36715 0.222649 0.5
626 35 0.339458 0.251187 0.5
332 27 0.387959 0.249491 0.5
497 32 0.401787 0.221214 0.5
208 32 0.404868 0.281529 0.5
354 34 0.453395 0.243931 0.5
303 29 0.418882 0.248769 0.5
800 23 0.481281 0.239127 0.5
287 35 0.436786 0.275213 0.5
554 29 0.497548 0.266286 0.5
514 25 0.467199 0.273489 0.5
984 32 0.513057 0.239345 0.5
296 30 0.551556 0.227537 0.5
719 23 0.53792 0.255829 0.5
898 28 0.569493 0.253863 0.5
563 35 0.612658 0.226165 0.5
85 23 0.580488 0.227777 0.5
493 25 0.60397 0.256656 0.5
867 37 0.64671 0.218911 0.5
927 32 0.636133 0.25231 0.5
748 35 0.670058 0.244687 0.5
181 32 0.703405 0.23844 0.5
524 33 0.739287 0.23293 0.5
713 37 0.728582 0.265229 0.5
200 34 0.771394 0.223283 0.5
352 27 0.807731 0.272774 0.5
197 29 0.761548 0.255575 0.5
981 30 0.833701 0.21811 0.5
417 25 0.79014 0.249965 0.5
908 21 0.857852 0.246271 0.5
292 28 0.868639 0.219063 0.5
888 28 0.887689 0.246887 0.5
568 31 0.921252 0.242891 0.5
242 35 0.907091 0.272066 0.5
253 29 0.951997 0.233331 0.5
880 40 0.943165 0.276075 0.5
215 28 0.991581 0.22532 0.5
210 28 -0.00206304 0.285159 0.5
14 29 0.0413312 0.27084 0.5
219 28 0.029259 0.301938 0.5
781 29 0.064984 0.296954 0.5
105 31 0.0801986 0.263636 0.5
812 27 0.101998 0.284928 0.5
740 34 0.135864 0.279871 0.5
879 33 0.121908 0.309365 0.5
702 28 0.154225 0.304813 0.5
177 24 0.165723 0.273632 0.5
368 33 0.198452 0.271259 0.5
423 34 0.184398 0.302437 0.5
798 34 0.221907 0.294961 0.5
230 31 0.253414 0.288797 0.5
342 39 0.285505 0.283113 0.5
818 25 0.276411 0.319348 0.5
113 35 0.307863 0.310787 0.5
613 27 0.319754 0.28193 0.5
117 31 0.341578 0.301637 0.5
344 21 0.366442 0.266645 0.5
928 33 0.375098 0.292815 0.5
451 33 0.43082 0.309286 0.5
738 32 0.398308 0.316767 0.5
408 28 0.460389 0.301317 0.5
341 25 0.450481 0.331493 0.5
145 25 0.489964 0.297245 0.5
992 37 0.522734 0.287589 0.5
570 34 0.511311 0.323722 0.5
803 31 0.542492 0.317563 0.5
427 31 0.556991 0.28862 0.5
543 33 0.592828 0.28498 0.5
458 36 0.574913 0.31793 0.5
490 32 0.624807 0.282918 0.5
469 36 0.611852 0.312016 0.5
505 33 0.66081 0.275501 0.5
805 27 0.679789 0.301433 0.5
764 37 0.648534 0.307965 0.5
302 26 0.693432 0.271174 0.5
611 36 0.711607 0.296627 0.5
247 24 0.732656 0.319628 0.5
477 31 0.747618 0.292739 0.5
716 30 0.778277 0.28617 0.5
313 33 0.830115 0.249703 0.5
987 35 0.808336 0.304576 0.5
724 40 0.841822 0.282017 0.5
893 30 0.874425 0.27414 0.5
55 28 0.866224 0.305009 0.5
758 22 0.893179 0.298507 0.5
30 32 0.923099 0.308947 0.5
523 22 -0.000443551 0.31217 0.5
11 37 0.975962 0.255384 0.5
261 38 0.969905 0.304245 0.5
369 35 0.0214014 0.333555 0.5
693 29 0.0572606 0.325898 0.5
638 47 0.0434416 0.363034 0.5
370 37 0.0902507 0.318887 0.5
950 32 0.0785932 0.351912 0.5
518 30 0.113996 0.342108 0.5
614 29 0.128077 0.370678 0.5
300 36 0.146839 0.336127 0.5
585 32 0.210128 0.329062 0.5
56 27 0.180808 0.338268 0.5
743 32 0.163858 0.363485 0.5
989 34 0.203383 0.362276 0.5
533 35 0.244633 0.324339 0.5
169 21 0.234624 0.356977 0.5
956 33 0.263856 0.349667 0.5
27 33 0.299631 0.343495 0.5
468 27 0.322151 0.364861 0.5
825 36 0.332933 0.335277 0.5
67 30 0.360214 0.357772 0.5
185 36 0.36683 0.32628 0.5
450 24 0.390795 0.345728 0.5
387 29 0.478778 0.324222 0.5
937 32 0.420182 0.340075 0.5
734 32 0.477193 0.355571 0.5
850 23 0.506557 0.356285 0.5
794 31 0.535608 0.348838 0.5
78 20 0.528063 0.377965 0.5
854 28 0.568824 0.34821 0.5
588 26 0.561717 0.376498 0.5
932 27 0.601032 0.341661 0.5
337 29 0.631544 0.338651 0.5
556 29 0.590899 0.372484 0.5
965 29 0.622847 0.36686 0.5
873 32 0.670747 0.334794 0.5
735 28 0.655536 0.364201 0.5
766 29 0.6865 0.362927 0.5
418 34 0.70317 0.332361 0.5
587 36 0.719307 0.361798 0.5
714 29 0.76725 0.318612 0.5
388 26 0.779779 0.344973 0.5
134 34 0.748652 0.344788 0.5
12 34 0.796486 0.374664 0.5
217 32 0.838868 0.317517 0.5
174 31 0.808868 0.338008 0.5
358 28 0.837368 0.351851 0.5
650 29 0.863087 0.338426 0.5
426 23 0.887852 0.355916 0.5
685 30 0.895985 0.327643 0.5
347 44 0.945747 0.335012 0.5
390 32 0.921797 0.36731 0.5
962 46 0.960749 0.370785 0.5
195 37 0.984227 0.336925 0.5
281 25 0.0300224 0.400715 0.5
910 30 0.0967464 0.378486 0.5
978 23 0.0650773 0.38823 0.5
621 27 0.0567604 0.413496 0.5
286 31 0.0873924 0.40906 0.5
38 29 0.117937 0.40274 0.5
959 27 0.148197 0.393618 0.5
483 28 0.183024 0.388574 0.5
983 32 0.17401 0.41968 0.5
687 33 0.206791 0.407923 0.5
141 32 0.259908 0.380955 0.5
597 24 0.23015 0.383047 0.5
953 29 0.245641 0.417923 0.5
83 31 0.290835 0.374195 0.5
212 25 0.277084 0.407178 0.5
508 28 0.309502 0.403142 0.5
841 31 0.344718 0.38775 0.5
274 27 0.362844 0.414292 0.5
155 30 0.334147 0.418636 0.5
849 35 0.409897 0.372291 0.5
974 26 0.376317 0.387184 0.5
566 31 0.398327 0.406572 0.5
929 33 0.429911 0.398919 0.5
793 29 0.446686 0.362302 0.5
399 34 0.461522 0.391853 0.5
824 31 0.494524 0.382892 0.5
636 22 0.516667 0.407314 0.5
4 33 0.547807 0.406257 0.5
745 35 0.58018 0.404794 0.5
933 29 0.611818 0.39449 0.5
33 30 0.630234 0.425712 0.5
502 25 0.641281 0.390575 0.5
642 31 0.660402 0.415822 0.5
976 23 0.672321 0.388469 0.5
429 27 0.712905 0.414485 0.5
708 26 0.701103 0.388531 0.5
360 18 0.686876 0.410215 0.5
997 34 0.73707 0.393882 0.5
972 29 0.762841 0.374333 0.5
902 30 0.745747 0.425772 0.5
485 34 0.830167 0.383209 0.5
319 29 0.804932 0.40498 0.5
632 30 0.83167 0.42015 0.5
403 25 0.860188 0.371773 0.5
752 26 0.855496 0.403846 0.5
930 26 0.889283 0.388611 0.5
521 32 0.93268 0.397916 0.5
164 33 0.00829156 0.368613 0.5
858 33 0.993348 0.397019 0.5
689 30 0.0163302 0.427262 0.5
579 28 0.0767982 0.436774 0.5
124 28 0.0455476 0.442543 0.5
833 33 0.0647567 0.467424 0.5
856 28 0.0352293 0.469716 0.5
160 29 0.0953547 0.460389 0.5
461 32 0.139712 0.428396 0.5
167 27 0.108448 0.433274 0.5
644 30 0.127054 0.462447 0.5
107 29 0.159672 0.45384 0.5
243 33 0.186502 0.48029 0.5
371 29 0.190456 0.447902 0.5
32 22 0.21782 0.434601 0.5
530 29 0.219023 0.470764 0.5
970 22 0.268268 0.437482 0.5
821 26 0.241662 0.448619 0.5
41 31 0.296881 0.430401 0.5
729 23 0.285586 0.457647 0.5
182 33 0.317857 0.456745 0.5
382 37 0.354737 0.447325 0.5
378 31 0.386281 0.437125 0.5
862 25 0.410092 0.457599 0.5
36 37 0.380246 0.470295 0.5
777 27 0.421176 0.430595 0.5
990 40 0.444148 0.460078 0.5
919 24 0.449812 0.424871 0.5
592 25 0.471406 0.44199 0.5
861 35 0.485458 0.414389 0.5
312 38 0.533773 0.437814 0.5
804 29 0.502981 0.450609 0.5
257 33 0.570058 0.437019 0.5
526 30 0.554214 0.468377 0.5
733 37 0.586839 0.465157 0.5
263 29 0.599612 0.432528 0.5
830 29 0.618903 0.455489 0.5
609 30 0.652362 0.45135 0.5
763 34 0.685457 0.440415 0.5
445 35 0.672554 0.474498 0.5
832 41 0.637358 0.482753 0.5
381 32 0.705355 0.467206 0.5
6 15 0.713823 0.439881 0.5
72 26 0.743908 0.459963 0.5
43 35 0.773093 0.406147 0.5
5 33 0.770934 0.444767 0.5
851 31 0.801498 0.437739 0.5
283 36 0.79921 0.469954 0.5
506 37 0.829557 0.488501 0.5
697 36 0.832698 0.454366 0.5
405 29 0.864556 0.466454 0.5
109 42 0.903627 0.418391 0.5
889 28 0.955988 0.417775 0.5
290 31 0.860507 0.436592 0.5
465 27 0.932346 0.436045 0.5
326 43 0.982713 0.43948 0.5
656 21 0.0113947 0.457656 0.5
149 27 0.953134 0.457322 0.5
882 36 0.0121753 0.491852 0.5
28 27 0.0472789 0.498421 0.5
645 33 0.0266968 0.52343 0.5
807 23 0.0847031 0.489745 0.5
51 31 0.0617749 0.52462 0.5
86 30 0.113025 0.49081 0.5
40 39 0.0980102 0.521445 0.5
648 25 0.159273 0.543316 0.5
466 42 0.137949 0.518737 0.5
765 24 0.171391 0.510131 0.5
683 34 0.150552 0.485344 0.5
135 29 0.209062 0.508919 0.5
842 28 0.234563 0.496372 0.5
618 35 0.267184 0.509415 0.5
817 35 0.239016 0.531077 0.5
282 27 0.267852 0.542474 0.5
913 29 0.260063 0.47331 0.5
269 32 0.298293 0.522149 0.5
730 31 0.299027 0.487602 0.5
49 27 0.342658 0.476855 0.5
823 28 0.326537 0.502032 0.5
991 33 0.359606 0.502803 0.5
127 23 0.392206 0.498024 0.5
131 28 0.389276 0.530758 0.5
156 25 0.421297 0.485674 0.5
231 32 0.474669 0.475098 0.5
575 32 0.449565 0.498233 0.5
147 30 0.503701 0.487841 0.5
988 20 0.525417 0.467331 0.5
806 27 0.50026 0.544095 0.5
205 27 0.535272 0.49318 0.5
762 32 0.574308 0.496099 0.5
251 32 0.51691 0.516845 0.5
876 31 0.607138 0.496763 0.5
701 37 0.58929 0.530199 0.5
905 30 0.630949 0.516316 0.5
692 28 0.664998 0.510111 0.5
859 39 0.730531 0.490027 0.5
567 29 0.692583 0.532457 0.5
795 35 0.694745 0.499219 0.5
786 38 0.726047 0.525882 0.5
617 33 0.757747 0.511837 0.5
843 34 0.789877 0.534719 0.5
476 22 0.767738 0.473563 0.5
472 27 0.796562 0.50396 0.5
190 39 0.864199 0.499956 0.5
460 34 0.895098 0.483042 0.5
593 25 0.892602 0.515128 0.5
584 25 0.88987 0.44904 0.5
940 27 0.922851 0.464268 0.5
848 29 0.925874 0.498427 0.5
335 33 0.951014 0.525059 0.5
581 23 0.954787 0.491411 0.5
140 30 0.979674 0.505805 0.5
673 27 0.980382 0.47383 0.5
775 33 0.044929 0.553723 0.5
438 27 0.0320577 0.583053 0.5
546 32 0.0122069 0.558755 0.5
622 28 0.0824662 0.552285 0.5
709 30 0.125797 0.559369 0.5
221 23 0.15364 0.571407 0.5
784 28 0.190312 0.532256 0.5
402 37 0.187321 0.570979 0.5
110 30 0.214641 0.55324 0.5
2 28 0.243647 0.568507 0.5
838 23 0.272186 0.569742 0.5
235 35 0.302515 0.554179 0.5
811 26 0.345389 0.559818 0.5
909 28 0.358996 0.533801 0.5
16 32 0.328633 0.532497 0.5
414 34 0.376536 0.561363 0.5
179 31 0.405011 0.582172 0.5
494 23 0.408991 0.553392 0.5
504 39 0.420169 0.517598 0.5
646 28 0.472078 0.554694 0.5
267 27 0.44949 0.532705 0.5
35 37 0.480936 0.51631 0.5
616 30 0.501102 0.573834 0.5
3 33 0.531266 0.552077 0.5
510 35 0.53497 0.58436 0.5
443 28 0.561305 0.560128 0.5
322 23 0.625035 0.547737 0.5
216 41 0.551951 0.523268 0.5
163 26 0.591948 0.561227 0.5
173 30 0.651801 0.539816 0.5
866 29 0.644293 0.574481 0.5
785 33 0.677009 0.560607 0.5
789 28 0.710438 0.558044 0.5
153 37 0.697631 0.588955 0.5
229 32 0.665709 0.59963 0.5
18 41 0.753474 0.550164 0.5
58 27 0.814607 0.560692 0.5
34 31 0.78488 0.567199 0.5
586 42 0.832985 0.531319 0.5
225 34 0.849751 0.564076 0.5
304 28 0.868656 0.53297 0.5
846 33 0.89112 0.558666 0.5
796 26 0.868163 0.588288 0.5
827 40 0.918181 0.536451 0.5
797 31 0.952382 0.559036 0.5
819 30 0.980031 0.544128 0.5
455 31 0.977227 0.580412 0.5
475 26 0.0482564 0.607418 0.5
750 32 0.023803 0.634483 0.5
348 27 0.056932 0.644899 0.5
547 33 0.0658937 0.579274 0.5
301 36 0.102265 0.58351 0.5
926 34 0.078665 0.611198 0.5
246 33 0.111434 0.623693 0.5
142 31 0.132901 0.598771 0.5
690 27 0.164739 0.600797 0.5
670 34 0.148705 0.628089 0.5
958 23 0.178488 0.629548 0.5
507 29 0.19388 0.605599 0.5
120 30 0.221438 0.591485 0.5
412 29 0.219856 0.622023 0.5
90 39 0.257364 0.600817 0.5
896 29 0.293372 0.587773 0.5
401 25 0.323259 0.577099 0.5
722 33 0.28515 0.621314 0.5
69 35 0.317785 0.613812 0.5
433 25 0.380066 0.599859 0.5
831 29 0.349612 0.58915 0.5
393 38 0.351468 0.624804 0.5
677 38 0.403309 0.621235 0.5
93 42 0.440743 0.564732 0.5
538 34 0.432119 0.5989 0.5
582 28 0.469155 0.584853 0.5
333 30 0.459963 0.616582 0.5
395 28 0.491209 0.606063 0.5
751 24 0.491553 0.634574 0.5
952 34 0.52153 0.619336 0.5
206 32 0.556001 0.609846 0.5
737 34 0.54487 0.641928 0.5
754 31 0.577233 0.585954 0.5
635 23 0.593368 0.610158 0.5
695 21 0.616133 0.597775 0.5
608 29 0.6139 0.632679 0.5
102 22 0.615611 0.573101 0.5
971 20 0.635137 0.61234 0.5
643 28 0.635292 0.666667 0.5
486 37 0.653779 0.640138 0.5
964 33 0.722833 0.612181 0.5
82 33 0.738714 0.583243 0.5
885 25 0.790268 0.596452 0.5
946 30 0.822716 0.590442 0.5
138 31 0.803444 0.622832 0.5
244 29 0.847975 0.610678 0.5
698 21 0.827352 0.635746 0.5
248 26 0.883564 0.655731 0.5
233 27 0.857365 0.641729 0.5
285 30 0.896724 0.592252 0.5
712 29 0.923893 0.571236 0.5
599 33 0.921468 0.61488 0.5
610 30 0.880351 0.622742 0.5
74 35 0.00862945 0.604202 0.5
727 36 0.949328 0.597722 0.5
259 20 -0.00392527 0.643757 0.5
330 27 0.99812 0.671134 0.5
872 39 0.031381 0.669952 0.5
923 33 0.0877121 0.646092 0.5
532 28 0.0674507 0.673051 0.5
279 32 0.122055 0.652273 0.5
615 28 0.156548 0.658969 0.5
295 33 0.101498 0.675999 0.5
47 31 0.14085 0.685899 0.5
150 38 0.192094 0.657665 0.5
761 29 0.227083 0.653869 0.5
71 34 0.214087 0.683944 0.5
531 26 0.252968 0.638034 0.5
262 32 0.249868 0.675555 0.5
844 33 0.279597 0.655734 0.5
944 29 0.309332 0.64509 0.5
995 25 0.311306 0.674867 0.5
552 30 0.339091 0.658852 0.5
84 27 0.422315 0.664612 0.5
241 33 0.381373 0.647792 0.5
184 27 0.397826 0.678873 0.5
151 37 0.366333 0.681617 0.5
966 25 0.464583 0.644691 0.5
813 30 0.434156 0.634254 0.5
355 31 0.451275 0.675096 0.5
265 41 0.485988 0.670006 0.5
317 37 0.533587 0.679957 0.5
446 28 0.51478 0.651903 0.5
137 33 0.566612 0.668302 0.5
226 31 0.577018 0.63329 0.5
394 29 0.617947 0.689956 0.5
951 29 0.675872 0.669543 0.5
428 28 0.596813 0.658787 0.5
961 30 0.650839 0.692154 0.5
960 40 0.687066 0.623958 0.5
529 28 0.759116 0.606796 0.5
509 27 0.712761 0.645469 0.5
415 24 0.70456 0.673893 0.5
891 33 0.774239 0.638915 0.5
421 34 0.771269 0.672488 0.5
907 27 0.742901 0.637185 0.5
42 40 0.804852 0.658036 0.5
783 26 0.824085 0.695743 0.5
132 31 0.838257 0.664491 0.5
545 38 0.869714 0.683178 0.5
254 33 0.916446 0.648351 0.5
453 25 0.90433 0.68488 0.5
739 42 0.950429 0.635462 0.5
183 28 0.981183 0.620477 0.5
840 26 0.972099 0.660872 0.5
922 36 0.941172 0.672081 0.5
270 31 0.975192 0.691433 0.5
50 32 0.0115235 0.698661 0.5
559 33 0.992373 0.724216 0.5
822 35 0.026876 0.728095 0.5
496 30 0.0471405 0.699911 0.5
100 33 0.0595239 0.728594 0.5
576 33 0.0794275 0.70101 0.5
607 37 0.113072 0.708432 0.5
126 32 0.179748 0.690397 0.5
79 37 0.155572 0.715395 0.5
48 25 0.18923 0.72473 0.5
356 25 0.250959 0.706659 0.5
935 25 0.224135 0.715541 0.5
816 32 0.244224 0.738484 0.5
76 26 0.277731 0.690213 0.5
180 33 0.275902 0.726188 0.5
986 28 0.304854 0.703247 0.5
731 35 0.338202 0.702812 0.5
62 28 0.362443 0.725032 0.5
725 38 0.329296 0.739499 0.5
46 34 0.392266 0.709124 0.5
152 34 0.385747 0.750771 0.5
106 20 0.46996 0.699689 0.5
857 39 0.423974 0.697188 0.5
442 35 0.421048 0.735634 0.5
398 37 0.454876 0.725367 0.5
667 27 0.495204 0.70609 0.5
865 22 0.482361 0.735009 0.5
13 31 0.522815 0.717686 0.5
192 36 0.584649 0.694609 0.5
791 27 0.553226 0.705931 0.5
658 35 0.573974 0.732032 0.5
10 29 0.543062 0.740749 0.5
852 34 0.608817 0.722634 0.5
94 25 0.638832 0.717416 0.5
463 26 0.637301 0.748466 0.5
374 34 0.670393 0.740845 0.5
204 34 0.680307 0.705064 0.5
700 26 0.724826 0.70288 0.5
717 30 0.702635 0.728867 0.5
310 33 0.72322 0.752715 0.5
826 30 0.733672 0.672352 0.5
550 25 0.739775 0.72712 0.5
68 31 0.755902 0.700906 0.5
130 28 0.792225 0.696202 0.5
26 39 0.81766 0.727549 0.5
660 28 0.852794 0.711524 0.5
320 33 0.892143 0.712721 0.5
88 41 0.927838 0.710076 0.5
534 33 0.910939 0.74113 0.5
297 30 0.95871 0.720085 0.5
975 27 0.941469 0.743828 0.5
899 23 0.974983 0.750514 0.5
314 31 0.0100569 0.755582 0.5
901 37 0.0243726 0.786344 0.5
482 29 0.0427957 0.756179 0.5
834 31 0.0746787 0.757297 0.5
97 23 0.0551349 0.783363 0.5
29 29 0.0972759 0.736242 0.5
557 37 0.13072 0.743544 0.5
558 31 0.105539 0.766472 0.5
675 27 0.142671 0.774576 0.5
236 41 0.168207 0.753144 0.5
688 27 0.178988 0.785115 0.5
853 20 0.199653 0.766845 0.5
580 27 0.213441 0.74347 0.5
500 41 0.233335 0.77298 0.5
99 25 0.265529 0.760266 0.5
555 30 0.296314 0.751393 0.5
159 34 0.295661 0.783935 0.5
306 27 0.264864 0.795921 0.5
870 30 0.331086 0.775247 0.5
845 27 0.356579 0.757726 0.5
23 28 0.353184 0.796569 0.5
790 32 0.380963 0.782011 0.5
148 34 0.415622 0.768413 0.5
122 30 0.445724 0.757748 0.5
366 29 0.477296 0.795681 0.5
1000 35 0.443439 0.794334 0.5
327 31 0.512553 0.751588 0.5
353 29 0.479778 0.765344 0.5
196 31 0.507812 0.783425 0.5
430 33 0.537817 0.771856 0.5
915 27 0.569292 0.763665 0.5
488 26 0.560926 0.794944 0.5
945 34 0.598725 0.754881 0.5
663 33 0.591611 0.788691 0.5
318 35 0.62495 0.780892 0.5
266 35 0.659375 0.771796 0.5
573 30 0.683879 0.792797 0.5
474 28 0.693822 0.763174 0.5
260 28 0.718052 0.787111 0.5
338 29 0.747267 0.803619 0.5
307 32 0.758499 0.750003 0.5
773 21 0.743892 0.776011 0.5
627 33 0.771713 0.78256 0.5
336 35 0.780311 0.724511 0.5
633 30 0.790754 0.756792 0.5
350 16 0.846373 0.737366 0.5
525 26 0.873719 0.735905 0.5
620 28 0.852853 0.76234 0.5
948 36 0.887872 0.766276 0.5
595 35 0.925866 0.770849 0.5
311 28 0.991801 0.780891 0.5
209 26 0.960056 0.778418 0.5
653 24 0.980303 0.834138 0.5
166 30 0.00131711 0.812113 0.5
404 31 0.0859156 0.791119 0.5
999 36 0.0637075 0.816684 0.5
454 32 0.0977862 0.820381 0.5
760 26 0.119774 0.795981 0.5
264 31 0.126933 0.830113 0.5
129 36 0.152885 0.8044 0.5
464 30 0.184705 0.825913 0.5
305 30 0.163116 0.84649 0.5
207 31 0.205975 0.796976 0.5
128 31 0.222031 0.837773 0.5
967 24 0.234419 0.809511 0.5
890 33 0.258701 0.826168 0.5
24 29 0.287751 0.814375 0.5
19 28 0.310034 0.838886 0.5
77 20 0.28179 0.847127 0.5
894 27 0.319945 0.807998 0.5
168 36 0.343374 0.828148 0.5
631 30 0.409095 0.799841 0.5
548 36 0.37905 0.81498 0.5
288 35 0.370068 0.848421 0.5
213 32 0.402212 0.839447 0.5
769 29 0.462095 0.824771 0.5
345 32 0.429589 0.824372 0.5
672 31 0.501095 0.814699 0.5
549 30 0.531607 0.804659 0.5
544 28 0.519918 0.837016 0.5
920 29 0.490302 0.845689 0.5
176 33 0.551033 0.832243 0.5
782 28 0.574244 0.853039 0.5
810 31 0.580145 0.82096 0.5
666 32 0.61708 0.813823 0.5
801 26 0.60692 0.844197 0.5
70 28 0.65065 0.803787 0.5
436 31 0.643857 0.833116 0.5
949 34 0.675121 0.824222 0.5
707 45 0.712492 0.824975 0.5
955 28 0.688941 0.861811 0.5
95 32 0.724362 0.859448 0.5
7 35 0.747867 0.837275 0.5
864 25 0.777462 0.84692 0.5
328 23 0.804425 0.786984 0.5
881 27 0.774189 0.817475 0.5
201 34 0.806769 0.822934 0.5
684 25 0.822945 0.760324 0.5
878 32 0.868264 0.794362 0.5
448 32 0.886209 0.821139 0.5
977 35 0.834227 0.790369 0.5
657 25 0.90535 0.796412 0.5
289 22 0.938494 0.796897 0.5
154 28 0.917975 0.822705 0.5
452 33 0.971443 0.806227 0.5
499 19 0.958833 0.849136 0.5
696 27 0.947391 0.82415 0.5
439 28 0.0326299 0.817138 0.5
828 29 0.00744754 0.843383 0.5
249 34 0.0171583 0.87395 0.5
351 31 0.0669347 0.849333 0.5
541 33 0.0784042 0.879561 0.5
479 21 0.0378852 0.845215 0.5
203 39 0.100962 0.854232 0.5
406 30 0.134582 0.862241 0.5
299 25 0.107076 0.891346 0.5
492 39 0.163899 0.879143 0.5
425 32 0.193364 0.8586 0.5
136 37 0.205306 0.898117 0.5
391 25 0.221251 0.868723 0.5
664 32 0.243926 0.892374 0.5
456 31 0.250822 0.859722 0.5
537 27 0.307211 0.873744 0.5
634 18 0.300489 0.89999 0.5
484 34 0.336977 0.859927 0.5
224 30 0.362245 0.880487 0.5
45 28 0.330812 0.891196 0.5
256 33 0.395418 0.871519 0.5
118 26 0.389858 0.905645 0.5
104 25 0.423881 0.892059 0.5
435 23 0.424199 0.85946 0.5
379 27 0.452533 0.853284 0.5
574 22 0.450272 0.883395 0.5
255 29 0.47045 0.901913 0.5
963 27 0.476658 0.872109 0.5
619 32 0.510971 0.867126 0.5
855 31 0.505315 0.897244 0.5
432 29 0.543609 0.865146 0.5
420 34 0.566429 0.885232 0.5
863 26 0.534811 0.891801 0.5
65 31 0.630877 0.861963 0.5
22 34 0.599439 0.8785 0.5
280 38 0.62875 0.895757 0.5
668 23 0.661394 0.855989 0.5
457 37 0.664543 0.887382 0.5
774 33 0.756503 0.869355 0.5
985 25 0.733153 0.88958 0.5
309 34 0.701594 0.891794 0.5
938 23 0.758904 0.899169 0.5
979 35 0.788797 0.889186 0.5
53 35 0.802949 0.921004 0.5
596 27 0.804854 0.859654 0.5
481 30 0.824149 0.881838 0.5
64 31 0.832968 0.850284 0.5
602 25 0.853261 0.820287 0.5
669 40 0.859768 0.880793 0.5
419 33 0.891281 0.893583 0.5
994 28 0.865882 0.848538 0.5
968 37 0.898702 0.851818 0.5
377 27 0.919274 0.877135 0.5
437 32 0.981821 0.86684 0.5
39 27 0.933024 0.85062 0.5
756 28 0.952687 0.878276 0.5
373 35 0.994023 0.901656 0.5
720 28 0.0245138 0.912387 0.5
517 36 0.0475898 0.89088 0.5
809 27 0.0793602 0.91261 0.5
187 33 0.136496 0.898161 0.5
144 34 0.106839 0.926177 0.5
934 25 0.143993 0.927336 0.5
757 38 0.17226 0.912774 0.5
515 29 0.171293 0.94553 0.5
916 25 0.226201 0.923245 0.5
943 44 0.241168 0.951651 0.5
37 29 0.274279 0.884688 0.5
44 33 0.260638 0.920226 0.5
869 32 0.322063 0.922357 0.5
705 29 0.353961 0.909642 0.5
222 33 0.345664 0.946677 0.5
679 42 0.379314 0.936476 0.5
66 31 0.413465 0.931707 0.5
569 33 0.442218 0.917362 0.5
778 24 0.469974 0.940738 0.5
540 35 0.497555 0.930446 0.5
214 34 0.524896 0.957691 0.5
591 26 0.557531 0.915461 0.5
467 31 0.529303 0.92249 0.5
875 34 0.55671 0.947849 0.5
892 23 0.588579 0.940931 0.5
194 31 0.594081 0.910622 0.5
706 32 0.622371 0.92954 0.5
998 31 0.687939 0.921763 0.5
753 32 0.657125 0.920364 0.5
601 31 0.648514 0.953128 0.5
424 23 0.678296 0.948472 0.5
839 27 0.709721 0.941589 0.5
321 31 0.738467 0.920144 0.5
640 37 0.769977 0.932065 0.5
527 28 0.770348 0.965946 0.5
383 35 0.738081 0.958371 0.5
323 30 0.834737 0.910828 0.5
624 24 0.866787 0.912357 0.5
392 30 0.797022 0.952285 0.5
376 40 0.831828 0.949757 0.5
489 22 0.892358 0.921598 0.5
343 33 0.86814 0.942109 0.5
662 32 0.926526 0.909196 0.5
561 32 0.917734 0.94221 0.5
308 26 0.95772 0.906383 0.5
686 30 0.00270813 0.935642 0.5
887 32 0.949764 0.936329 0.5
718 20 0.976039 0.927037 0.5
223 19 0.0286993 0.945403 0.5
691 38 0.00976801 0.971934 0.5
171 34 0.0477841 0.967103 0.5
293 35 0.0810491 0.981553 0.5
728 34 0.0536987 0.93088 0.5
143 30 0.112841 0.957753 0.5
603 29 0.0830251 0.948521 0.5
583 24 0.145106 0.956572 0.5
682 36 0.130549 0.986244 0.5
422 30 0.165255 0.976699 0.5
565 27 0.160851 0.0065779 0.5
829 25 0.181636 0.0285745 0.5
87 28 0.199405 0.933808 0.5
787 27 0.194325 0.964129 0.5
792 31 0.192024 0.995864 0.5
884 36 0.225846 0.986189 0.5
703 30 0.27884 0.951756 0.5
218 23 0.290677 0.923777 0.5
749 28 0.314276 0.954082 0.5
234 34 0.297803 0.980751 0.5
410 40 0.334514 0.980673 0.5
440 39 0.425815 0.987618 0.5
980 28 0.392052 0.993876 0.5
741 34 0.369264 0.97028 0.5
625 32 0.4052 0.962391 0.5
349 40 0.461152 0.985006 0.5
21 31 0.440833 0.954707 0.5
914 25 0.488672 0.00063979 0.5
362 32 0.49063 0.966386 0.5
121 32 0.515699 0.988451 0.5
114 26 0.542464 0.0138233 0.5
612 27 0.547448 0.985677 0.5
250 30 0.579242 0.969513 0.5
536 28 0.608022 0.995564 0.5
324 38 0.576228 0.00173623 0.5
316 38 0.612048 0.963099 0.5
239 35 0.637726 0.985685 0.5
605 24 0.657554 0.00791222 0.5
895 29 0.669263 0.977977 0.5
409 30 0.68795 1.00164 0.5
98 35 0.70133 0.973628 0.5
162 32 0.748745 0.0235099 0.5
80 29 0.764309 0.995922 0.5
359 34 0.731723 0.991886 0.5
31 23 0.784501 0.0178687 0.5
993 30 0.825066 0.983095 0.5
780 29 0.811652 0.0111998 0.5
91 25 0.796726 0.982165 0.5
139 29 0.847908 0.0042446 0.5
647 30 0.858349 0.971371 0.5
590 25 0.875475 0.000771913 0.5
101 27 0.917804 0.99371 0.5
268 43 0.893815 0.968252 0.5
273 28 0.937129 0.965975 0.5
178 23 0.98637 0.994109 0.5
315 28 0.951436 0.992677 0.5
665 41 0.971989 0.964197 0.5
