ITEM: TIMESTEP
500000
ITEM: NUMBER OF ATOMS
1000
ITEM: BOX BOUNDS pp pp pp
-1.4888161999999999e+01 1.4888161999999999e+01
-1.4888161999999999e+01 1.4888161999999999e+01
-5.0000000000000000e-01 5.0000000000000000e-01
ITEM: ATOMS id type xs ys zs
886 28 0.054125 0.031587 0.5
80 29 0.0251592 0.013916 0.5
66 31 0.0537163 -0.00314135 0.5
542 32 0.0244176 0.0508749 0.5
293 35 0.0847577 0.0103701 0.5
802 35 0.0889002 0.0430029 0.5
290 31 0.119547 0.0218281 0.5
770 41 0.123614 0.0557692 0.5
171 34 0.151901 0.0318094 0.5
389 39 0.148036 -0.00507274 0.5
517 36 0.179395 0.00389802 0.5
597 24 0.173722 0.054131 0.5
621 27 0.19254 0.0311727 0.5
646 28 0.224162 0.0371588 0.5
274 27 0.247442 0.0108037 0.5
953 29 0.214841 0.00744365 0.5
753 32 0.257018 0.0432021 0.5
169 21 0.27578 0.0203948 0.5
239 35 0.293802 0.0487829 0.5
608 29 0.29882 0.0111795 0.5
592 25 0.323217 0.0301676 0.5
464 30 0.33153 0.00153497 0.5
701 37 0.357159 0.0309638 0.5
390 32 0.362479 -0.00651776 0.5
144 34 0.39107 0.0478253 0.5
430 33 0.389974 0.0149193 0.5
795 35 0.422158 0.0312779 0.5
492 39 0.42488 -0.00328424 0.5
603 29 0.455534 0.0105188 0.5
485 34 0.454783 0.0473371 0.5
107 29 0.48379 0.0287871 0.5
508 28 0.511511 0.0443299 0.5
452 33 0.513755 0.00982697 0.5
103 33 0.542531 0.029716 0.5
715 23 0.573115 0.0440917 0.5
749 28 0.572544 0.0112706 0.5
305 30 0.599815 0.028584 0.5
930 26 0.60133 -0.00319487 0.5
742 31 0.629118 0.0126243 0.5
363 25 0.655204 0.031142 0.5
165 22 0.684022 0.0287788 0.5
571 42 0.66237 -0.00217443 0.5
637 28 0.628085 0.0470267 0.5
655 29 0.697288 0.000667016 0.5
521 32 0.713149 0.030486 0.5
377 27 0.728287 -0.00117865 0.5
855 31 0.745382 0.0273554 0.5
356 25 0.762211 0.00117181 0.5
644 30 0.781283 0.0290247 0.5
106 20 0.807764 0.0239806 0.5
744 33 0.792202 -0.0049563 0.5
393 38 0.80883 0.0542639 0.5
964 33 0.826199 -0.00126008 0.5
210 28 0.837424 0.0325172 0.5
849 35 0.868615 0.0380192 0.5
382 37 0.859597 0.00527895 0.5
806 27 0.90295 0.0450239 0.5
733 37 0.930099 0.0242525 0.5
548 36 0.895461 0.0120116 0.5
405 29 0.960157 0.0412645 0.5
936 25 0.964563 0.0102332 0.5
448 32 0.994508 0.0310904 0.5
851 31 0.995435 -0.00400207 0.5
252 35 0.059626 0.0633785 0.5
130 28 0.0348987 0.084675 0.5
729 23 0.00727946 0.0759924 0.5
345 32 0.0118001 0.108142 0.5
848 29 0.0652721 0.0989365 0.5
260 28 0.0928114 0.0788397 0.5
837 33 0.0954074 0.112068 0.5
672 31 0.122947 0.0930725 0.5
403 25 0.15018 0.0719992 0.5
754 31 0.152142 0.105351 0.5
756 28 0.177873 0.0858147 0.5
902 30 0.186707 0.116662 0.5
84 27 0.203053 0.0615542 0.5
823 28 0.23436 0.0680037 0.5
965 29 0.208788 0.092313 0.5
847 37 0.24305 0.0991481 0.5
400 34 0.271874 0.0752704 0.5
957 36 0.279418 0.107542 0.5
273 28 0.306196 0.0847507 0.5
671 25 0.313443 0.116259 0.5
950 32 0.32924 0.0605218 0.5
325 32 0.359983 0.0693349 0.5
331 26 0.336037 0.0949196 0.5
263 29 0.367095 0.105737 0.5
457 37 0.393196 0.0839403 0.5
912 38 0.424995 0.0672106 0.5
874 37 0.429147 0.1002 0.5
368 33 0.399243 0.12037 0.5
424 23 0.483997 0.062115 0.5
944 29 0.458088 0.0782407 0.5
568 31 0.460565 0.113362 0.5
582 28 0.488194 0.0943507 0.5
497 32 0.513546 0.0773601 0.5
779 37 0.542703 0.0612189 0.5
500 41 0.545466 0.099454 0.5
174 31 0.515021 0.116204 0.5
666 32 0.574132 0.0770087 0.5
838 23 0.602323 0.0640915 0.5
307 32 0.600044 0.0977171 0.5
176 33 0.574136 0.11686 0.5
963 27 0.63053 0.0800047 0.5
312 38 0.661645 0.0653273 0.5
94 25 0.654288 0.100655 0.5
270 31 0.685871 0.0923574 0.5
426 23 0.626006 0.110128 0.5
408 28 0.696401 0.0578873 0.5
737 34 0.730905 0.0578795 0.5
797 31 0.718415 0.0875759 0.5
745 35 0.73992 0.116493 0.5
589 24 0.763818 0.0546761 0.5
12 34 0.751931 0.085517 0.5
544 28 0.784067 0.0788423 0.5
27 33 0.779967 0.109762 0.5
365 27 0.81225 0.117785 0.5
202 38 0.815891 0.087563 0.5
310 33 0.844415 0.0689339 0.5
353 29 0.843452 0.106867 0.5
615 28 0.872391 0.095555 0.5
97 23 0.878083 0.0650822 0.5
751 24 0.931283 0.058618 0.5
244 29 0.903698 0.0795612 0.5
54 29 0.928321 0.0938027 0.5
923 33 0.89868 0.113986 0.5
705 29 0.955997 0.0756269 0.5
233 27 0.954066 0.110199 0.5
976 23 0.98558 0.0602156 0.5
407 26 0.982586 0.0928671 0.5
132 31 0.0398404 0.121046 0.5
636 22 0.0420379 0.156947 0.5
429 27 0.0145766 0.142511 0.5
369 35 0.0165334 0.175884 0.5
917 39 0.0675646 0.136065 0.5
881 27 0.0718767 0.170281 0.5
786 38 0.102195 0.148809 0.5
26 39 0.106574 0.182531 0.5
728 34 0.128498 0.12773 0.5
783 26 0.137245 0.159358 0.5
995 25 0.16167 0.136409 0.5
785 33 0.167132 0.16989 0.5
967 24 0.192486 0.147089 0.5
427 31 0.218383 0.123017 0.5
966 25 0.25201 0.13152 0.5
376 40 0.226299 0.157412 0.5
690 27 0.198847 0.178959 0.5
175 43 0.261739 0.166512 0.5
96 30 0.286244 0.137558 0.5
914 25 0.294939 0.168772 0.5
888 28 0.317729 0.148285 0.5
409 30 0.344445 0.12812 0.5
834 31 0.346704 0.163208 0.5
303 29 0.374679 0.140915 0.5
761 29 0.378642 0.172734 0.5
372 27 0.404983 0.151889 0.5
73 31 0.433538 0.133673 0.5
296 30 0.436581 0.162696 0.5
988 20 0.488208 0.124192 0.5
977 35 0.468344 0.147705 0.5
121 32 0.495911 0.176262 0.5
581 23 0.465577 0.179146 0.5
476 22 0.504983 0.146357 0.5
4 33 0.526556 0.176145 0.5
832 41 0.541 0.140531 0.5
531 26 0.558048 0.173342 0.5
112 25 0.575128 0.146554 0.5
952 34 0.594553 0.168744 0.5
529 28 0.604265 0.132115 0.5
679 42 0.627223 0.165181 0.5
136 37 0.641583 0.135137 0.5
225 34 0.674042 0.126566 0.5
100 33 0.664748 0.162373 0.5
44 33 0.697238 0.152703 0.5
91 25 0.706009 0.119749 0.5
416 34 0.729376 0.148664 0.5
540 35 0.75012 0.175047 0.5
278 33 0.714748 0.180698 0.5
164 33 0.764729 0.141097 0.5
530 29 0.781733 0.172368 0.5
829 25 0.795921 0.142863 0.5
6 15 0.811179 0.166203 0.5
661 30 0.869334 0.129968 0.5
859 39 0.834498 0.143974 0.5
264 31 0.865275 0.165131 0.5
776 31 0.836847 0.181289 0.5
929 33 0.925885 0.129278 0.5
346 29 0.896361 0.147812 0.5
456 31 0.922966 0.164716 0.5
574 22 0.89559 0.180728 0.5
618 35 0.954222 0.147148 0.5
199 36 0.983065 0.126499 0.5
781 29 0.984357 0.161415 0.5
2 28 0.955166 0.179069 0.5
120 30 0.0472329 0.190033 0.5
897 31 0.0508932 0.222053 0.5
803 31 0.0168865 0.210102 0.5
140 30 0.0198744 0.243828 0.5
787 27 0.0788061 0.20246 0.5
723 29 0.0815645 0.235196 0.5
792 31 0.10988 0.218905 0.5
36 37 0.140031 0.195471 0.5
687 33 0.141387 0.229598 0.5
179 31 0.175005 0.205426 0.5
550 25 0.172819 0.236213 0.5
616 30 0.208192 0.207553 0.5
707 45 0.241551 0.196038 0.5
935 25 0.232905 0.230488 0.5
720 28 0.201551 0.235059 0.5
645 33 0.267833 0.225735 0.5
232 27 0.284176 0.196251 0.5
564 27 0.30276 0.221566 0.5
607 37 0.321865 0.188157 0.5
674 28 0.335787 0.220021 0.5
72 26 0.355477 0.195274 0.5
651 24 0.365007 0.223423 0.5
841 31 0.387307 0.207053 0.5
949 34 0.412162 0.18511 0.5
566 31 0.417941 0.219401 0.5
664 32 0.391948 0.243936 0.5
491 30 0.442332 0.197708 0.5
157 32 0.45164 0.227362 0.5
21 31 0.477691 0.205951 0.5
665 41 0.491278 0.240161 0.5
434 24 0.509368 0.207785 0.5
740 34 0.528451 0.235478 0.5
402 37 0.545183 0.204065 0.5
887 32 0.565203 0.231246 0.5
443 28 0.579853 0.198994 0.5
821 26 0.614288 0.197911 0.5
206 32 0.598344 0.228538 0.5
309 34 0.636851 0.22384 0.5
980 28 0.685146 0.190901 0.5
217 32 0.650669 0.195441 0.5
652 41 0.675526 0.226101 0.5
177 24 0.707963 0.215038 0.5
519 24 0.736157 0.20251 0.5
381 32 0.736345 0.232136 0.5
557 37 0.770061 0.208245 0.5
879 33 0.80538 0.196272 0.5
375 30 0.800339 0.230141 0.5
283 36 0.834544 0.216656 0.5
611 36 0.866565 0.198743 0.5
85 23 0.86228 0.233067 0.5
545 38 0.895586 0.214794 0.5
716 30 0.926727 0.19581 0.5
326 43 0.926786 0.232982 0.5
313 33 0.984024 0.195992 0.5
762 32 0.955716 0.212153 0.5
686 30 0.987628 0.231032 0.5
812 27 0.0534862 0.250346 0.5
259 20 0.055646 0.279731 0.5
764 37 0.027095 0.276341 0.5
882 36 0.114616 0.254685 0.5
428 28 0.082406 0.268744 0.5
750 32 0.106054 0.28996 0.5
555 30 0.0751314 0.301605 0.5
702 28 0.134881 0.284141 0.5
826 30 0.152832 0.261068 0.5
458 36 0.18472 0.265667 0.5
506 37 0.166575 0.296834 0.5
709 30 0.204304 0.294292 0.5
556 29 0.219694 0.262718 0.5
875 34 0.253608 0.257181 0.5
154 28 0.23768 0.288574 0.5
333 30 0.288226 0.250774 0.5
658 35 0.273306 0.282346 0.5
421 34 0.305111 0.281383 0.5
734 32 0.319764 0.250519 0.5
587 36 0.353061 0.249482 0.5
794 31 0.337162 0.277321 0.5
105 31 0.373798 0.275932 0.5
201 34 0.353975 0.303623 0.5
251 32 0.429941 0.252674 0.5
626 35 0.410298 0.276082 0.5
692 28 0.390278 0.304943 0.5
479 21 0.420317 0.307663 0.5
504 39 0.448047 0.288122 0.5
125 30 0.463146 0.256362 0.5
101 27 0.483204 0.278171 0.5
730 31 0.516838 0.268096 0.5
478 29 0.551471 0.264586 0.5
267 27 0.538174 0.293569 0.5
805 27 0.506679 0.299625 0.5
431 31 0.571079 0.293819 0.5
1000 35 0.584512 0.261525 0.5
383 35 0.621804 0.255722 0.5
35 37 0.609583 0.285104 0.5
910 30 0.647398 0.284516 0.5
578 29 0.652299 0.252612 0.5
727 36 0.68146 0.265199 0.5
892 23 0.627108 0.308773 0.5
70 28 0.678149 0.30019 0.5
17 27 0.707825 0.248464 0.5
141 32 0.711442 0.283059 0.5
39 27 0.737972 0.265271 0.5
166 30 0.739477 0.299939 0.5
901 37 0.767958 0.245248 0.5
418 34 0.769743 0.280342 0.5
294 29 0.797408 0.264682 0.5
971 20 0.79868 0.298748 0.5
41 31 0.827521 0.250578 0.5
341 25 0.823407 0.285366 0.5
911 29 0.857173 0.265094 0.5
606 34 0.854326 0.297609 0.5
480 26 0.884775 0.282164 0.5
534 33 0.887712 0.248581 0.5
188 31 0.917385 0.267832 0.5
586 42 0.912121 0.302884 0.5
698 21 0.942821 0.286367 0.5
962 46 0.95554 0.253565 0.5
95 32 0.970591 0.293276 0.5
628 31 0.992914 0.264507 0.5
465 27 1.00033 0.297696 0.5
336 35 0.0424985 0.310107 0.5
8 25 0.0384434 0.346045 0.5
22 34 0.0139607 0.325189 0.5
791 27 0.00546942 0.355102 0.5
631 30 0.0699532 0.334285 0.5
422 30 0.0948443 0.35462 0.5
951 29 0.101891 0.322913 0.5
234 34 0.0608418 0.368472 0.5
796 26 0.133796 0.314715 0.5
668 23 0.12624 0.34354 0.5
985 25 0.157768 0.332638 0.5
620 28 0.180839 0.359396 0.5
532 28 0.190021 0.324855 0.5
228 27 0.223493 0.318268 0.5
576 33 0.211282 0.350409 0.5
361 33 0.244477 0.342402 0.5
92 28 0.257046 0.311433 0.5
77 20 0.291258 0.310319 0.5
885 25 0.275062 0.335331 0.5
306 27 0.266486 0.361362 0.5
765 24 0.321787 0.31024 0.5
549 30 0.306327 0.340035 0.5
20 35 0.34328 0.337399 0.5
384 41 0.374979 0.360858 0.5
65 31 0.327501 0.364461 0.5
958 23 0.375649 0.33009 0.5
767 39 0.407343 0.339118 0.5
814 31 0.442899 0.324907 0.5
406 30 0.438307 0.360009 0.5
133 32 0.47573 0.312629 0.5
866 29 0.468067 0.344666 0.5
83 31 0.497726 0.36329 0.5
688 27 0.500795 0.331147 0.5
471 25 0.529258 0.320492 0.5
9 28 0.530575 0.350506 0.5
318 35 0.560956 0.328968 0.5
110 30 0.560437 0.366586 0.5
46 34 0.594355 0.318596 0.5
23 28 0.589478 0.351631 0.5
772 32 0.623646 0.336573 0.5
816 32 0.621945 0.366318 0.5
289 22 0.65276 0.319442 0.5
853 20 0.652217 0.349533 0.5
343 33 0.679865 0.335496 0.5
974 26 0.68104 0.367439 0.5
625 32 0.70958 0.31627 0.5
711 34 0.710446 0.350161 0.5
156 25 0.739783 0.333485 0.5
277 26 0.740502 0.3676 0.5
364 32 0.768562 0.349613 0.5
822 35 0.769861 0.315919 0.5
47 31 0.799994 0.331306 0.5
999 36 0.8005 0.365678 0.5
818 25 0.825148 0.315623 0.5
862 25 0.828368 0.348608 0.5
916 25 0.853304 0.331418 0.5
585 32 0.856496 0.365801 0.5
983 32 0.883055 0.316168 0.5
191 36 0.884797 0.350041 0.5
288 35 0.916296 0.336904 0.5
87 28 0.945816 0.317962 0.5
793 29 0.946481 0.349433 0.5
503 37 0.978954 0.329995 0.5
579 28 0.974572 0.365478 0.5
111 28 0.0312295 0.378202 0.5
959 27 0.0543828 0.402004 0.5
205 27 0.0259904 0.408357 0.5
212 25 0.00165362 0.385724 0.5
830 29 0.118077 0.378236 0.5
151 37 0.086648 0.390169 0.5
410 40 0.109484 0.413856 0.5
524 33 0.0769206 0.428408 0.5
145 25 0.141028 0.400495 0.5
357 36 0.148857 0.366121 0.5
815 30 0.170835 0.392962 0.5
186 31 0.165132 0.42371 0.5
942 26 0.194191 0.416389 0.5
51 31 0.202253 0.385724 0.5
349 40 0.233299 0.375682 0.5
48 25 0.224333 0.408641 0.5
129 36 0.253861 0.427526 0.5
541 33 0.25997 0.394705 0.5
423 34 0.293701 0.376572 0.5
126 32 0.287384 0.414225 0.5
266 35 0.316146 0.397146 0.5
593 25 0.347253 0.383445 0.5
412 29 0.345963 0.413778 0.5
595 35 0.378696 0.396705 0.5
928 33 0.408746 0.377388 0.5
128 31 0.405763 0.412826 0.5
771 26 0.435224 0.393449 0.5
432 29 0.434209 0.42733 0.5
348 27 0.464894 0.377866 0.5
394 29 0.461423 0.409975 0.5
893 30 0.491523 0.395673 0.5
297 30 0.489067 0.428906 0.5
619 32 0.52568 0.381899 0.5
404 31 0.517382 0.413516 0.5
347 44 0.557586 0.403016 0.5
42 40 0.591542 0.387896 0.5
904 34 0.593529 0.419268 0.5
118 26 0.625434 0.400513 0.5
968 37 0.652445 0.381094 0.5
760 26 0.653072 0.417165 0.5
137 33 0.681758 0.400983 0.5
867 37 0.625374 0.434929 0.5
553 32 0.711185 0.383732 0.5
725 38 0.713003 0.420202 0.5
590 25 0.741716 0.399844 0.5
64 31 0.769192 0.383988 0.5
338 29 0.767267 0.417366 0.5
269 32 0.797664 0.401799 0.5
633 30 0.829101 0.385166 0.5
601 31 0.826571 0.421486 0.5
271 30 0.854775 0.403457 0.5
575 32 0.885072 0.421651 0.5
869 32 0.884918 0.386878 0.5
632 30 0.912705 0.370832 0.5
973 22 0.914645 0.40455 0.5
533 35 0.941256 0.382761 0.5
807 23 0.94037 0.417518 0.5
713 37 0.969237 0.398933 0.5
60 27 0.997894 0.415907 0.5
594 33 0.0425253 0.435691 0.5
925 23 0.0349391 0.46512 0.5
600 35 0.00683728 0.446292 0.5
641 29 0.00838173 0.481958 0.5
11 37 0.0692693 0.466362 0.5
680 29 0.10079 0.451292 0.5
447 36 0.0994168 0.488395 0.5
722 33 0.133107 0.434954 0.5
948 36 0.128891 0.470086 0.5
804 29 0.159762 0.456756 0.5
865 22 0.159237 0.48988 0.5
116 23 0.18757 0.445909 0.5
475 26 0.186065 0.475108 0.5
7 35 0.219996 0.442237 0.5
640 37 0.217837 0.477442 0.5
40 39 0.253835 0.464925 0.5
300 36 0.284121 0.449018 0.5
127 23 0.282029 0.482104 0.5
693 29 0.317902 0.431343 0.5
563 35 0.311264 0.465988 0.5
956 33 0.34503 0.4463 0.5
29 29 0.342167 0.480749 0.5
560 29 0.376899 0.430338 0.5
470 29 0.37338 0.463157 0.5
446 28 0.404514 0.4445 0.5
543 33 0.403898 0.477977 0.5
117 31 0.432391 0.462572 0.5
411 31 0.460109 0.444184 0.5
62 28 0.461512 0.478699 0.5
870 30 0.489189 0.462073 0.5
602 25 0.515924 0.446725 0.5
79 37 0.519266 0.481464 0.5
820 29 0.542283 0.42982 0.5
311 28 0.544052 0.460355 0.5
335 33 0.551006 0.496453 0.5
864 25 0.569824 0.440616 0.5
634 18 0.56885 0.469656 0.5
522 35 0.596486 0.454569 0.5
691 38 0.593801 0.489459 0.5
810 31 0.626659 0.471031 0.5
282 27 0.681756 0.434862 0.5
981 30 0.653618 0.450966 0.5
319 29 0.681734 0.468472 0.5
323 30 0.655821 0.486073 0.5
605 24 0.741049 0.43445 0.5
778 24 0.709824 0.452641 0.5
683 34 0.737022 0.468661 0.5
613 27 0.708987 0.486073 0.5
135 29 0.797905 0.436234 0.5
119 29 0.766787 0.452727 0.5
876 31 0.795888 0.468328 0.5
842 28 0.766141 0.486114 0.5
142 31 0.824464 0.455925 0.5
861 35 0.855972 0.438616 0.5
187 33 0.857541 0.475105 0.5
960 40 0.822967 0.495418 0.5
696 27 0.885691 0.456591 0.5
438 27 0.911196 0.435685 0.5
512 31 0.915257 0.472312 0.5
790 32 0.889223 0.491672 0.5
109 42 0.941582 0.45175 0.5
726 29 0.946674 0.486366 0.5
748 35 0.970209 0.432697 0.5
972 29 0.978058 0.466283 0.5
913 29 0.0397644 0.494783 0.5
684 25 0.0422592 0.528501 0.5
946 30 0.0172268 0.548363 0.5
854 28 0.0135413 0.513527 0.5
714 29 0.0689145 0.504727 0.5
472 27 0.0712167 0.53842 0.5
10 29 0.0992521 0.523944 0.5
352 27 0.0986164 0.556888 0.5
833 33 0.130817 0.505425 0.5
287 35 0.128792 0.540577 0.5
82 33 0.159804 0.524768 0.5
460 34 0.188908 0.507234 0.5
284 35 0.191793 0.546072 0.5
883 35 0.218722 0.519055 0.5
909 28 0.227314 0.554369 0.5
152 34 0.250179 0.498759 0.5
226 31 0.251726 0.531953 0.5
32 22 0.310684 0.498287 0.5
45 28 0.281951 0.513693 0.5
526 30 0.28203 0.546494 0.5
388 26 0.308852 0.530678 0.5
275 32 0.370939 0.495322 0.5
486 37 0.339727 0.515369 0.5
371 29 0.340029 0.5471 0.5
13 31 0.371576 0.531075 0.5
800 23 0.432027 0.496813 0.5
572 34 0.40072 0.549515 0.5
246 33 0.401015 0.512014 0.5
198 35 0.427715 0.52939 0.5
108 33 0.487043 0.496565 0.5
25 33 0.457307 0.512982 0.5
209 26 0.456217 0.54653 0.5
732 28 0.484952 0.529374 0.5
850 23 0.514138 0.513501 0.5
281 25 0.512271 0.544693 0.5
570 34 0.541107 0.52976 0.5
908 21 0.571239 0.516375 0.5
123 18 0.569789 0.54329 0.5
195 37 0.599033 0.525431 0.5
573 30 0.627607 0.504068 0.5
324 38 0.630729 0.541562 0.5
49 27 0.655812 0.520805 0.5
163 26 0.658655 0.556691 0.5
997 34 0.683718 0.503837 0.5
295 33 0.68221 0.538333 0.5
546 32 0.739088 0.504386 0.5
584 25 0.712639 0.519405 0.5
880 40 0.742429 0.543395 0.5
612 27 0.709416 0.550418 0.5
435 23 0.792206 0.501512 0.5
777 27 0.76739 0.520014 0.5
489 22 0.796278 0.528885 0.5
654 25 0.774801 0.551721 0.5
285 30 0.807005 0.558434 0.5
398 37 0.857893 0.510814 0.5
784 28 0.82794 0.531731 0.5
918 39 0.863103 0.545765 0.5
789 28 0.922042 0.50594 0.5
906 38 0.893743 0.525739 0.5
724 40 0.921572 0.54702 0.5
359 34 0.950346 0.522579 0.5
342 39 0.977529 0.500011 0.5
827 40 0.984365 0.536397 0.5
160 29 0.0475981 0.560809 0.5
872 39 0.0570169 0.599842 0.5
204 34 0.0220183 0.584623 0.5
320 33 0.0279444 0.618398 0.5
450 24 0.072684 0.571553 0.5
74 35 0.0975627 0.591771 0.5
1 26 0.125658 0.575596 0.5
907 27 0.127492 0.608722 0.5
286 31 0.155967 0.558372 0.5
441 30 0.15384 0.59159 0.5
344 21 0.179422 0.577524 0.5
417 25 0.184082 0.605597 0.5
627 33 0.210385 0.581271 0.5
235 35 0.245662 0.592084 0.5
316 38 0.218295 0.615126 0.5
189 13 0.253836 0.561475 0.5
890 33 0.311233 0.565179 0.5
386 36 0.279228 0.579128 0.5
717 30 0.279567 0.613893 0.5
547 33 0.310666 0.597733 0.5
304 28 0.367257 0.564384 0.5
220 30 0.339887 0.581883 0.5
915 27 0.365774 0.598164 0.5
523 22 0.338446 0.614295 0.5
604 22 0.42836 0.563716 0.5
507 29 0.396127 0.580528 0.5
3 33 0.396894 0.611319 0.5
481 30 0.427336 0.593992 0.5
758 22 0.455501 0.577844 0.5
184 27 0.483772 0.561429 0.5
638 47 0.485164 0.600047 0.5
321 31 0.456458 0.611618 0.5
454 32 0.513005 0.578352 0.5
755 25 0.541592 0.560255 0.5
327 31 0.545012 0.590157 0.5
932 27 0.517442 0.610661 0.5
334 33 0.571667 0.571574 0.5
496 30 0.600227 0.557618 0.5
354 34 0.604041 0.591248 0.5
774 33 0.574697 0.607172 0.5
678 30 0.631557 0.573536 0.5
899 23 0.656577 0.58611 0.5
322 23 0.673801 0.607259 0.5
43 35 0.634936 0.61093 0.5
50 32 0.685998 0.57612 0.5
134 34 0.704379 0.607668 0.5
878 32 0.721657 0.577544 0.5
759 36 0.737733 0.609095 0.5
149 27 0.754689 0.578107 0.5
630 32 0.786743 0.584584 0.5
514 25 0.770313 0.612043 0.5
477 31 0.802324 0.615268 0.5
801 26 0.820846 0.587866 0.5
675 27 0.838516 0.561097 0.5
237 35 0.85859 0.586149 0.5
98 35 0.836003 0.614761 0.5
495 33 0.893054 0.563377 0.5
240 29 0.891141 0.594638 0.5
190 39 0.925188 0.586829 0.5
231 32 0.870993 0.620282 0.5
207 31 0.954558 0.561096 0.5
213 32 0.989629 0.569814 0.5
459 36 0.962091 0.59675 0.5
19 28 0.994437 0.604592 0.5
868 38 0.939785 0.623569 0.5
610 30 0.0533149 0.637846 0.5
987 35 0.0510193 0.671211 0.5
468 27 0.0223476 0.654272 0.5
624 24 0.00364827 0.635239 0.5
466 42 0.0114926 0.688591 0.5
399 34 0.0854016 0.62418 0.5
970 22 0.0807721 0.657645 0.5
739 42 0.114457 0.639227 0.5
351 31 0.108575 0.676875 0.5
617 33 0.141335 0.661369 0.5
419 33 0.157044 0.625975 0.5
954 24 0.170097 0.654037 0.5
552 30 0.19217 0.635552 0.5
439 28 0.198022 0.669885 0.5
989 34 0.223635 0.651114 0.5
449 26 0.252316 0.627943 0.5
247 24 0.25303 0.660254 0.5
667 27 0.310325 0.63109 0.5
387 29 0.280607 0.645255 0.5
53 35 0.310475 0.665267 0.5
657 25 0.27888 0.676869 0.5
840 26 0.366746 0.626799 0.5
808 26 0.338988 0.644739 0.5
370 37 0.369079 0.661757 0.5
863 26 0.344064 0.675087 0.5
525 26 0.426276 0.627439 0.5
735 28 0.395908 0.642809 0.5
494 23 0.399823 0.672937 0.5
537 27 0.424638 0.659568 0.5
185 36 0.455709 0.64822 0.5
268 43 0.487781 0.636413 0.5
395 28 0.481743 0.671514 0.5
59 23 0.512004 0.663245 0.5
362 32 0.544961 0.625115 0.5
773 21 0.51969 0.638167 0.5
221 23 0.542867 0.657127 0.5
599 33 0.572565 0.642694 0.5
474 28 0.604107 0.625595 0.5
183 28 0.599507 0.65787 0.5
635 23 0.571572 0.674332 0.5
463 26 0.629062 0.646136 0.5
757 38 0.65562 0.670907 0.5
484 34 0.659629 0.636791 0.5
681 24 0.685179 0.661721 0.5
75 21 0.625832 0.675862 0.5
695 21 0.687496 0.631748 0.5
276 35 0.716704 0.64413 0.5
76 26 0.735379 0.668826 0.5
299 25 0.706958 0.681023 0.5
969 29 0.752099 0.642468 0.5
308 26 0.766541 0.673185 0.5
392 30 0.783166 0.643643 0.5
396 31 0.799666 0.674533 0.5
200 34 0.818585 0.645431 0.5
515 29 0.853495 0.647244 0.5
436 31 0.833982 0.676253 0.5
992 37 0.871162 0.679162 0.5
236 41 0.890395 0.650497 0.5
539 31 0.908295 0.621916 0.5
146 25 0.924922 0.654189 0.5
261 38 0.906352 0.684171 0.5
747 24 0.958076 0.657169 0.5
643 28 0.973358 0.631272 0.5
401 25 0.989695 0.660251 0.5
433 25 0.938896 0.684096 0.5
894 27 0.969632 0.684023 0.5
873 32 0.0469349 0.70545 0.5
279 32 0.0482183 0.740065 0.5
685 30 0.0180216 0.721436 0.5
37 29 0.0788823 0.723283 0.5
257 33 0.0796327 0.689999 0.5
721 27 0.10827 0.710486 0.5
518 30 0.107126 0.742735 0.5
903 31 0.138624 0.696418 0.5
455 31 0.137699 0.725802 0.5
462 29 0.16948 0.68514 0.5
639 22 0.168269 0.716541 0.5
731 35 0.200517 0.701715 0.5
947 33 0.196078 0.733009 0.5
86 30 0.231461 0.685394 0.5
255 29 0.229249 0.719221 0.5
339 36 0.261512 0.704004 0.5
554 29 0.285689 0.731248 0.5
291 27 0.294727 0.699731 0.5
461 32 0.253136 0.741163 0.5
99 25 0.323081 0.695672 0.5
15 33 0.318878 0.726417 0.5
437 32 0.351332 0.709789 0.5
598 34 0.378675 0.732382 0.5
825 36 0.384139 0.698184 0.5
708 26 0.417245 0.695174 0.5
937 32 0.410233 0.724206 0.5
817 35 0.447362 0.681698 0.5
415 24 0.442036 0.715017 0.5
337 29 0.471943 0.704417 0.5
153 37 0.495142 0.726489 0.5
253 29 0.464589 0.73844 0.5
978 23 0.505223 0.69182 0.5
741 34 0.537607 0.685507 0.5
482 29 0.525486 0.715873 0.5
945 34 0.562145 0.706533 0.5
782 28 0.549215 0.737776 0.5
159 34 0.583527 0.731526 0.5
88 41 0.599447 0.695875 0.5
520 31 0.619232 0.727481 0.5
314 31 0.639199 0.702376 0.5
340 22 0.651699 0.728112 0.5
501 34 0.676912 0.696532 0.5
975 27 0.680914 0.731034 0.5
258 38 0.710454 0.71631 0.5
93 42 0.743971 0.701781 0.5
839 27 0.734183 0.735645 0.5
583 24 0.765601 0.732643 0.5
254 33 0.779108 0.704038 0.5
780 29 0.797584 0.733658 0.5
703 30 0.815382 0.705319 0.5
828 29 0.850588 0.706835 0.5
697 36 0.830916 0.737056 0.5
510 35 0.867343 0.741372 0.5
238 25 0.884959 0.71248 0.5
567 29 0.917053 0.713026 0.5
505 33 0.903171 0.742086 0.5
248 26 0.936029 0.744006 0.5
224 30 0.948998 0.714118 0.5
197 29 0.982879 0.712113 0.5
223 19 0.994692 0.738928 0.5
647 30 0.966536 0.743928 0.5
738 32 0.0436275 0.773293 0.5
67 30 0.0192917 0.75575 0.5
498 29 0.0129009 0.789765 0.5
215 28 0.0410842 0.805926 0.5
490 32 0.0776706 0.759104 0.5
155 30 0.073862 0.790923 0.5
743 32 0.107352 0.77949 0.5
315 28 0.135425 0.75893 0.5
718 20 0.137618 0.787232 0.5
811 26 0.164225 0.745965 0.5
218 23 0.161585 0.778011 0.5
565 27 0.186304 0.79616 0.5
391 25 0.189229 0.764491 0.5
984 32 0.221084 0.753886 0.5
451 33 0.214307 0.785748 0.5
577 36 0.246113 0.777242 0.5
5 33 0.314613 0.758224 0.5
921 37 0.279087 0.767842 0.5
69 35 0.307407 0.792144 0.5
230 31 0.347384 0.744965 0.5
682 36 0.340817 0.780027 0.5
122 30 0.372968 0.768844 0.5
835 33 0.366734 0.803742 0.5
877 29 0.436119 0.747481 0.5
467 31 0.398158 0.792987 0.5
222 33 0.402795 0.759007 0.5
649 35 0.429767 0.781826 0.5
78 20 0.458492 0.770266 0.5
979 35 0.487942 0.764022 0.5
102 22 0.490892 0.796807 0.5
355 31 0.460596 0.80051 0.5
558 31 0.518967 0.749284 0.5
919 24 0.517872 0.781269 0.5
211 19 0.541099 0.764815 0.5
444 33 0.550033 0.793908 0.5
292 28 0.569333 0.763458 0.5
527 28 0.585249 0.788819 0.5
30 32 0.603051 0.760936 0.5
173 30 0.621011 0.789768 0.5
52 37 0.635992 0.757355 0.5
591 26 0.653151 0.786209 0.5
746 24 0.668142 0.759141 0.5
373 35 0.68712 0.785035 0.5
669 40 0.70518 0.755831 0.5
56 27 0.743837 0.762077 0.5
924 26 0.723666 0.787454 0.5
858 33 0.756425 0.792948 0.5
843 34 0.778483 0.761678 0.5
272 36 0.794069 0.793738 0.5
588 26 0.813109 0.764744 0.5
502 25 0.82676 0.796583 0.5
889 28 0.846352 0.768933 0.5
483 28 0.858353 0.79979 0.5
113 35 0.8816 0.77236 0.5
38 29 0.918099 0.769735 0.5
642 31 0.925943 0.797704 0.5
622 28 0.89251 0.80114 0.5
922 36 0.95308 0.776112 0.5
131 28 0.987633 0.767365 0.5
710 37 0.981328 0.800009 0.5
193 28 0.0658251 0.819825 0.5
469 36 0.0411495 0.844954 0.5
920 29 0.0129846 0.82357 0.5
161 27 0.00670497 0.856351 0.5
380 38 0.0800941 0.84743 0.5
487 30 0.0952795 0.812505 0.5
706 32 0.126681 0.811487 0.5
442 35 0.113262 0.842019 0.5
172 21 0.157355 0.806065 0.5
227 32 0.14906 0.836174 0.5
194 31 0.179275 0.829141 0.5
941 29 0.167943 0.862717 0.5
775 33 0.201815 0.85762 0.5
659 35 0.242006 0.811853 0.5
180 33 0.210204 0.821942 0.5
819 30 0.235107 0.848539 0.5
150 38 0.269886 0.834984 0.5
650 29 0.276069 0.801728 0.5
61 32 0.303439 0.82494 0.5
148 34 0.298932 0.859869 0.5
535 25 0.329929 0.848921 0.5
453 25 0.336073 0.81324 0.5
192 36 0.360683 0.837142 0.5
366 29 0.387811 0.858628 0.5
993 30 0.394152 0.823929 0.5
961 30 0.42815 0.81464 0.5
301 36 0.421277 0.848502 0.5
798 34 0.454491 0.836793 0.5
178 23 0.48745 0.82677 0.5
844 33 0.480064 0.860053 0.5
824 31 0.44665 0.872617 0.5
609 30 0.512625 0.847533 0.5
214 34 0.520388 0.81438 0.5
420 34 0.547361 0.837813 0.5
699 23 0.531762 0.868784 0.5
302 26 0.573259 0.818826 0.5
719 23 0.578922 0.846669 0.5
752 26 0.601804 0.81663 0.5
562 37 0.614948 0.846018 0.5
147 30 0.635011 0.816877 0.5
241 33 0.668118 0.817449 0.5
926 34 0.651535 0.846037 0.5
208 32 0.686915 0.849146 0.5
990 40 0.703389 0.816812 0.5
219 28 0.736176 0.820536 0.5
660 28 0.720878 0.848491 0.5
663 33 0.754245 0.850774 0.5
158 35 0.77262 0.822666 0.5
528 33 0.808078 0.823956 0.5
397 32 0.79052 0.854827 0.5
895 29 0.821988 0.856309 0.5
931 30 0.840488 0.827483 0.5
34 31 0.874744 0.830482 0.5
55 28 0.853707 0.85779 0.5
933 29 0.887619 0.862164 0.5
943 44 0.913919 0.833107 0.5
143 30 0.92179 0.870135 0.5
89 30 0.948896 0.814066 0.5
846 33 0.949678 0.849373 0.5
516 40 0.979964 0.835809 0.5
648 25 0.977436 0.870271 0.5
905 30 0.030654 0.878623 0.5
245 22 0.0537211 0.90298 0.5
712 29 0.0263285 0.912478 0.5
736 26 0.0533387 0.930565 0.5
298 38 0.0665664 0.874791 0.5
513 27 0.101924 0.874952 0.5
168 36 0.0855219 0.907767 0.5
14 29 0.122068 0.89879 0.5
28 27 0.136048 0.868077 0.5
216 41 0.156658 0.899145 0.5
927 32 0.181981 0.924926 0.5
280 38 0.192324 0.89049 0.5
629 25 0.227882 0.881753 0.5
414 34 0.218593 0.915636 0.5
511 37 0.262181 0.870638 0.5
623 36 0.25298 0.903672 0.5
852 34 0.289076 0.895624 0.5
860 30 0.281379 0.926205 0.5
670 34 0.323323 0.881467 0.5
509 27 0.318265 0.914696 0.5
896 29 0.355544 0.869564 0.5
330 27 0.346893 0.902529 0.5
763 34 0.374351 0.924731 0.5
982 32 0.381097 0.890401 0.5
31 23 0.41468 0.883443 0.5
831 29 0.406031 0.913147 0.5
90 39 0.442823 0.905949 0.5
536 28 0.476561 0.892261 0.5
104 25 0.475197 0.922278 0.5
986 28 0.507515 0.881464 0.5
16 32 0.505478 0.913977 0.5
580 27 0.559763 0.869722 0.5
704 34 0.538008 0.902236 0.5
900 25 0.556182 0.931295 0.5
57 32 0.573648 0.90085 0.5
551 30 0.59245 0.874951 0.5
836 29 0.610942 0.901875 0.5
788 33 0.590151 0.928267 0.5
561 32 0.629369 0.87684 0.5
243 33 0.665224 0.877034 0.5
799 27 0.645105 0.90443 0.5
677 38 0.681451 0.907969 0.5
229 32 0.702055 0.878016 0.5
569 33 0.733917 0.878262 0.5
676 31 0.718243 0.910178 0.5
115 23 0.749852 0.909644 0.5
63 29 0.768409 0.882276 0.5
689 30 0.804657 0.886894 0.5
182 33 0.784018 0.909568 0.5
656 21 0.818698 0.911975 0.5
328 23 0.834874 0.886267 0.5
379 27 0.867436 0.888589 0.5
891 33 0.850336 0.915417 0.5
262 32 0.882084 0.921051 0.5
242 35 0.902847 0.89475 0.5
998 31 0.934722 0.901606 0.5
700 26 0.91486 0.927464 0.5
350 16 0.9513 0.879717 0.5
249 34 0.969868 0.906 0.5
538 34 1.00034 0.89052 0.5
596 27 0.945703 0.928473 0.5
766 29 0.996578 0.929096 0.5
124 28 0.0518582 0.960961 0.5
33 30 0.024819 0.946509 0.5
58 27 0.0249805 0.980006 0.5
162 32 0.112573 0.988826 0.5
694 31 0.0797738 0.975361 0.5
488 26 0.0811259 0.943316 0.5
203 39 0.116414 0.93024 0.5
673 27 0.106038 0.960416 0.5
996 26 0.137577 0.962037 0.5
167 27 0.15148 0.933788 0.5
18 41 0.172536 0.963945 0.5
856 28 0.205438 0.98009 0.5
559 33 0.247045 0.939807 0.5
473 31 0.2124 0.947655 0.5
71 34 0.240002 0.976137 0.5
374 34 0.271637 0.988221 0.5
809 27 0.273455 0.958506 0.5
884 36 0.310329 0.947109 0.5
493 25 0.305173 0.980014 0.5
769 29 0.343908 0.936513 0.5
181 32 0.336468 0.969036 0.5
114 26 0.366681 0.95971 0.5
991 33 0.393609 0.980822 0.5
934 25 0.426152 0.934017 0.5
256 33 0.396923 0.946721 0.5
871 28 0.424659 0.963769 0.5
425 32 0.487402 0.990241 0.5
385 32 0.454782 0.944854 0.5
845 27 0.456529 0.978052 0.5
440 39 0.490194 0.952549 0.5
445 35 0.542161 0.995224 0.5
413 26 0.515145 0.974 0.5
358 28 0.525299 0.938604 0.5
898 28 0.545808 0.96109 0.5
499 19 0.575677 0.952594 0.5
768 31 0.574606 0.980592 0.5
329 34 0.607519 0.96233 0.5
360 18 0.627729 0.985326 0.5
250 30 0.625007 0.931412 0.5
317 37 0.645656 0.963617 0.5
265 41 0.661291 0.937015 0.5
139 29 0.68174 0.968822 0.5
138 31 0.697824 0.938634 0.5
68 31 0.731133 0.938896 0.5
994 28 0.711677 0.968894 0.5
857 39 0.747676 0.969324 0.5
955 28 0.765355 0.938139 0.5
170 33 0.798088 0.937977 0.5
653 24 0.778495 0.966617 0.5
378 31 0.810035 0.966836 0.5
332 27 0.831676 0.940959 0.5
938 23 0.8635 0.948857 0.5
940 27 0.842817 0.970051 0.5
662 32 0.875659 0.98046 0.5
196 31 0.938069 0.99342 0.5
614 29 0.896821 0.952766 0.5
24 29 0.907235 0.983472 0.5
939 37 0.933678 0.958592 0.5
367 28 0.966528 0.97841 0.5
813 30 0.969222 0.944647 0.5
81 27 0.996366 0.963862 0.5
