ITEM: TIMESTEP
2500000
ITEM: NUMBER OF ATOMS
1000
ITEM: BOX BOUNDS pp pp pp
-1.4888161999999999e+01 1.4888161999999999e+01
-1.4888161999999999e+01 1.4888161999999999e+01
-5.0000000000000000e-01 5.0000000000000000e-01
ITEM: ATOMS id type xs ys zs
648 25 0.0349401 0.0417482 0.5
710 37 0.0354257 0.000557315 0.5
89 30 0.0082249 0.0231149 0.5
516 40 0.0644935 0.0252855 0.5
498 29 0.0704248 -0.00971043 0.5
469 36 0.0954373 0.0452785 0.5
920 29 0.0949535 0.00976659 0.5
380 38 0.127041 0.0270823 0.5
193 28 0.133203 -0.00445078 0.5
513 27 0.15593 0.0493703 0.5
442 35 0.160077 0.014214 0.5
227 32 0.18937 0.0342779 0.5
706 32 0.194833 0.000635622 0.5
172 21 0.227426 0.0100858 0.5
941 29 0.222429 0.0397124 0.5
218 23 0.250765 -0.00764582 0.5
194 31 0.252296 0.0225796 0.5
775 33 0.283432 0.0350559 0.5
180 33 0.280569 -0.000537969 0.5
819 30 0.312828 0.0192483 0.5
511 37 0.34257 0.0358641 0.5
150 38 0.34199 -0.000623935 0.5
148 34 0.374566 0.0189157 0.5
896 29 0.403762 0.0368383 0.5
535 25 0.403944 0.00289022 0.5
192 36 0.432859 0.0188205 0.5
366 29 0.463601 0.0359724 0.5
993 30 0.464562 0.00386521 0.5
961 30 0.493585 0.0223153 0.5
798 34 0.523326 0.0396599 0.5
355 31 0.523898 0.00465369 0.5
178 23 0.551068 0.024114 0.5
214 34 0.578995 0.0131599 0.5
609 30 0.585816 0.0455332 0.5
420 34 0.61871 0.0337844 0.5
444 33 0.610445 0.00126347 0.5
302 26 0.650966 0.0395374 0.5
527 28 0.643357 0.00732588 0.5
562 37 0.685544 0.0394099 0.5
752 26 0.675757 0.00711879 0.5
926 34 0.719738 0.0444666 0.5
147 30 0.707484 0.0111173 0.5
241 33 0.743067 0.0193493 0.5
208 32 0.755046 0.0518625 0.5
990 40 0.780086 0.0254533 0.5
663 33 0.815072 0.0331305 0.5
219 28 0.80186 6.86437e-05 0.5
158 35 0.835676 0.00583547 0.5
397 32 0.851163 0.0394936 0.5
528 33 0.869675 0.0113663 0.5
895 29 0.882181 0.042075 0.5
931 30 0.902539 0.0112935 0.5
55 28 0.912795 0.0400943 0.5
34 31 0.937208 0.020483 0.5
483 28 0.928032 -0.00938911 0.5
943 44 0.974756 0.0331282 0.5
642 31 0.990883 -0.00202276 0.5
622 28 0.960258 -0.00584633 0.5
846 33 0.0069676 0.0572497 0.5
161 27 0.0616485 0.0585923 0.5
538 34 0.0589055 0.0921679 0.5
350 16 0.0353883 0.0702072 0.5
249 34 0.0288824 0.104673 0.5
905 30 0.0898265 0.0789556 0.5
712 29 0.0888472 0.111618 0.5
245 22 0.115113 0.0951078 0.5
298 38 0.12571 0.0659995 0.5
168 36 0.142567 0.108703 0.5
28 27 0.1852 0.0664752 0.5
14 29 0.160733 0.0823277 0.5
203 39 0.189064 0.103738 0.5
216 41 0.221246 0.0756104 0.5
629 25 0.311901 0.0492935 0.5
280 38 0.255033 0.0581319 0.5
927 32 0.251684 0.0929678 0.5
414 34 0.287922 0.0705323 0.5
473 31 0.284664 0.105901 0.5
623 36 0.317171 0.087566 0.5
670 34 0.375015 0.0529839 0.5
852 34 0.347748 0.0745559 0.5
860 30 0.34658 0.107337 0.5
509 27 0.378214 0.0864115 0.5
982 32 0.431582 0.0519739 0.5
330 27 0.405179 0.0695391 0.5
769 29 0.404805 0.102825 0.5
763 34 0.433876 0.0867614 0.5
301 36 0.49173 0.0555219 0.5
831 29 0.459745 0.0686145 0.5
256 33 0.465057 0.100878 0.5
31 23 0.49321 0.0870275 0.5
934 25 0.492298 0.113721 0.5
844 33 0.553724 0.0580335 0.5
824 31 0.52047 0.075452 0.5
90 39 0.522999 0.111345 0.5
536 28 0.555248 0.0904952 0.5
699 23 0.609633 0.0618738 0.5
986 28 0.58191 0.0768914 0.5
16 32 0.581257 0.109466 0.5
704 34 0.611801 0.0947048 0.5
719 23 0.63696 0.0669805 0.5
580 27 0.646846 0.0945817 0.5
551 30 0.666914 0.0693441 0.5
836 29 0.680256 0.100839 0.5
561 32 0.698586 0.0744441 0.5
799 27 0.712526 0.105124 0.5
243 33 0.731932 0.0755143 0.5
677 38 0.747052 0.108116 0.5
660 28 0.793842 0.0590241 0.5
229 32 0.770535 0.0816948 0.5
569 33 0.804924 0.0886648 0.5
63 29 0.828095 0.0647399 0.5
182 33 0.839267 0.0970705 0.5
689 30 0.859005 0.0692589 0.5
656 21 0.871181 0.0991222 0.5
328 23 0.887476 0.076262 0.5
379 27 0.915441 0.07024 0.5
891 33 0.913155 0.102603 0.5
933 29 0.942989 0.0516773 0.5
242 35 0.944732 0.0866017 0.5
700 26 0.970538 0.106424 0.5
143 30 0.97467 0.0697846 0.5
998 31 0.997394 0.0919654 0.5
766 29 0.0580293 0.124009 0.5
81 27 0.0555201 0.158625 0.5
813 30 0.0316525 0.140587 0.5
33 30 0.0849851 0.143279 0.5
736 26 0.114889 0.128037 0.5
124 28 0.112737 0.160301 0.5
488 26 0.14138 0.14398 0.5
673 27 0.167815 0.129244 0.5
162 32 0.170935 0.161372 0.5
694 31 0.139705 0.176317 0.5
996 26 0.19607 0.139823 0.5
167 27 0.223058 0.114175 0.5
290 31 0.201733 0.174758 0.5
389 39 0.228559 0.151045 0.5
18 41 0.256961 0.128671 0.5
517 36 0.262956 0.163743 0.5
856 28 0.290916 0.141724 0.5
953 29 0.294468 0.176875 0.5
559 33 0.315867 0.120843 0.5
71 34 0.320648 0.154607 0.5
884 36 0.378026 0.119476 0.5
809 27 0.351234 0.136912 0.5
374 34 0.351387 0.170364 0.5
493 25 0.380335 0.15445 0.5
114 26 0.437318 0.12022 0.5
181 32 0.411199 0.135279 0.5
390 32 0.413057 0.169175 0.5
991 33 0.444103 0.150741 0.5
871 28 0.472337 0.135303 0.5
385 32 0.50427 0.143732 0.5
492 39 0.474889 0.169921 0.5
845 27 0.512602 0.173552 0.5
104 25 0.554704 0.121887 0.5
440 39 0.54112 0.151828 0.5
358 28 0.57813 0.141662 0.5
413 26 0.571033 0.172772 0.5
499 19 0.629996 0.117933 0.5
900 25 0.605912 0.129619 0.5
898 28 0.60406 0.159636 0.5
768 31 0.633184 0.146925 0.5
57 32 0.659467 0.128262 0.5
250 30 0.691561 0.131283 0.5
788 33 0.66554 0.164442 0.5
317 37 0.702216 0.163127 0.5
265 41 0.727192 0.136973 0.5
139 29 0.738838 0.169076 0.5
676 31 0.78268 0.113205 0.5
138 31 0.761648 0.138606 0.5
115 23 0.814691 0.117856 0.5
994 28 0.772655 0.172482 0.5
68 31 0.793855 0.144788 0.5
955 28 0.827343 0.144197 0.5
170 33 0.8566 0.126763 0.5
653 24 0.85436 0.157978 0.5
332 27 0.886923 0.122293 0.5
378 31 0.884784 0.152371 0.5
940 27 0.909394 0.17177 0.5
938 23 0.914171 0.137509 0.5
662 32 0.940048 0.155796 0.5
262 32 0.940823 0.121831 0.5
596 27 0.999055 0.123525 0.5
614 29 0.96924 0.137256 0.5
24 29 0.966851 0.172236 0.5
939 37 1.00037 0.155607 0.5
367 28 0.0277938 0.176513 0.5
851 31 0.0557616 0.192476 0.5
448 32 0.057288 0.229935 0.5
936 25 0.0294675 0.209559 0.5
58 27 0.0811926 0.17572 0.5
80 29 0.0827695 0.209644 0.5
66 31 0.108446 0.19172 0.5
542 32 0.110593 0.227795 0.5
886 28 0.136757 0.210495 0.5
293 35 0.170187 0.19435 0.5
802 35 0.172148 0.230313 0.5
770 41 0.205432 0.210226 0.5
171 34 0.23615 0.188014 0.5
597 24 0.249319 0.217882 0.5
621 27 0.271205 0.198146 0.5
823 28 0.275551 0.229793 0.5
646 28 0.299293 0.210327 0.5
274 27 0.32345 0.187181 0.5
169 21 0.326769 0.215825 0.5
608 29 0.353837 0.204818 0.5
239 35 0.346588 0.238518 0.5
464 30 0.381259 0.186858 0.5
592 25 0.378683 0.221197 0.5
701 37 0.409654 0.205513 0.5
430 33 0.441709 0.186677 0.5
144 34 0.442212 0.221742 0.5
795 35 0.473755 0.204856 0.5
603 29 0.50779 0.203106 0.5
485 34 0.510372 0.236921 0.5
425 32 0.538967 0.190626 0.5
452 33 0.567669 0.210579 0.5
107 29 0.538717 0.224846 0.5
930 26 0.630286 0.178052 0.5
445 35 0.598543 0.193471 0.5
103 33 0.596901 0.227365 0.5
749 28 0.62877 0.215794 0.5
329 34 0.65583 0.197738 0.5
666 32 0.65763 0.231562 0.5
360 18 0.685657 0.189175 0.5
305 30 0.688037 0.218651 0.5
571 42 0.717679 0.197191 0.5
742 31 0.715227 0.237677 0.5
655 29 0.754746 0.197661 0.5
165 22 0.739018 0.222176 0.5
857 39 0.810033 0.174308 0.5
521 32 0.769556 0.227717 0.5
377 27 0.785947 0.202973 0.5
855 31 0.821688 0.207832 0.5
737 34 0.802461 0.235444 0.5
356 25 0.842865 0.185227 0.5
744 33 0.8748 0.184221 0.5
644 30 0.853763 0.210819 0.5
106 20 0.880597 0.215303 0.5
382 37 0.938414 0.192011 0.5
210 28 0.899404 0.236946 0.5
964 33 0.905561 0.204474 0.5
849 35 0.93523 0.227161 0.5
196 31 0.997769 0.18937 0.5
548 36 0.969127 0.207655 0.5
733 37 1.00041 0.225319 0.5
405 29 0.0294018 0.242434 0.5
976 23 0.0528286 0.262011 0.5
407 26 0.0511532 0.294016 0.5
705 29 0.0256626 0.276611 0.5
729 23 0.0823957 0.24525 0.5
345 32 0.0819723 0.275244 0.5
130 28 0.11186 0.262863 0.5
848 29 0.11165 0.295902 0.5
252 35 0.139364 0.24455 0.5
260 28 0.140126 0.279305 0.5
672 31 0.169449 0.264941 0.5
728 34 0.171221 0.297387 0.5
403 25 0.199189 0.247884 0.5
754 31 0.199608 0.277839 0.5
756 28 0.227634 0.23683 0.5
965 29 0.229047 0.267988 0.5
902 30 0.225386 0.300326 0.5
84 27 0.254153 0.250865 0.5
427 31 0.25951 0.285438 0.5
753 32 0.31076 0.242494 0.5
847 37 0.284141 0.262653 0.5
966 25 0.288198 0.298228 0.5
400 34 0.319017 0.274951 0.5
273 28 0.351653 0.27232 0.5
331 26 0.378993 0.287618 0.5
325 32 0.408382 0.239988 0.5
950 32 0.377983 0.255575 0.5
263 29 0.408258 0.273915 0.5
457 37 0.441228 0.256722 0.5
368 33 0.436225 0.29144 0.5
912 38 0.474047 0.242648 0.5
874 37 0.468542 0.278956 0.5
944 29 0.500624 0.267799 0.5
568 31 0.499075 0.301282 0.5
508 28 0.565437 0.24157 0.5
424 23 0.532113 0.257322 0.5
582 28 0.529376 0.287546 0.5
497 32 0.559174 0.273527 0.5
715 23 0.625564 0.247527 0.5
779 37 0.593176 0.260298 0.5
500 41 0.588208 0.296828 0.5
307 32 0.620672 0.279596 0.5
637 28 0.655642 0.263719 0.5
952 34 0.65011 0.295655 0.5
838 23 0.685296 0.250242 0.5
963 27 0.681695 0.284126 0.5
363 25 0.708624 0.26736 0.5
312 38 0.749409 0.255895 0.5
94 25 0.733109 0.283029 0.5
270 31 0.764874 0.288477 0.5
408 28 0.784551 0.260835 0.5
12 34 0.817304 0.265286 0.5
797 31 0.79685 0.296241 0.5
589 24 0.8338 0.236472 0.5
393 38 0.865962 0.243154 0.5
745 35 0.828909 0.298703 0.5
544 28 0.850527 0.273603 0.5
27 33 0.863011 0.306675 0.5
202 38 0.883519 0.279757 0.5
353 29 0.912485 0.298399 0.5
310 33 0.915009 0.264812 0.5
615 28 0.94088 0.286373 0.5
806 27 0.968334 0.241085 0.5
97 23 0.94331 0.257659 0.5
244 29 0.971199 0.273096 0.5
751 24 0.998605 0.258675 0.5
54 29 0.995792 0.290283 0.5
233 27 0.0226459 0.306754 0.5
199 36 0.0506288 0.326903 0.5
618 35 0.0225271 0.345328 0.5
132 31 0.082126 0.30785 0.5
429 27 0.0777924 0.343233 0.5
917 39 0.107721 0.330299 0.5
837 33 0.139157 0.311143 0.5
786 38 0.13854 0.347819 0.5
783 26 0.16716 0.330336 0.5
26 39 0.193056 0.350247 0.5
995 25 0.197792 0.317937 0.5
785 33 0.226704 0.332557 0.5
967 24 0.253895 0.314219 0.5
690 27 0.253578 0.34951 0.5
376 40 0.281509 0.330052 0.5
671 25 0.353751 0.302302 0.5
957 36 0.31873 0.309482 0.5
175 43 0.316996 0.348276 0.5
96 30 0.346885 0.331673 0.5
888 28 0.378632 0.31939 0.5
834 31 0.372918 0.352889 0.5
409 30 0.407215 0.30659 0.5
303 29 0.405147 0.339367 0.5
372 27 0.438641 0.325423 0.5
949 34 0.433025 0.357855 0.5
73 31 0.467184 0.312542 0.5
296 30 0.463177 0.346342 0.5
977 35 0.497333 0.334581 0.5
174 31 0.554876 0.309658 0.5
988 20 0.525676 0.318908 0.5
434 24 0.522858 0.352002 0.5
121 32 0.551374 0.341403 0.5
476 22 0.592192 0.330039 0.5
112 25 0.581687 0.35551 0.5
529 28 0.621168 0.312017 0.5
176 33 0.621368 0.349985 0.5
531 26 0.647662 0.327887 0.5
206 32 0.657498 0.357482 0.5
679 42 0.68143 0.321646 0.5
426 23 0.710992 0.302795 0.5
136 37 0.715237 0.339262 0.5
225 34 0.741095 0.313892 0.5
44 33 0.751877 0.344749 0.5
91 25 0.773603 0.320796 0.5
416 34 0.808365 0.327289 0.5
278 33 0.784459 0.351773 0.5
540 35 0.818031 0.36378 0.5
164 33 0.841823 0.334135 0.5
829 25 0.873358 0.338465 0.5
530 29 0.855117 0.363253 0.5
859 39 0.895582 0.362728 0.5
365 27 0.902163 0.327198 0.5
661 30 0.936943 0.318611 0.5
264 31 0.928606 0.34976 0.5
923 33 0.968125 0.304446 0.5
346 29 0.961963 0.341248 0.5
929 33 0.995874 0.325164 0.5
456 31 0.990935 0.358866 0.5
781 29 0.0502277 0.36348 0.5
313 33 0.0468898 0.396149 0.5
2 28 0.0188713 0.379263 0.5
762 32 0.0133051 0.412069 0.5
369 35 0.0779774 0.379776 0.5
686 30 0.0762324 0.416587 0.5
636 22 0.107285 0.369284 0.5
803 31 0.104355 0.401707 0.5
120 30 0.135623 0.383075 0.5
897 31 0.132037 0.417836 0.5
881 27 0.164541 0.367879 0.5
787 27 0.160043 0.404342 0.5
792 31 0.190926 0.385238 0.5
882 36 0.189722 0.419706 0.5
36 37 0.225814 0.367603 0.5
687 33 0.2204 0.400655 0.5
179 31 0.253034 0.38948 0.5
616 30 0.249317 0.422062 0.5
707 45 0.28342 0.369908 0.5
935 25 0.278631 0.407147 0.5
232 27 0.317016 0.384366 0.5
645 33 0.30896 0.417473 0.5
914 25 0.344543 0.370735 0.5
564 27 0.341241 0.40367 0.5
607 37 0.372849 0.388919 0.5
674 28 0.36496 0.422647 0.5
761 29 0.402487 0.373955 0.5
72 26 0.40253 0.405868 0.5
841 31 0.431207 0.393553 0.5
581 23 0.491053 0.365973 0.5
491 30 0.461996 0.377638 0.5
566 31 0.457301 0.412054 0.5
21 31 0.487109 0.398644 0.5
157 32 0.519966 0.421649 0.5
4 33 0.554618 0.373345 0.5
665 41 0.518925 0.385095 0.5
402 37 0.550679 0.407278 0.5
821 26 0.581702 0.39334 0.5
740 34 0.579535 0.426196 0.5
443 28 0.604549 0.377923 0.5
887 32 0.61024 0.408652 0.5
832 41 0.638915 0.387048 0.5
383 35 0.638242 0.426655 0.5
309 34 0.689783 0.364623 0.5
35 37 0.672511 0.406414 0.5
100 33 0.727364 0.371523 0.5
578 29 0.703905 0.39466 0.5
652 41 0.737245 0.411195 0.5
217 32 0.761178 0.37849 0.5
980 28 0.7739 0.407587 0.5
519 24 0.794108 0.382163 0.5
381 32 0.806584 0.41097 0.5
557 37 0.837677 0.394293 0.5
6 15 0.87162 0.383024 0.5
375 30 0.867063 0.413904 0.5
879 33 0.895821 0.398199 0.5
776 31 0.926494 0.38258 0.5
283 36 0.923348 0.416373 0.5
574 22 0.956864 0.370824 0.5
611 36 0.955636 0.402946 0.5
716 30 0.987674 0.392986 0.5
962 46 0.0438687 0.433069 0.5
95 32 0.0420846 0.476003 0.5
87 28 0.0136242 0.49225 0.5
628 31 0.0744515 0.454987 0.5
465 27 0.0712546 0.486328 0.5
140 30 0.104632 0.435901 0.5
812 27 0.130991 0.451096 0.5
764 37 0.102403 0.477483 0.5
259 20 0.134769 0.479224 0.5
723 29 0.159607 0.436579 0.5
702 28 0.192985 0.452536 0.5
428 28 0.160421 0.466888 0.5
750 32 0.189625 0.48381 0.5
826 30 0.220612 0.436451 0.5
506 37 0.221651 0.469454 0.5
550 25 0.250448 0.453836 0.5
458 36 0.25089 0.488491 0.5
720 28 0.276824 0.439451 0.5
556 29 0.277178 0.470615 0.5
875 34 0.305935 0.453148 0.5
154 28 0.306043 0.486411 0.5
333 30 0.336701 0.43626 0.5
658 35 0.335623 0.471727 0.5
734 32 0.366266 0.456201 0.5
651 24 0.429795 0.425166 0.5
587 36 0.396224 0.43716 0.5
794 31 0.396662 0.471753 0.5
105 31 0.425273 0.456867 0.5
692 28 0.45266 0.477976 0.5
251 32 0.487163 0.429865 0.5
664 32 0.454483 0.444367 0.5
626 35 0.48556 0.464954 0.5
125 30 0.51849 0.455391 0.5
504 39 0.514226 0.489899 0.5
101 27 0.545729 0.442112 0.5
805 27 0.547027 0.473622 0.5
730 31 0.574609 0.458494 0.5
478 29 0.606219 0.444229 0.5
267 27 0.60415 0.47804 0.5
431 31 0.633241 0.460969 0.5
1000 35 0.66747 0.441087 0.5
46 34 0.663808 0.479312 0.5
910 30 0.700709 0.426889 0.5
772 32 0.697214 0.460197 0.5
727 36 0.727577 0.448111 0.5
892 23 0.721282 0.48054 0.5
70 28 0.751144 0.480951 0.5
17 27 0.757386 0.439654 0.5
177 24 0.784528 0.435576 0.5
39 27 0.809959 0.451367 0.5
141 32 0.780687 0.466373 0.5
166 30 0.80985 0.484608 0.5
901 37 0.837126 0.430338 0.5
418 34 0.839182 0.466052 0.5
294 29 0.867451 0.447512 0.5
971 20 0.868935 0.48008 0.5
41 31 0.894985 0.433978 0.5
341 25 0.895959 0.465809 0.5
911 29 0.922348 0.448549 0.5
606 34 0.929194 0.480157 0.5
545 38 0.983574 0.430834 0.5
85 23 0.950845 0.437479 0.5
534 33 0.961681 0.464783 0.5
326 43 1.01176 0.457294 0.5
698 21 0.988283 0.481504 0.5
503 37 0.0516175 0.511146 0.5
288 35 0.0406357 0.546748 0.5
793 29 0.0197682 0.520974 0.5
791 27 0.0718003 0.541136 0.5
22 34 0.0909975 0.513026 0.5
336 35 0.125192 0.509511 0.5
111 28 0.106278 0.543134 0.5
8 25 0.13612 0.538869 0.5
555 30 0.159213 0.497187 0.5
631 30 0.165014 0.528874 0.5
668 23 0.190515 0.549132 0.5
951 29 0.194759 0.518701 0.5
796 26 0.219497 0.503707 0.5
985 25 0.21732 0.536516 0.5
228 27 0.2457 0.520899 0.5
620 28 0.243609 0.551028 0.5
532 28 0.280205 0.505102 0.5
709 30 0.274636 0.536816 0.5
92 28 0.309195 0.518181 0.5
421 34 0.367646 0.489402 0.5
77 20 0.334927 0.507146 0.5
885 25 0.335251 0.539353 0.5
549 30 0.364735 0.521559 0.5
65 31 0.391025 0.538437 0.5
201 34 0.424617 0.493326 0.5
765 24 0.393406 0.506164 0.5
20 35 0.421666 0.526329 0.5
958 23 0.452882 0.508698 0.5
384 41 0.455585 0.54225 0.5
479 21 0.478472 0.495149 0.5
767 39 0.48669 0.526098 0.5
814 31 0.520511 0.523947 0.5
133 32 0.550146 0.509724 0.5
866 29 0.54841 0.540676 0.5
471 25 0.576569 0.490793 0.5
688 27 0.57762 0.527026 0.5
9 28 0.603001 0.510199 0.5
83 31 0.603459 0.543839 0.5
318 35 0.633331 0.496465 0.5
110 30 0.631654 0.529572 0.5
23 28 0.665197 0.513587 0.5
347 44 0.664957 0.551359 0.5
816 32 0.693458 0.495252 0.5
42 40 0.697219 0.531581 0.5
289 22 0.721379 0.509009 0.5
343 33 0.750737 0.518745 0.5
853 20 0.728274 0.536418 0.5
625 32 0.779706 0.500269 0.5
711 34 0.779549 0.536355 0.5
156 25 0.80611 0.51776 0.5
822 35 0.843876 0.499651 0.5
364 32 0.835844 0.533419 0.5
47 31 0.874379 0.511795 0.5
999 36 0.871243 0.545786 0.5
818 25 0.901087 0.496879 0.5
862 25 0.903594 0.526211 0.5
916 25 0.929851 0.513539 0.5
585 32 0.928748 0.546085 0.5
480 26 0.96013 0.497178 0.5
983 32 0.958946 0.530471 0.5
188 31 0.987484 0.511581 0.5
586 42 0.996367 0.549355 0.5
579 28 0.0583282 0.576097 0.5
713 37 0.0419804 0.608512 0.5
533 35 0.0236901 0.577907 0.5
807 23 0.00878029 0.61114 0.5
60 27 0.0724419 0.601964 0.5
212 25 0.090094 0.568249 0.5
234 34 0.125232 0.570533 0.5
205 27 0.102477 0.59447 0.5
959 27 0.126899 0.613272 0.5
422 30 0.159401 0.559667 0.5
151 37 0.153227 0.593061 0.5
830 29 0.185072 0.58015 0.5
357 36 0.215774 0.569169 0.5
815 30 0.213108 0.602986 0.5
51 31 0.244729 0.586214 0.5
361 33 0.305056 0.550839 0.5
576 33 0.271499 0.569782 0.5
942 26 0.27335 0.605842 0.5
349 40 0.303294 0.588324 0.5
423 34 0.363495 0.555223 0.5
306 27 0.334091 0.568699 0.5
541 33 0.333656 0.604314 0.5
126 32 0.363402 0.589497 0.5
693 29 0.3908 0.611161 0.5
593 25 0.423919 0.560139 0.5
266 35 0.393954 0.575534 0.5
412 29 0.420562 0.597346 0.5
595 35 0.450378 0.579593 0.5
928 33 0.484618 0.564615 0.5
128 31 0.480463 0.598928 0.5
406 30 0.515505 0.553774 0.5
771 26 0.514099 0.586348 0.5
348 27 0.543338 0.572586 0.5
394 29 0.539187 0.604554 0.5
893 30 0.573488 0.559874 0.5
297 30 0.569395 0.590656 0.5
820 29 0.596288 0.610263 0.5
619 32 0.630771 0.562786 0.5
404 31 0.600841 0.578881 0.5
864 25 0.625774 0.59758 0.5
904 34 0.656804 0.587126 0.5
118 26 0.691973 0.575672 0.5
867 37 0.688628 0.610148 0.5
968 37 0.721187 0.565917 0.5
137 33 0.74983 0.585663 0.5
760 26 0.720253 0.599113 0.5
974 26 0.752415 0.553778 0.5
277 26 0.81104 0.553061 0.5
553 32 0.781013 0.570265 0.5
725 38 0.781094 0.604868 0.5
590 25 0.811904 0.584427 0.5
64 31 0.84158 0.565391 0.5
338 29 0.840675 0.597956 0.5
269 32 0.871036 0.580407 0.5
633 30 0.899773 0.564058 0.5
601 31 0.899614 0.596171 0.5
271 30 0.928228 0.58093 0.5
869 32 0.955227 0.599377 0.5
191 36 0.959747 0.564412 0.5
632 30 0.988256 0.584323 0.5
973 22 0.981657 0.614032 0.5
748 35 0.0667418 0.636083 0.5
972 29 0.0645436 0.670446 0.5
109 42 0.0282735 0.644824 0.5
594 33 0.0986748 0.625921 0.5
600 35 0.0935832 0.66154 0.5
524 33 0.127552 0.647326 0.5
145 25 0.185437 0.614457 0.5
410 40 0.156492 0.629118 0.5
680 29 0.157499 0.6637 0.5
722 33 0.186916 0.648932 0.5
186 31 0.242583 0.617672 0.5
804 29 0.214815 0.634631 0.5
948 36 0.215901 0.66755 0.5
475 26 0.243159 0.649001 0.5
460 34 0.266064 0.67066 0.5
48 25 0.298165 0.621875 0.5
116 23 0.27068 0.634344 0.5
7 35 0.297261 0.654798 0.5
129 36 0.326075 0.636186 0.5
40 39 0.330504 0.673501 0.5
300 36 0.361699 0.626362 0.5
127 23 0.363179 0.660249 0.5
563 35 0.390303 0.644977 0.5
956 33 0.419538 0.62871 0.5
29 29 0.418523 0.662646 0.5
560 29 0.449102 0.614655 0.5
470 29 0.446598 0.647753 0.5
446 28 0.476046 0.631515 0.5
543 33 0.476674 0.665938 0.5
432 29 0.508112 0.616818 0.5
117 31 0.506866 0.649687 0.5
411 31 0.5375 0.634576 0.5
62 28 0.531872 0.669117 0.5
870 30 0.560481 0.659131 0.5
602 25 0.566668 0.622508 0.5
79 37 0.594997 0.646505 0.5
311 28 0.624862 0.627135 0.5
634 18 0.626594 0.656423 0.5
522 35 0.65696 0.625308 0.5
691 38 0.655256 0.661132 0.5
335 33 0.62708 0.6856 0.5
282 27 0.746553 0.61739 0.5
810 31 0.689344 0.644913 0.5
981 30 0.718015 0.630721 0.5
323 30 0.715975 0.664776 0.5
319 29 0.745577 0.649609 0.5
605 24 0.811757 0.614597 0.5
778 24 0.773989 0.636707 0.5
613 27 0.775663 0.667287 0.5
683 34 0.804352 0.643656 0.5
135 29 0.868825 0.615016 0.5
119 29 0.837096 0.63111 0.5
842 28 0.833463 0.66367 0.5
876 31 0.86416 0.648861 0.5
861 35 0.926348 0.616234 0.5
142 31 0.894665 0.631271 0.5
960 40 0.892935 0.669931 0.5
187 33 0.926326 0.65397 0.5
575 32 0.957576 0.63443 0.5
696 27 0.972281 0.665267 0.5
438 27 0.994207 0.64058 0.5
726 29 1.00351 0.671766 0.5
359 34 0.0340029 0.684509 0.5
342 39 0.0610259 0.705556 0.5
827 40 0.0589178 0.743768 0.5
207 31 0.0307962 0.722637 0.5
11 37 0.122705 0.68199 0.5
925 23 0.0921584 0.695895 0.5
641 29 0.093755 0.725656 0.5
913 29 0.124897 0.714143 0.5
447 36 0.183241 0.685011 0.5
714 29 0.15301 0.698039 0.5
472 27 0.149678 0.732114 0.5
10 29 0.177313 0.718742 0.5
865 22 0.239988 0.685983 0.5
833 33 0.211456 0.704043 0.5
286 31 0.239771 0.726902 0.5
82 33 0.266616 0.707485 0.5
640 37 0.29607 0.691124 0.5
883 35 0.297387 0.726014 0.5
152 34 0.327758 0.709519 0.5
45 28 0.36134 0.692476 0.5
226 31 0.355053 0.72451 0.5
32 22 0.388515 0.677485 0.5
388 26 0.386082 0.712733 0.5
486 37 0.414286 0.696138 0.5
890 33 0.411753 0.732549 0.5
13 31 0.44139 0.718949 0.5
275 32 0.445181 0.684206 0.5
800 23 0.502091 0.684744 0.5
304 28 0.47042 0.736226 0.5
246 33 0.47347 0.701808 0.5
572 34 0.499818 0.720792 0.5
198 35 0.527487 0.703195 0.5
604 22 0.523345 0.741165 0.5
25 33 0.560582 0.693487 0.5
209 26 0.551805 0.728466 0.5
108 33 0.59348 0.681625 0.5
732 28 0.58021 0.718737 0.5
850 23 0.606792 0.709166 0.5
281 25 0.604682 0.738021 0.5
573 30 0.684917 0.682227 0.5
570 34 0.637119 0.718477 0.5
123 18 0.656742 0.740913 0.5
908 21 0.655732 0.693267 0.5
195 37 0.676829 0.718172 0.5
997 34 0.744582 0.68239 0.5
49 27 0.714483 0.696818 0.5
324 38 0.712469 0.731559 0.5
295 33 0.745966 0.718154 0.5
546 32 0.804203 0.676115 0.5
584 25 0.774537 0.700748 0.5
612 27 0.774694 0.730211 0.5
880 40 0.805538 0.712852 0.5
435 23 0.860312 0.681164 0.5
777 27 0.836033 0.695284 0.5
149 27 0.836121 0.730697 0.5
654 25 0.859578 0.713178 0.5
489 22 0.88497 0.701803 0.5
784 28 0.888051 0.730454 0.5
790 32 0.944001 0.683307 0.5
398 37 0.915439 0.702555 0.5
906 38 0.949768 0.719733 0.5
512 31 0.973628 0.696923 0.5
789 28 1.00512 0.704595 0.5
724 40 0.988518 0.732724 0.5
946 30 0.0523738 0.777132 0.5
213 32 0.0228963 0.752948 0.5
459 36 0.0221234 0.791925 0.5
684 25 0.123417 0.744862 0.5
854 28 0.0916247 0.756836 0.5
204 34 0.0830046 0.791202 0.5
160 29 0.116514 0.774892 0.5
352 27 0.17438 0.750491 0.5
450 24 0.144687 0.762769 0.5
74 35 0.146216 0.795076 0.5
1 26 0.174559 0.780217 0.5
287 35 0.20677 0.739392 0.5
441 30 0.205747 0.772338 0.5
344 21 0.237117 0.75732 0.5
419 33 0.239778 0.786102 0.5
284 35 0.26751 0.744672 0.5
417 25 0.271101 0.776572 0.5
627 33 0.300787 0.760709 0.5
316 38 0.300109 0.794685 0.5
909 28 0.328392 0.743204 0.5
235 35 0.332507 0.776095 0.5
189 13 0.353652 0.754432 0.5
717 30 0.3534 0.801526 0.5
386 36 0.381637 0.785576 0.5
526 30 0.381676 0.751132 0.5
547 33 0.413666 0.799456 0.5
371 29 0.438913 0.751038 0.5
220 30 0.410332 0.767254 0.5
523 22 0.439981 0.782157 0.5
915 27 0.467066 0.765678 0.5
840 26 0.462842 0.796729 0.5
507 29 0.496675 0.754844 0.5
3 33 0.492413 0.786187 0.5
481 30 0.523258 0.772606 0.5
525 26 0.530989 0.802973 0.5
758 22 0.549453 0.757421 0.5
638 47 0.569257 0.786849 0.5
184 27 0.576782 0.749102 0.5
454 32 0.603757 0.770651 0.5
932 27 0.600698 0.803955 0.5
327 31 0.628148 0.792674 0.5
755 25 0.630845 0.749896 0.5
334 33 0.655565 0.7703 0.5
774 33 0.65892 0.804829 0.5
496 30 0.685911 0.749954 0.5
354 34 0.6859 0.782736 0.5
678 30 0.716524 0.764558 0.5
163 26 0.74644 0.74954 0.5
899 23 0.744642 0.778934 0.5
134 34 0.77398 0.796556 0.5
50 32 0.774271 0.764004 0.5
878 32 0.805242 0.748649 0.5
759 36 0.804427 0.78107 0.5
675 27 0.862824 0.74615 0.5
285 30 0.834514 0.761513 0.5
801 26 0.860888 0.776641 0.5
237 35 0.892461 0.765691 0.5
918 39 0.921555 0.742975 0.5
240 29 0.931328 0.779188 0.5
495 33 0.955936 0.755899 0.5
539 31 0.964498 0.790672 0.5
190 39 0.992432 0.768555 0.5
19 28 0.0543418 0.808419 0.5
624 24 0.0521703 0.837552 0.5
401 25 0.0584404 0.865721 0.5
643 28 0.0244858 0.826402 0.5
747 24 0.0265799 0.855461 0.5
872 39 0.115112 0.809615 0.5
320 33 0.0819775 0.828081 0.5
468 27 0.086466 0.859663 0.5
610 30 0.115162 0.843814 0.5
739 42 0.177092 0.81443 0.5
399 34 0.146469 0.833153 0.5
970 22 0.145584 0.865204 0.5
351 31 0.17507 0.854635 0.5
907 27 0.210142 0.801121 0.5
903 31 0.205295 0.839008 0.5
617 33 0.234321 0.822907 0.5
954 24 0.232283 0.853856 0.5
439 28 0.262501 0.84067 0.5
552 30 0.266892 0.809374 0.5
989 34 0.295856 0.82959 0.5
449 26 0.326073 0.814503 0.5
247 24 0.326009 0.844686 0.5
387 29 0.352481 0.835698 0.5
291 27 0.350401 0.867824 0.5
667 27 0.382196 0.818388 0.5
657 25 0.38079 0.848019 0.5
808 26 0.441081 0.81763 0.5
53 35 0.411937 0.83463 0.5
863 26 0.442001 0.851315 0.5
370 37 0.472729 0.830865 0.5
735 28 0.502872 0.81637 0.5
494 23 0.502305 0.848562 0.5
825 36 0.471711 0.865664 0.5
537 27 0.528555 0.837317 0.5
321 31 0.556539 0.822929 0.5
185 36 0.555153 0.859324 0.5
817 35 0.521533 0.871608 0.5
268 43 0.589036 0.835315 0.5
59 23 0.588508 0.866996 0.5
362 32 0.627695 0.828319 0.5
773 21 0.614588 0.855856 0.5
221 23 0.639578 0.86113 0.5
474 28 0.686886 0.817337 0.5
599 33 0.660767 0.840686 0.5
75 21 0.688846 0.849727 0.5
43 35 0.71856 0.799017 0.5
463 26 0.713136 0.831201 0.5
322 23 0.746492 0.810907 0.5
484 34 0.744944 0.841145 0.5
695 21 0.773469 0.831656 0.5
681 24 0.769867 0.859016 0.5
514 25 0.79948 0.815362 0.5
276 35 0.801685 0.849578 0.5
630 32 0.835716 0.798715 0.5
477 31 0.870765 0.806294 0.5
969 29 0.826027 0.830295 0.5
308 26 0.840482 0.860147 0.5
392 30 0.85849 0.836816 0.5
98 35 0.904073 0.798651 0.5
200 34 0.891097 0.833665 0.5
231 32 0.937717 0.809946 0.5
515 29 0.923679 0.839466 0.5
868 38 0.991768 0.813462 0.5
236 41 0.961072 0.837441 0.5
146 25 0.999988 0.846892 0.5
894 27 0.0378612 0.886405 0.5
197 29 0.0502886 0.916238 0.5
224 30 0.0183033 0.911281 0.5
433 25 0.00796167 0.881514 0.5
466 42 0.0788401 0.892498 0.5
987 35 0.114107 0.878749 0.5
873 32 0.113021 0.911494 0.5
257 33 0.143158 0.89615 0.5
721 27 0.171579 0.885145 0.5
37 29 0.169674 0.917154 0.5
455 31 0.199817 0.901939 0.5
462 29 0.203034 0.869764 0.5
639 22 0.228041 0.888239 0.5
811 26 0.226599 0.918389 0.5
947 33 0.256818 0.907844 0.5
86 30 0.289155 0.861429 0.5
731 35 0.257442 0.873184 0.5
255 29 0.286691 0.895938 0.5
461 32 0.315331 0.911168 0.5
339 36 0.318584 0.876499 0.5
554 29 0.346197 0.897511 0.5
15 33 0.378469 0.882882 0.5
5 33 0.37661 0.915792 0.5
99 25 0.408215 0.868876 0.5
230 31 0.40739 0.901055 0.5
437 32 0.43738 0.881479 0.5
598 34 0.438128 0.918955 0.5
937 32 0.469099 0.903319 0.5
708 26 0.494078 0.886906 0.5
415 24 0.495687 0.923603 0.5
337 29 0.520581 0.905849 0.5
395 28 0.548694 0.889879 0.5
153 37 0.558717 0.920627 0.5
978 23 0.578878 0.893906 0.5
482 29 0.594359 0.921477 0.5
741 34 0.61193 0.886412 0.5
945 34 0.628469 0.91737 0.5
183 28 0.668899 0.872128 0.5
635 23 0.643078 0.888127 0.5
88 41 0.665007 0.91288 0.5
757 38 0.716069 0.864688 0.5
314 31 0.694007 0.893127 0.5
340 22 0.702903 0.925026 0.5
299 25 0.747001 0.876436 0.5
501 34 0.725697 0.903164 0.5
258 38 0.761057 0.906128 0.5
76 26 0.78557 0.882013 0.5
93 42 0.817445 0.88466 0.5
839 27 0.796638 0.91417 0.5
396 31 0.873771 0.866934 0.5
583 24 0.830783 0.916834 0.5
254 33 0.854196 0.892331 0.5
780 29 0.867854 0.92132 0.5
436 31 0.907743 0.868308 0.5
703 30 0.886296 0.896203 0.5
828 29 0.923011 0.899331 0.5
992 37 0.940557 0.871051 0.5
261 38 0.977151 0.871373 0.5
238 25 0.95554 0.902431 0.5
567 29 0.985689 0.904124 0.5
647 30 0.0315258 0.942861 0.5
223 19 0.0605044 0.941971 0.5
131 28 0.0478039 0.967975 0.5
922 36 0.0141572 0.970376 0.5
685 30 0.084522 0.927399 0.5
67 30 0.0814722 0.962038 0.5
738 32 0.110156 0.946038 0.5
215 28 0.108372 0.978651 0.5
279 32 0.13944 0.93121 0.5
155 30 0.139447 0.963885 0.5
490 32 0.169177 0.950045 0.5
487 30 0.167464 0.981514 0.5
518 30 0.198973 0.935794 0.5
743 32 0.196799 0.968069 0.5
391 25 0.256575 0.939427 0.5
315 28 0.22626 0.95096 0.5
565 27 0.223838 0.981085 0.5
718 20 0.250474 0.965451 0.5
984 32 0.286063 0.929452 0.5
451 33 0.281725 0.963914 0.5
577 36 0.3155 0.949123 0.5
659 35 0.311545 0.983203 0.5
921 37 0.344905 0.931061 0.5
650 29 0.344908 0.96535 0.5
69 35 0.374018 0.951413 0.5
61 32 0.372773 0.985118 0.5
682 36 0.407321 0.936187 0.5
453 25 0.404766 0.968818 0.5
122 30 0.437066 0.951575 0.5
835 33 0.432365 0.98514 0.5
222 33 0.468788 0.938642 0.5
467 31 0.464767 0.971204 0.5
877 29 0.497514 0.956753 0.5
649 35 0.493443 0.989528 0.5
102 22 0.548968 0.992546 0.5
253 29 0.523658 0.938546 0.5
78 20 0.521623 0.976952 0.5
979 35 0.548762 0.961893 0.5
919 24 0.574218 0.98101 0.5
558 31 0.579978 0.951506 0.5
782 28 0.614097 0.947105 0.5
211 19 0.602439 0.972972 0.5
292 28 0.630945 0.974674 0.5
159 34 0.647336 0.944494 0.5
520 31 0.681316 0.948993 0.5
30 32 0.662385 0.976686 0.5
173 30 0.69476 0.981201 0.5
975 27 0.74069 0.933628 0.5
52 37 0.71502 0.954755 0.5
591 26 0.730073 0.988889 0.5
746 24 0.748283 0.963791 0.5
669 40 0.775451 0.943234 0.5
373 35 0.766672 0.991542 0.5
56 27 0.812498 0.940409 0.5
924 26 0.792024 0.971999 0.5
858 33 0.822361 0.973215 0.5
843 34 0.844529 0.946917 0.5
588 26 0.880446 0.950279 0.5
272 36 0.858377 0.97798 0.5
697 36 0.903627 0.927213 0.5
510 35 0.936771 0.92901 0.5
502 25 0.890462 0.981921 0.5
889 28 0.912482 0.958547 0.5
113 35 0.94676 0.96169 0.5
505 33 0.970184 0.934266 0.5
248 26 1.00102 0.937339 0.5
38 29 0.979678 0.96696 0.5
