ITEM: TIMESTEP
1750000
ITEM: NUMBER OF ATOMS
1000
ITEM: BOX BOUNDS pp pp pp
-1.6661811000000000e+01 1.6661811000000000e+01
-1.6661811000000000e+01 1.6661811000000000e+01
-5.0000000000000000e-01 5.0000000000000000e-01
ITEM: ATOMS id type xs ys zs
943 50 0.0286429 0.0203132 0.5
858 34 0.00603017 0.0536762 0.5
588 24 0.059751 0.0373418 0.5
656 17 0.0861752 0.0325405 0.5
905 30 0.105101 0.011524 0.5
648 22 0.109058 0.0439804 0.5
538 35 0.138755 0.0261605 0.5
143 30 0.171449 0.0390052 0.5
710 40 0.200947 0.0202506 0.5
161 25 0.207605 0.0536027 0.5
873 33 0.166647 0.0053587 0.5
490 32 0.233967 0.0347654 0.5
215 26 0.259043 0.0171417 0.5
498 29 0.264674 0.0478862 0.5
461 33 0.288562 0.0241423 0.5
257 35 0.322905 0.0144934 0.5
865 17 0.321196 0.0436515 0.5
255 29 0.349167 0.0357165 0.5
168 39 0.372783 0.0112798 0.5
315 27 0.380651 0.0454109 0.5
148 35 0.406864 0.023797 0.5
860 30 0.436834 0.0371479 0.5
31 20 0.456176 0.0135705 0.5
852 35 0.486796 0.0106448 0.5
559 34 0.470201 0.0424501 0.5
374 36 0.504897 0.0398536 0.5
650 28 0.521554 0.00734593 0.5
896 29 0.540872 0.0316091 0.5
78 15 0.549231 0.00508963 0.5
525 24 0.571224 0.0237833 0.5
752 24 0.59534 0.00702689 0.5
763 36 0.598607 0.0417313 0.5
993 29 0.624755 0.0208328 0.5
256 34 0.654413 0.00572454 0.5
649 38 0.655091 0.0403574 0.5
982 33 0.685534 0.0199796 0.5
445 37 0.714399 0.0374278 0.5
845 26 0.685188 0.0534103 0.5
877 28 0.744179 0.0170141 0.5
824 32 0.746619 0.0510821 0.5
561 32 0.775624 0.031327 0.5
241 34 0.8066 0.00749885 0.5
301 39 0.810915 0.0448383 0.5
107 29 0.838639 0.022394 0.5
499 13 0.866768 0.0148042 0.5
139 28 0.863551 0.0423934 0.5
912 42 0.896909 0.0282522 0.5
340 18 0.927166 0.0153494 0.5
583 21 0.92541 0.0471199 0.5
229 33 0.951151 0.0291054 0.5
106 15 0.948758 0.0591327 0.5
483 27 0.990826 0.0258253 0.5
591 24 0.975181 0.0572294 0.5
34 31 0.0390271 0.0592571 0.5
365 26 0.0194822 0.0838255 0.5
663 34 0.0514815 0.0898088 0.5
249 35 0.0805668 0.0609831 0.5
379 25 0.0861247 0.0912104 0.5
378 32 0.112393 0.0749306 0.5
242 38 0.145663 0.0620851 0.5
589 21 0.13375 0.095482 0.5
920 28 0.161536 0.0917656 0.5
89 30 0.18164 0.0693676 0.5
33 30 0.208934 0.0841207 0.5
350 10 0.185952 0.0975229 0.5
262 32 0.236402 0.0665599 0.5
743 33 0.268064 0.0805906 0.5
891 34 0.24119 0.10102 0.5
180 34 0.29502 0.0587829 0.5
227 32 0.326788 0.0752509 0.5
67 30 0.300124 0.0930514 0.5
172 16 0.329345 0.103618 0.5
81 26 0.357481 0.0645108 0.5
811 24 0.384987 0.0744534 0.5
927 33 0.355803 0.0958127 0.5
14 28 0.408892 0.0567501 0.5
694 31 0.412671 0.0885456 0.5
769 28 0.438415 0.0692764 0.5
181 32 0.444659 0.0987612 0.5
831 28 0.469604 0.0760864 0.5
203 43 0.47975 0.109231 0.5
592 22 0.530831 0.0591931 0.5
682 38 0.504896 0.0775587 0.5
701 41 0.542275 0.090935 0.5
921 40 0.565654 0.0586033 0.5
798 36 0.59721 0.0776452 0.5
621 26 0.575592 0.10067 0.5
409 30 0.603887 0.111318 0.5
467 32 0.627774 0.0605387 0.5
715 19 0.625932 0.0933356 0.5
898 27 0.658669 0.0729162 0.5
390 33 0.656209 0.104462 0.5
926 35 0.688667 0.0901094 0.5
57 33 0.718695 0.0726988 0.5
413 24 0.716756 0.104444 0.5
425 33 0.75005 0.0852819 0.5
485 36 0.778796 0.0658455 0.5
208 32 0.780189 0.101045 0.5
779 40 0.812252 0.0826102 0.5
930 24 0.840813 0.064225 0.5
569 34 0.871606 0.0753411 0.5
655 28 0.844831 0.094315 0.5
103 34 0.875852 0.111212 0.5
55 27 0.901803 0.0625571 0.5
955 27 0.901223 0.0926658 0.5
356 22 0.928354 0.0742385 0.5
397 33 0.932906 0.105767 0.5
115 19 0.99149 0.0811794 0.5
68 32 0.962166 0.08486 0.5
857 43 0.998017 0.112712 0.5
964 34 0.0336434 0.11913 0.5
806 26 0.0128787 0.144351 0.5
939 40 0.0484487 0.154014 0.5
393 42 0.108692 0.11603 0.5
272 39 0.0702736 0.120934 0.5
923 35 0.0868233 0.153417 0.5
998 31 0.145119 0.122031 0.5
382 41 0.124941 0.152477 0.5
933 28 0.161829 0.148636 0.5
193 27 0.175988 0.121248 0.5
516 44 0.211355 0.122257 0.5
766 28 0.194109 0.153686 0.5
210 26 0.2233 0.157273 0.5
487 30 0.276575 0.112663 0.5
846 35 0.247144 0.13639 0.5
290 31 0.278462 0.147261 0.5
298 41 0.309369 0.127553 0.5
596 26 0.306963 0.161398 0.5
513 26 0.336477 0.164667 0.5
469 39 0.346552 0.130496 0.5
280 41 0.386378 0.113779 0.5
18 46 0.371678 0.161627 0.5
673 25 0.420206 0.11905 0.5
706 33 0.406557 0.145908 0.5
511 41 0.450698 0.134653 0.5
385 32 0.484027 0.147508 0.5
71 35 0.514485 0.116784 0.5
464 30 0.545918 0.127614 0.5
239 37 0.51669 0.152942 0.5
957 38 0.552372 0.162914 0.5
414 36 0.579029 0.134423 0.5
934 22 0.610389 0.141347 0.5
536 26 0.631717 0.121996 0.5
551 30 0.65381 0.144033 0.5
856 26 0.62737 0.163874 0.5
492 43 0.686466 0.127956 0.5
434 22 0.703844 0.15569 0.5
178 20 0.677588 0.160543 0.5
699 20 0.720456 0.133478 0.5
788 35 0.749734 0.120686 0.5
580 26 0.759941 0.151095 0.5
104 23 0.731924 0.157951 0.5
795 38 0.788821 0.135504 0.5
737 36 0.820476 0.116986 0.5
317 40 0.822767 0.154231 0.5
530 28 0.851943 0.132672 0.5
749 27 0.878814 0.146196 0.5
138 32 0.907457 0.128014 0.5
704 36 0.940012 0.14156 0.5
63 28 0.911304 0.159499 0.5
986 27 0.962162 0.11692 0.5
644 30 0.977438 0.14328 0.5
938 20 0.991926 0.167431 0.5
332 25 0.020111 0.172898 0.5
729 20 0.0442372 0.184809 0.5
677 42 0.0199849 0.206971 0.5
940 26 0.055244 0.211155 0.5
456 31 0.0736706 0.184855 0.5
310 34 0.106388 0.183998 0.5
733 41 0.0890436 0.217558 0.5
155 30 0.141622 0.182287 0.5
803 31 0.125595 0.210664 0.5
574 18 0.157531 0.207866 0.5
685 30 0.173535 0.178263 0.5
886 27 0.205494 0.181332 0.5
700 24 0.188298 0.206017 0.5
813 30 0.251228 0.170044 0.5
662 33 0.23456 0.198702 0.5
170 34 0.2825 0.181306 0.5
245 18 0.262218 0.206795 0.5
260 27 0.315673 0.189632 0.5
849 37 0.292079 0.215284 0.5
614 29 0.3257 0.218752 0.5
279 33 0.349283 0.193758 0.5
28 26 0.381358 0.199143 0.5
442 37 0.435516 0.168211 0.5
953 28 0.40461 0.178131 0.5
823 27 0.409335 0.207591 0.5
274 26 0.468703 0.176481 0.5
87 27 0.439064 0.200943 0.5
608 29 0.498612 0.183353 0.5
577 39 0.473661 0.209126 0.5
169 17 0.504422 0.209906 0.5
325 33 0.528483 0.19602 0.5
440 43 0.592442 0.171342 0.5
263 28 0.5636 0.192972 0.5
871 27 0.591965 0.206039 0.5
58 26 0.62307 0.192443 0.5
944 29 0.653671 0.178814 0.5
671 23 0.647099 0.212387 0.5
900 22 0.674132 0.202942 0.5
629 23 0.693126 0.18411 0.5
358 27 0.722599 0.18521 0.5
90 43 0.704587 0.215196 0.5
372 25 0.754185 0.180828 0.5
430 34 0.742229 0.211173 0.5
305 29 0.774091 0.20636 0.5
874 41 0.787191 0.173139 0.5
799 26 0.804245 0.202413 0.5
582 27 0.828314 0.221043 0.5
744 34 0.855228 0.167745 0.5
994 27 0.830295 0.187725 0.5
768 31 0.855507 0.205793 0.5
571 48 0.8893 0.188168 0.5
676 31 0.928212 0.185244 0.5
270 32 0.917728 0.216206 0.5
745 37 0.95962 0.172907 0.5
797 32 0.953468 0.209724 0.5
528 34 0.98429 0.198626 0.5
346 29 0.0361947 0.236294 0.5
776 31 0.0187442 0.265158 0.5
164 35 0.0546954 0.267083 0.5
653 22 0.0075122 0.237523 0.5
85 19 0.0651816 0.239442 0.5
762 33 0.091121 0.257056 0.5
97 20 0.115104 0.239626 0.5
712 29 0.144029 0.237086 0.5
130 27 0.161479 0.261566 0.5
202 42 0.127247 0.269865 0.5
66 32 0.212103 0.224439 0.5
736 23 0.174669 0.231482 0.5
976 19 0.195763 0.247571 0.5
705 28 0.222343 0.257681 0.5
448 33 0.246277 0.231824 0.5
429 25 0.275803 0.243917 0.5
405 28 0.251918 0.264792 0.5
252 37 0.285785 0.27328 0.5
542 32 0.307432 0.246669 0.5
24 29 0.318435 0.277469 0.5
367 26 0.357196 0.225428 0.5
167 25 0.337604 0.24946 0.5
555 30 0.369986 0.253929 0.5
488 24 0.387693 0.227993 0.5
936 22 0.417887 0.234509 0.5
995 23 0.39993 0.259967 0.5
140 29 0.432934 0.259492 0.5
132 31 0.447192 0.231483 0.5
996 24 0.496231 0.234002 0.5
802 37 0.472909 0.255213 0.5
809 25 0.505018 0.260155 0.5
273 27 0.524735 0.229889 0.5
400 36 0.537623 0.259591 0.5
389 43 0.559223 0.227619 0.5
493 22 0.592287 0.236454 0.5
457 40 0.573661 0.263587 0.5
174 31 0.618341 0.222684 0.5
607 40 0.611407 0.263644 0.5
114 23 0.640091 0.244866 0.5
914 23 0.643402 0.273453 0.5
658 38 0.67073 0.23492 0.5
531 24 0.66953 0.266195 0.5
452 34 0.700803 0.253712 0.5
666 33 0.726559 0.279526 0.5
4 34 0.73207 0.243714 0.5
742 31 0.764146 0.237576 0.5
508 26 0.755949 0.267531 0.5
603 28 0.795993 0.22968 0.5
165 19 0.818837 0.248442 0.5
832 45 0.791393 0.266119 0.5
887 33 0.849387 0.246874 0.5
312 42 0.88296 0.228841 0.5
363 23 0.865985 0.27407 0.5
963 25 0.892169 0.262132 0.5
838 19 0.915383 0.247832 0.5
408 26 0.920208 0.274551 0.5
855 31 0.978604 0.231448 0.5
329 36 0.946136 0.247312 0.5
416 35 0.983161 0.26537 0.5
377 25 0.0318598 0.294293 0.5
661 30 0.016355 0.319768 0.5
611 39 0.0643748 0.301587 0.5
244 28 0.0961225 0.28856 0.5
698 17 0.0926062 0.316079 0.5
751 22 0.0741371 0.333061 0.5
548 39 0.124111 0.308073 0.5
2 28 0.160514 0.296654 0.5
770 45 0.193003 0.280313 0.5
124 26 0.185165 0.317543 0.5
233 25 0.216929 0.317827 0.5
345 33 0.228811 0.289098 0.5
369 36 0.261894 0.301115 0.5
407 24 0.243805 0.328458 0.5
171 35 0.280311 0.332098 0.5
54 28 0.302079 0.304358 0.5
720 27 0.333758 0.305505 0.5
80 29 0.350464 0.280337 0.5
564 25 0.362315 0.30795 0.5
754 31 0.382488 0.284514 0.5
756 27 0.349875 0.333434 0.5
293 38 0.393901 0.31823 0.5
162 32 0.415602 0.287892 0.5
815 30 0.429371 0.319357 0.5
216 46 0.453988 0.289441 0.5
646 26 0.489093 0.286822 0.5
837 34 0.472039 0.32644 0.5
403 23 0.500419 0.313379 0.5
834 31 0.520802 0.291216 0.5
144 35 0.556184 0.295892 0.5
753 33 0.530812 0.326259 0.5
991 34 0.592604 0.29654 0.5
517 39 0.574202 0.326723 0.5
73 31 0.609166 0.327092 0.5
734 33 0.626679 0.298983 0.5
500 46 0.664745 0.301961 0.5
674 26 0.640557 0.32874 0.5
72 23 0.694941 0.283332 0.5
402 40 0.7051 0.315549 0.5
761 29 0.740019 0.311847 0.5
568 32 0.769198 0.295585 0.5
637 27 0.767972 0.32669 0.5
265 46 0.831831 0.280228 0.5
44 34 0.80152 0.30341 0.5
980 27 0.829567 0.319958 0.5
176 33 0.86039 0.304499 0.5
94 22 0.853635 0.334174 0.5
879 35 0.887744 0.329859 0.5
521 33 0.892912 0.294283 0.5
353 28 0.922091 0.305351 0.5
289 19 0.918013 0.332729 0.5
141 33 0.947461 0.32448 0.5
615 27 1.00204 0.291615 0.5
859 43 0.953879 0.288068 0.5
12 36 0.982242 0.318514 0.5
901 39 0.0443509 0.340277 0.5
27 34 0.038488 0.378806 0.5
652 46 0.00788763 0.355929 0.5
983 32 0.0718982 0.362937 0.5
618 38 0.107057 0.343859 0.5
606 36 0.103388 0.381226 0.5
326 48 0.152696 0.334046 0.5
428 27 0.132417 0.36497 0.5
288 38 0.167032 0.376774 0.5
881 25 0.19048 0.347797 0.5
628 31 0.22249 0.349159 0.5
929 35 0.204221 0.378293 0.5
787 25 0.236052 0.378941 0.5
792 31 0.255705 0.356231 0.5
917 42 0.317354 0.340781 0.5
199 39 0.290513 0.368936 0.5
672 31 0.318784 0.388212 0.5
786 41 0.346486 0.368392 0.5
179 31 0.377719 0.348698 0.5
586 47 0.383661 0.385216 0.5
376 44 0.41364 0.352438 0.5
84 25 0.443348 0.374489 0.5
636 19 0.417329 0.385699 0.5
966 22 0.446222 0.344677 0.5
848 28 0.470162 0.359476 0.5
96 30 0.499752 0.345104 0.5
885 22 0.466642 0.389993 0.5
847 41 0.502283 0.380226 0.5
935 23 0.528241 0.359038 0.5
841 31 0.5422 0.385369 0.5
427 31 0.559611 0.357924 0.5
950 32 0.59495 0.35628 0.5
977 38 0.578293 0.386354 0.5
424 20 0.623914 0.352302 0.5
121 33 0.651288 0.362515 0.5
368 34 0.622902 0.384459 0.5
497 33 0.67479 0.337831 0.5
443 27 0.704135 0.34911 0.5
645 34 0.683303 0.372115 0.5
529 27 0.714709 0.386438 0.5
952 35 0.737651 0.345209 0.5
21 31 0.768409 0.357162 0.5
426 19 0.742462 0.378272 0.5
225 36 0.769291 0.392781 0.5
217 33 0.798057 0.339145 0.5
136 40 0.830832 0.358569 0.5
566 32 0.797582 0.373139 0.5
100 34 0.868771 0.360759 0.5
166 30 0.889824 0.386387 0.5
829 22 0.900766 0.358767 0.5
418 36 0.932528 0.359378 0.5
177 21 0.920312 0.388736 0.5
264 31 0.954283 0.385861 0.5
364 33 0.966249 0.35329 0.5
519 21 0.981732 0.378456 0.5
375 30 0.00683154 0.393944 0.5
557 40 0.0369394 0.414979 0.5
544 27 0.0122162 0.437286 0.5
283 39 0.0704541 0.397012 0.5
41 31 0.10185 0.415915 0.5
191 39 0.0692682 0.435359 0.5
716 30 0.136127 0.396061 0.5
259 15 0.160196 0.412802 0.5
545 42 0.135306 0.432304 0.5
967 22 0.171127 0.434997 0.5
196 31 0.186186 0.405493 0.5
26 43 0.224231 0.411423 0.5
959 25 0.198524 0.433302 0.5
897 31 0.264371 0.39086 0.5
597 21 0.256417 0.41822 0.5
750 33 0.277442 0.438802 0.5
851 32 0.292071 0.407591 0.5
812 25 0.319044 0.422089 0.5
120 30 0.344369 0.441902 0.5
686 30 0.347184 0.404517 0.5
541 34 0.373225 0.425123 0.5
687 34 0.408566 0.415738 0.5
616 29 0.441323 0.405146 0.5
709 30 0.434649 0.436491 0.5
331 25 0.485913 0.409786 0.5
651 21 0.46309 0.426788 0.5
902 29 0.489368 0.440218 0.5
707 52 0.522359 0.418882 0.5
949 36 0.563861 0.419779 0.5
664 32 0.601268 0.413225 0.5
333 30 0.632484 0.41945 0.5
101 26 0.657148 0.392733 0.5
384 47 0.668581 0.427215 0.5
581 20 0.690577 0.402108 0.5
491 29 0.708599 0.426433 0.5
383 37 0.738123 0.409846 0.5
988 14 0.766529 0.421288 0.5
112 23 0.749954 0.440548 0.5
91 22 0.822933 0.391218 0.5
626 37 0.783304 0.444281 0.5
206 32 0.798479 0.41043 0.5
421 35 0.820133 0.437715 0.5
360 11 0.832876 0.411806 0.5
278 34 0.853414 0.390045 0.5
476 18 0.8754 0.410128 0.5
251 32 0.853884 0.431947 0.5
578 28 0.886563 0.43563 0.5
277 24 0.907926 0.41228 0.5
540 36 0.93918 0.416072 0.5
478 29 0.917379 0.440773 0.5
679 48 0.978109 0.416743 0.5
341 23 0.0400536 0.449067 0.5
313 34 0.0161997 0.46953 0.5
156 22 0.0456868 0.47646 0.5
723 28 0.0747836 0.469012 0.5
533 37 0.101765 0.45234 0.5
480 24 0.0996449 0.484164 0.5
696 26 0.130581 0.469004 0.5
807 20 0.156109 0.457385 0.5
713 39 0.161923 0.488892 0.5
791 25 0.183723 0.460483 0.5
951 29 0.216347 0.456604 0.5
600 38 0.201708 0.488545 0.5
781 28 0.246413 0.447996 0.5
962 53 0.243357 0.489614 0.5
631 30 0.280093 0.473788 0.5
882 38 0.309995 0.454523 0.5
234 35 0.310567 0.489754 0.5
111 28 0.34072 0.474418 0.5
985 22 0.372675 0.456923 0.5
965 29 0.369697 0.486645 0.5
532 27 0.400312 0.448207 0.5
8 23 0.396877 0.478167 0.5
534 35 0.427479 0.470587 0.5
154 27 0.459678 0.454895 0.5
556 28 0.485899 0.470818 0.5
785 34 0.458493 0.487934 0.5
361 34 0.507024 0.494546 0.5
888 27 0.514743 0.458556 0.5
36 39 0.54919 0.45239 0.5
228 26 0.534871 0.481485 0.5
794 31 0.566632 0.482574 0.5
175 49 0.590285 0.450102 0.5
296 29 0.596924 0.489377 0.5
232 26 0.627879 0.493282 0.5
665 46 0.63528 0.459205 0.5
593 22 0.668223 0.463691 0.5
549 29 0.660734 0.492044 0.5
348 26 0.695134 0.453963 0.5
692 27 0.724477 0.457056 0.5
587 38 0.695508 0.488133 0.5
309 35 0.728883 0.495751 0.5
619 32 0.754856 0.470864 0.5
727 38 0.78833 0.481083 0.5
864 22 0.817407 0.468435 0.5
910 30 0.818502 0.498445 0.5
6 7 0.840671 0.455943 0.5
892 19 0.866143 0.460744 0.5
9 26 0.844133 0.479359 0.5
43 37 0.872711 0.491195 0.5
821 24 0.892966 0.464912 0.5
632 30 0.922919 0.471773 0.5
267 25 0.905777 0.496165 0.5
343 35 0.949239 0.448039 0.5
772 33 0.984333 0.456719 0.5
911 28 0.957018 0.480584 0.5
553 32 0.991826 0.490677 0.5
960 44 0.0258067 0.505574 0.5
853 14 0.0246807 0.536627 0.5
784 27 0.0511656 0.535934 0.5
778 22 0.00160496 0.551818 0.5
822 37 0.0659913 0.502298 0.5
188 32 0.0986456 0.516252 0.5
973 18 0.0775792 0.53498 0.5
575 33 0.126884 0.499946 0.5
95 33 0.149859 0.525932 0.5
971 16 0.121825 0.53366 0.5
60 25 0.166832 0.553328 0.5
793 28 0.181631 0.518022 0.5
764 40 0.214589 0.523727 0.5
862 22 0.194488 0.548325 0.5
126 32 0.279162 0.507059 0.5
336 38 0.249449 0.531658 0.5
925 19 0.280332 0.536105 0.5
7 36 0.309483 0.524318 0.5
641 29 0.333149 0.54575 0.5
524 35 0.341218 0.506433 0.5
690 25 0.36431 0.5279 0.5
51 32 0.429278 0.504675 0.5
458 39 0.393846 0.512078 0.5
928 34 0.392493 0.548617 0.5
357 39 0.426886 0.539694 0.5
92 26 0.455476 0.522637 0.5
303 28 0.485318 0.517653 0.5
875 35 0.472826 0.551022 0.5
783 24 0.506884 0.538333 0.5
349 45 0.537525 0.517609 0.5
275 32 0.53527 0.554922 0.5
771 23 0.577121 0.512561 0.5
406 29 0.565955 0.539484 0.5
728 35 0.60979 0.521311 0.5
620 26 0.594616 0.54869 0.5
412 28 0.624608 0.551584 0.5
740 35 0.643327 0.521325 0.5
128 31 0.656718 0.553376 0.5
730 32 0.677649 0.520815 0.5
688 25 0.710357 0.521383 0.5
306 25 0.686823 0.554791 0.5
125 30 0.717717 0.550158 0.5
133 32 0.761161 0.503432 0.5
17 25 0.738691 0.528177 0.5
157 33 0.76869 0.538088 0.5
866 28 0.792162 0.515482 0.5
590 22 0.82308 0.530081 0.5
431 31 0.798844 0.550953 0.5
760 24 0.846069 0.50968 0.5
70 26 0.850445 0.538503 0.5
282 26 0.879812 0.523823 0.5
471 22 0.891054 0.550973 0.5
110 30 0.909691 0.526574 0.5
625 33 0.934494 0.504518 0.5
974 24 0.94429 0.534916 0.5
997 36 0.922108 0.560473 0.5
438 26 0.996224 0.525141 0.5
137 34 0.96707 0.51324 0.5
39 25 0.975089 0.544978 0.5
109 47 0.0324381 0.569584 0.5
585 33 0.0108632 0.601516 0.5
725 42 0.0486496 0.607322 0.5
187 34 0.100596 0.555326 0.5
777 25 0.0675678 0.561739 0.5
546 33 0.0834444 0.589769 0.5
913 28 0.137028 0.555752 0.5
869 33 0.118893 0.584337 0.5
465 26 0.151915 0.58219 0.5
472 25 0.166149 0.609495 0.5
447 39 0.187158 0.581038 0.5
212 22 0.217754 0.589551 0.5
22 35 0.22588 0.559005 0.5
972 28 0.266072 0.560758 0.5
512 32 0.248532 0.588104 0.5
872 42 0.300986 0.561576 0.5
826 30 0.280584 0.59007 0.5
833 33 0.333632 0.578151 0.5
342 43 0.312167 0.609616 0.5
702 26 0.362073 0.557955 0.5
151 41 0.380341 0.584617 0.5
422 30 0.351643 0.604673 0.5
20 37 0.419651 0.576825 0.5
475 24 0.405972 0.606841 0.5
506 39 0.439435 0.6106 0.5
77 15 0.448223 0.567657 0.5
563 38 0.46992 0.587512 0.5
201 35 0.502315 0.571705 0.5
446 27 0.503816 0.607342 0.5
105 31 0.529767 0.589952 0.5
958 19 0.554875 0.604949 0.5
11 40 0.564382 0.575103 0.5
65 32 0.604634 0.579073 0.5
595 37 0.585326 0.607775 0.5
893 29 0.64241 0.581502 0.5
767 44 0.666305 0.609527 0.5
765 21 0.674579 0.577916 0.5
1000 38 0.707208 0.583165 0.5
281 23 0.746155 0.559026 0.5
23 26 0.743116 0.587593 0.5
118 24 0.772104 0.571242 0.5
42 45 0.768644 0.609448 0.5
805 26 0.829235 0.558258 0.5
47 31 0.797928 0.584953 0.5
691 42 0.834188 0.59288 0.5
999 39 0.864337 0.568916 0.5
64 32 0.86743 0.60563 0.5
599 34 0.895915 0.584385 0.5
46 35 0.929998 0.597461 0.5
381 33 0.955939 0.569193 0.5
294 29 0.987632 0.577387 0.5
968 41 0.965409 0.605564 0.5
269 32 0.0223785 0.633358 0.5
601 31 0.0521912 0.648988 0.5
675 26 0.0237744 0.664534 0.5
135 28 0.0771242 0.628564 0.5
918 43 0.0975318 0.657326 0.5
450 21 0.138271 0.607051 0.5
503 40 0.108643 0.618436 0.5
916 23 0.132371 0.639557 0.5
748 37 0.196874 0.616654 0.5
906 42 0.167836 0.644698 0.5
790 33 0.204913 0.650438 0.5
680 29 0.233083 0.618081 0.5
129 39 0.266836 0.622137 0.5
204 35 0.243319 0.649422 0.5
970 19 0.274682 0.651943 0.5
186 32 0.305219 0.644813 0.5
460 36 0.341396 0.63855 0.5
40 43 0.378809 0.627704 0.5
594 34 0.365786 0.663701 0.5
668 19 0.393961 0.656549 0.5
286 31 0.415784 0.636452 0.5
10 29 0.447335 0.646482 0.5
948 39 0.474572 0.625376 0.5
246 34 0.483823 0.66089 0.5
693 28 0.506997 0.637496 0.5
796 25 0.532871 0.622183 0.5
62 27 0.533523 0.652231 0.5
504 43 0.564947 0.639509 0.5
266 37 0.60338 0.643138 0.5
324 42 0.623574 0.611748 0.5
347 50 0.645577 0.647646 0.5
311 26 0.702175 0.616331 0.5
432 28 0.681903 0.642936 0.5
404 31 0.715357 0.643646 0.5
323 30 0.732921 0.615401 0.5
83 31 0.750234 0.641703 0.5
522 38 0.80663 0.618947 0.5
573 30 0.782779 0.644037 0.5
678 29 0.814657 0.651638 0.5
496 30 0.83982 0.629082 0.5
870 29 0.87159 0.639266 0.5
49 26 0.84669 0.657767 0.5
195 39 0.899752 0.619579 0.5
318 37 0.933963 0.632739 0.5
816 33 0.905917 0.654638 0.5
981 29 0.93622 0.665797 0.5
818 23 0.992746 0.626963 0.5
338 28 0.965826 0.645793 0.5
633 30 0.995009 0.656722 0.5
119 28 0.039199 0.689026 0.5
93 48 0.0232283 0.722422 0.5
295 34 0.00282272 0.689579 0.5
134 36 0.0625157 0.711172 0.5
876 31 0.0684782 0.677334 0.5
861 37 0.0990745 0.695171 0.5
726 29 0.131997 0.669802 0.5
495 34 0.135209 0.703304 0.5
789 27 0.162428 0.679071 0.5
827 45 0.172627 0.715867 0.5
854 27 0.192092 0.68286 0.5
205 26 0.210049 0.707044 0.5
19 27 0.224443 0.676602 0.5
48 23 0.260375 0.675174 0.5
714 29 0.244993 0.700194 0.5
830 28 0.276492 0.702157 0.5
441 29 0.292621 0.674674 0.5
316 41 0.32822 0.673039 0.5
617 34 0.308383 0.705446 0.5
550 22 0.338398 0.712658 0.5
145 22 0.356705 0.693225 0.5
722 34 0.369 0.72147 0.5
284 37 0.423423 0.670631 0.5
410 44 0.39127 0.690027 0.5
576 34 0.427463 0.705449 0.5
423 35 0.456759 0.684318 0.5
956 34 0.488479 0.696183 0.5
29 28 0.460114 0.71661 0.5
732 27 0.514051 0.674242 0.5
117 32 0.544533 0.683648 0.5
45 27 0.520538 0.707482 0.5
804 28 0.548961 0.717157 0.5
572 35 0.579774 0.673655 0.5
604 18 0.597304 0.697598 0.5
758 18 0.573507 0.704582 0.5
840 24 0.612445 0.673921 0.5
486 40 0.622394 0.716758 0.5
470 29 0.639796 0.686369 0.5
371 29 0.657813 0.713118 0.5
814 31 0.703945 0.675249 0.5
394 29 0.670033 0.677362 0.5
820 29 0.688189 0.704031 0.5
602 23 0.71985 0.70301 0.5
899 19 0.732443 0.665805 0.5
915 25 0.762782 0.670101 0.5
479 16 0.742807 0.687392 0.5
481 30 0.769206 0.699465 0.5
30 33 0.74658 0.723773 0.5
560 28 0.791644 0.675277 0.5
904 36 0.825666 0.682697 0.5
411 31 0.801564 0.707053 0.5
392 30 0.876628 0.670454 0.5
254 34 0.838604 0.713521 0.5
322 19 0.855857 0.689369 0.5
711 36 0.882647 0.703701 0.5
474 27 0.913497 0.685957 0.5
147 30 0.912956 0.719657 0.5
35 40 0.945057 0.701592 0.5
271 29 0.969907 0.677615 0.5
142 31 0.97861 0.713424 0.5
759 38 0.051617 0.74909 0.5
695 17 0.0212319 0.756564 0.5
314 32 0.00142118 0.780108 0.5
584 23 0.112961 0.727097 0.5
946 29 0.0854742 0.739206 0.5
237 37 0.1124 0.760314 0.5
579 26 0.078178 0.768965 0.5
231 32 0.142798 0.73825 0.5
190 44 0.14901 0.775195 0.5
514 23 0.17217 0.750856 0.5
398 41 0.203905 0.742397 0.5
240 28 0.188179 0.77578 0.5
401 22 0.218606 0.771926 0.5
344 17 0.231249 0.726749 0.5
684 23 0.257668 0.727158 0.5
624 21 0.235639 0.752241 0.5
74 37 0.265792 0.758331 0.5
647 30 0.287502 0.732448 0.5
82 35 0.322253 0.738964 0.5
419 34 0.300566 0.766477 0.5
352 25 0.334047 0.76811 0.5
116 19 0.351026 0.746093 0.5
399 35 0.36505 0.772707 0.5
909 26 0.401423 0.7242 0.5
127 20 0.385749 0.748702 0.5
287 38 0.418579 0.75221 0.5
634 12 0.438085 0.732009 0.5
883 38 0.458463 0.752122 0.5
543 35 0.491341 0.730467 0.5
235 37 0.494492 0.765807 0.5
53 37 0.524562 0.741443 0.5
640 39 0.530516 0.778154 0.5
226 32 0.587982 0.729752 0.5
386 39 0.560226 0.751296 0.5
13 32 0.591352 0.769053 0.5
388 24 0.613701 0.749185 0.5
152 36 0.645756 0.747723 0.5
526 30 0.624312 0.77651 0.5
209 24 0.657548 0.782067 0.5
755 23 0.714435 0.730693 0.5
25 34 0.680355 0.737115 0.5
638 55 0.693764 0.773304 0.5
184 25 0.72711 0.754552 0.5
198 37 0.759996 0.76062 0.5
454 32 0.779264 0.732775 0.5
108 34 0.813506 0.737988 0.5
932 25 0.793262 0.763241 0.5
221 20 0.818987 0.768393 0.5
605 22 0.86517 0.729092 0.5
334 34 0.846115 0.753798 0.5
276 37 0.873439 0.777172 0.5
50 33 0.890295 0.745081 0.5
654 22 0.921074 0.74883 0.5
635 19 0.938777 0.767647 0.5
878 32 0.909424 0.777505 0.5
867 40 0.952557 0.738157 0.5
501 36 0.990413 0.746605 0.5
683 36 0.967445 0.774322 0.5
868 41 0.0360479 0.785931 0.5
880 44 0.013329 0.817256 0.5
612 25 0.0477357 0.817507 0.5
435 20 0.0653315 0.795932 0.5
489 17 0.0891561 0.792894 0.5
359 35 0.0816686 0.822088 0.5
223 14 0.110546 0.821788 0.5
477 31 0.117529 0.795726 0.5
643 26 0.14285 0.811536 0.5
200 36 0.175999 0.805749 0.5
98 37 0.210987 0.802307 0.5
839 26 0.196828 0.832143 0.5
992 40 0.246213 0.789625 0.5
801 24 0.270006 0.814541 0.5
724 44 0.237659 0.832128 0.5
747 21 0.279203 0.788427 0.5
320 34 0.308972 0.799663 0.5
468 26 0.29691 0.829834 0.5
954 21 0.327977 0.823554 0.5
194 31 0.342458 0.797272 0.5
657 22 0.371993 0.802832 0.5
86 30 0.357676 0.830085 0.5
670 35 0.394559 0.823508 0.5
300 39 0.3999 0.785924 0.5
535 22 0.424088 0.811173 0.5
627 34 0.436863 0.782842 0.5
942 23 0.469417 0.783792 0.5
884 39 0.45756 0.814349 0.5
739 48 0.500088 0.804502 0.5
220 30 0.539098 0.811424 0.5
507 28 0.563246 0.78996 0.5
437 33 0.601941 0.802005 0.5
69 37 0.571697 0.821984 0.5
79 41 0.639388 0.811447 0.5
321 31 0.675291 0.810652 0.5
292 27 0.705251 0.810206 0.5
370 40 0.734248 0.788024 0.5
800 20 0.759571 0.809276 0.5
817 38 0.733558 0.827717 0.5
782 26 0.779627 0.788809 0.5
337 28 0.810265 0.794463 0.5
850 20 0.833865 0.814898 0.5
373 37 0.792199 0.821742 0.5
319 29 0.840849 0.786518 0.5
297 30 0.862913 0.808756 0.5
185 39 0.884633 0.837884 0.5
975 25 0.893259 0.804681 0.5
354 36 0.939535 0.796798 0.5
774 35 0.920891 0.831276 0.5
463 25 0.95495 0.826226 0.5
285 30 0.977017 0.806412 0.5
183 27 0.0383284 0.844928 0.5
236 45 0.0470038 0.881889 0.5
622 27 0.0109388 0.861588 0.5
149 26 0.0700319 0.8513 0.5
757 42 0.105074 0.854137 0.5
38 29 0.08356 0.884121 0.5
889 27 0.163296 0.838038 0.5
539 31 0.115093 0.89254 0.5
328 20 0.13242 0.83738 0.5
697 39 0.143237 0.868669 0.5
718 15 0.170277 0.887239 0.5
969 28 0.18359 0.862158 0.5
224 29 0.217139 0.862466 0.5
642 31 0.200641 0.889443 0.5
207 31 0.251667 0.864597 0.5
146 22 0.271918 0.842697 0.5
1 24 0.283454 0.867887 0.5
248 23 0.308756 0.854898 0.5
610 30 0.307566 0.885428 0.5
99 23 0.335507 0.849888 0.5
449 24 0.336632 0.877963 0.5
554 28 0.362656 0.8638 0.5
32 18 0.384577 0.880723 0.5
721 26 0.391337 0.854721 0.5
659 37 0.423596 0.842987 0.5
391 22 0.439013 0.871143 0.5
387 28 0.411686 0.878209 0.5
291 25 0.488776 0.83744 0.5
451 34 0.459676 0.848904 0.5
247 21 0.494327 0.865844 0.5
623 39 0.469479 0.883378 0.5
667 25 0.51751 0.835564 0.5
122 30 0.522523 0.867098 0.5
717 30 0.547194 0.845149 0.5
863 24 0.552155 0.87458 0.5
3 34 0.604764 0.83512 0.5
362 33 0.57897 0.857179 0.5
835 34 0.611729 0.869421 0.5
417 23 0.634259 0.84382 0.5
494 19 0.641693 0.870097 0.5
304 26 0.70037 0.837827 0.5
825 39 0.667301 0.84541 0.5
808 24 0.666843 0.878161 0.5
395 26 0.693661 0.867135 0.5
978 19 0.718711 0.856296 0.5
681 21 0.765727 0.835271 0.5
327 31 0.723309 0.884949 0.5
562 39 0.750723 0.863662 0.5
163 23 0.786783 0.854613 0.5
415 22 0.776535 0.88342 0.5
335 35 0.818744 0.843117 0.5
52 40 0.80932 0.87898 0.5
527 27 0.851044 0.838273 0.5
908 17 0.83964 0.865694 0.5
945 36 0.869533 0.869999 0.5
570 35 0.908021 0.866135 0.5
719 20 0.926384 0.890326 0.5
669 44 0.947053 0.860523 0.5
843 36 0.984603 0.841458 0.5
630 32 0.980063 0.876773 0.5
515 28 0.0123044 0.891283 0.5
299 22 0.0325977 0.912873 0.5
182 33 0.0398479 0.942671 0.5
219 26 0.00820504 0.925181 0.5
502 23 0.0601306 0.913471 0.5
308 24 0.0701631 0.940615 0.5
420 36 0.0911421 0.91613 0.5
931 29 0.0982995 0.949946 0.5
780 29 0.12179 0.926619 0.5
828 28 0.145814 0.905017 0.5
510 37 0.15355 0.938282 0.5
518 30 0.176833 0.913358 0.5
775 34 0.211273 0.920911 0.5
459 38 0.239652 0.897706 0.5
894 25 0.263306 0.923325 0.5
131 26 0.272968 0.893572 0.5
433 22 0.237979 0.935036 0.5
731 36 0.296746 0.917526 0.5
947 35 0.331317 0.91032 0.5
552 29 0.320023 0.941022 0.5
907 25 0.359871 0.893325 0.5
819 29 0.361072 0.924637 0.5
567 28 0.38489 0.945362 0.5
984 33 0.389379 0.910775 0.5
5 35 0.434434 0.902778 0.5
339 38 0.416417 0.933926 0.5
330 26 0.449584 0.930717 0.5
222 34 0.478454 0.917139 0.5
547 34 0.504763 0.894851 0.5
941 28 0.503595 0.938263 0.5
218 20 0.525144 0.918599 0.5
523 18 0.534586 0.894449 0.5
890 35 0.584106 0.890286 0.5
150 42 0.557702 0.919926 0.5
979 37 0.595332 0.92569 0.5
59 20 0.614229 0.899514 0.5
937 32 0.645431 0.899941 0.5
537 25 0.62703 0.924038 0.5
773 16 0.669765 0.915469 0.5
520 32 0.654059 0.938911 0.5
159 36 0.692934 0.898574 0.5
708 24 0.690253 0.930093 0.5
268 49 0.726496 0.922821 0.5
302 24 0.752799 0.895332 0.5
355 32 0.765994 0.928658 0.5
173 30 0.79221 0.908902 0.5
482 29 0.822517 0.920196 0.5
609 30 0.79835 0.94159 0.5
810 31 0.840897 0.894482 0.5
919 21 0.868946 0.901972 0.5
76 24 0.853206 0.925737 0.5
88 46 0.889214 0.929952 0.5
56 26 0.897688 0.896433 0.5
613 26 0.923983 0.917781 0.5
75 17 0.918043 0.946872 0.5
484 35 0.946588 0.940542 0.5
703 30 0.953859 0.898025 0.5
924 23 0.985511 0.907741 0.5
123 12 0.96541 0.921589 0.5
436 31 0.981658 0.942934 0.5
258 41 0.0371064 0.979229 0.5
660 26 0.0120805 0.957123 0.5
990 44 -0.000941936 0.990829 0.5
922 39 0.069382 1.00581 0.5
689 30 0.0725476 0.970828 0.5
842 27 0.102724 0.98054 0.5
113 37 0.13321 0.991334 0.5
238 22 0.128688 0.958867 0.5
396 32 0.160511 0.972101 0.5
505 34 0.187389 0.948248 0.5
987 36 0.19421 0.982745 0.5
213 32 0.218585 0.958464 0.5
261 41 0.231634 0.995491 0.5
565 26 0.265768 0.988059 0.5
37 28 0.250736 0.962561 0.5
466 48 0.2862 0.957234 0.5
197 28 0.297362 0.992701 0.5
160 28 0.320656 0.97366 0.5
439 27 0.346329 0.990389 0.5
989 36 0.351237 0.956177 0.5
351 31 0.379312 0.976688 0.5
639 18 0.401805 0.995649 0.5
473 31 0.433234 0.993954 0.5
61 33 0.410953 0.967925 0.5
462 28 0.442823 0.959191 0.5
903 31 0.4653 0.983249 0.5
738 33 0.474701 0.950963 0.5
735 26 0.532688 0.945268 0.5
380 41 0.501286 0.974751 0.5
455 31 0.537732 0.978732 0.5
453 23 0.559163 0.955261 0.5
15 35 0.572446 0.986752 0.5
189 5 0.598816 0.984798 0.5
230 31 0.591998 0.959784 0.5
961 29 0.624624 0.988434 0.5
844 34 0.624425 0.955495 0.5
366 29 0.653858 0.972942 0.5
558 32 0.714216 1.00239 0.5
16 32 0.684729 0.987269 0.5
509 25 0.678829 0.956705 0.5
192 38 0.710346 0.961154 0.5
102 19 0.744233 0.952707 0.5
598 35 0.742131 0.982801 0.5
741 35 0.77328 0.962852 0.5
243 34 0.772368 0.997013 0.5
253 29 0.804993 0.974368 0.5
444 35 0.831012 0.952485 0.5
153 40 0.837962 0.988028 0.5
307 33 0.876574 0.990382 0.5
214 35 0.865109 0.958814 0.5
836 28 0.898071 0.965833 0.5
895 28 0.909512 0.995184 0.5
211 13 0.942381 0.996771 0.5
250 30 0.930644 0.972159 0.5
746 21 0.967587 1.00365 0.5
158 37 0.964657 0.972016 0.5
