ITEM: TIMESTEP
2500000
ITEM: NUMBER OF ATOMS
1000
ITEM: BOX BOUNDS pp pp pp
-1.6508578000000000e+01 1.6508578000000000e+01
-1.6508578000000000e+01 1.6508578000000000e+01
-5.0000000000000000e-01 5.0000000000000000e-01
ITEM: ATOMS id type xs ys zs
927 31 0.991315 0.993277 0.5
751 28 0.0166731 0.980741 0.5
170 32 0.00446134 0.0526406 0.5
645 31 0.0334949 0.0575665 0.5
406 30 0.0937151 0.0482477 0.5
822 32 0.16237 0.013616 0.5
28 29 0.0685969 0.0348057 0.5
910 30 0.0995409 0.018065 0.5
553 31 0.176624 0.0683829 0.5
502 28 0.25538 0.0488994 0.5
40 34 0.202484 0.0232935 0.5
518 30 0.232188 0.0700898 0.5
903 31 0.272831 0.0238945 0.5
977 33 0.240075 0.0226372 0.5
611 33 0.30329 0.0300422 0.5
346 30 0.259875 0.0785435 0.5
301 33 0.333911 0.0381431 0.5
439 29 0.285531 0.998159 0.5
857 34 0.329111 0.00865427 0.5
444 32 0.424056 0.964358 0.5
838 27 0.417378 0.99382 0.5
846 32 0.450353 0.0459616 0.5
897 31 0.492191 0.974137 0.5
591 29 0.47612 0.0207812 0.5
941 30 0.496515 0.0443071 0.5
312 34 0.503556 0.0104255 0.5
709 30 0.526882 0.988925 0.5
394 30 0.543169 0.960503 0.5
957 33 0.557538 0.026347 0.5
916 28 0.567686 0.0561572 0.5
37 30 0.593855 0.0451044 0.5
323 30 0.595006 0.108208 0.5
76 29 0.618709 0.0886694 0.5
852 32 0.687572 0.0337468 0.5
283 33 0.663636 0.0148403 0.5
375 30 0.654418 0.0544316 0.5
994 30 0.679092 0.0736084 0.5
353 30 0.778274 0.0441319 0.5
785 32 0.755774 0.0702194 0.5
252 32 0.793114 0.0159324 0.5
200 32 0.860729 0.00218039 0.5
598 32 0.78697 0.0781842 0.5
467 31 0.806957 0.0413384 0.5
128 31 0.900627 0.996568 0.5
390 31 0.897073 0.0253803 0.5
306 29 0.865346 0.070383 0.5
457 33 0.930429 0.00239133 0.5
958 27 0.888775 0.0526083 0.5
654 28 0.956105 0.0209567 0.5
87 30 0.964905 0.983784 0.5
560 30 0.993558 0.957904 0.5
482 30 0.992122 0.0948453 0.5
126 31 0.983336 0.0300701 0.5
3 32 0.99955 0.132219 0.5
843 32 0.013516 0.0194365 0.5
493 28 0.0246074 0.0837035 0.5
567 30 0.0879131 0.0830363 0.5
815 30 0.123595 0.0405548 0.5
342 34 0.119993 0.0717864 0.5
385 31 0.150379 0.0543625 0.5
808 29 0.220443 0.14139 0.5
462 30 0.185269 0.117962 0.5
162 31 0.19598 0.200093 0.5
409 30 0.209569 0.172758 0.5
418 32 0.198757 0.0851154 0.5
655 30 0.242813 0.153186 0.5
94 28 0.237426 0.119058 0.5
711 32 0.282519 0.0536213 0.5
715 27 0.210966 0.111723 0.5
326 36 0.267378 0.110359 0.5
578 30 0.37161 0.0352106 0.5
374 32 0.313151 0.984351 0.5
938 27 0.379729 0.00921788 0.5
908 27 0.420133 0.0530994 0.5
866 30 0.413218 0.0827452 0.5
692 29 0.482561 0.0669245 0.5
91 28 0.445165 0.0828166 0.5
951 30 0.524673 0.0296707 0.5
758 27 0.539025 0.054495 0.5
569 31 0.485104 0.103974 0.5
136 33 0.551636 0.0835376 0.5
291 29 0.555359 0.995854 0.5
671 28 0.579698 0.0837797 0.5
586 35 0.62691 0.121344 0.5
248 28 0.692151 0.102041 0.5
73 31 0.648243 0.0855425 0.5
738 31 0.620047 0.0607258 0.5
937 31 0.712006 0.0806524 0.5
718 26 0.766407 0.0999127 0.5
411 31 0.71775 0.0489398 0.5
868 34 0.72661 0.125681 0.5
192 33 0.736585 0.0961776 0.5
72 28 0.817931 0.0772028 0.5
614 30 0.836372 0.0477237 0.5
894 29 0.794311 0.114142 0.5
407 29 0.82625 0.114253 0.5
536 29 0.860716 0.0970749 0.5
769 30 0.827455 0.139457 0.5
997 32 0.939117 0.0862005 0.5
952 32 0.914855 0.0660159 0.5
228 29 0.868315 0.0323828 0.5
182 31 0.891045 0.0872623 0.5
683 32 0.949586 0.0497401 0.5
103 31 0.974132 0.0674691 0.5
514 28 0.926673 0.0322145 0.5
161 29 0.0286949 0.115529 0.5
222 31 0.0541355 0.0925769 0.5
566 31 0.00560978 0.160517 0.5
821 29 0.0885211 0.111413 0.5
626 32 0.0642668 0.0652699 0.5
928 31 0.0910394 0.191564 0.5
623 33 0.11462 0.130883 0.5
177 28 0.115489 0.101797 0.5
874 33 0.114328 0.164049 0.5
309 32 0.162166 0.147338 0.5
984 31 0.148938 0.0857183 0.5
636 27 0.148363 0.114575 0.5
853 26 0.237423 0.188393 0.5
115 27 0.286316 0.252345 0.5
657 28 0.257052 0.237729 0.5
455 31 0.263094 0.175337 0.5
259 26 0.274017 0.138942 0.5
120 30 0.303859 0.119407 0.5
345 31 0.39302 0.0602636 0.5
974 29 0.311302 0.0610415 0.5
929 32 0.302248 0.087458 0.5
373 32 0.367186 0.0804166 0.5
85 27 0.404675 0.0291566 0.5
475 29 0.396581 0.111786 0.5
585 31 0.359567 0.110866 0.5
6 24 0.458599 0.116059 0.5
754 31 0.380042 0.141169 0.5
820 30 0.474909 0.139531 0.5
456 31 0.42459 0.111249 0.5
235 32 0.517849 0.106718 0.5
814 31 0.512776 0.0705789 0.5
278 32 0.508327 0.137016 0.5
517 33 0.562672 0.153219 0.5
878 31 0.56032 0.113908 0.5
405 30 0.537409 0.132479 0.5
728 32 0.592681 0.142048 0.5
704 32 0.69121 0.131765 0.5
26 34 0.661244 0.118665 0.5
430 32 0.741012 0.157231 0.5
962 37 0.732609 0.189251 0.5
778 28 0.672227 0.152117 0.5
449 29 0.825101 0.17198 0.5
706 31 0.76928 0.177005 0.5
331 29 0.79992 0.192442 0.5
966 28 0.755459 0.127339 0.5
45 30 0.777351 0.142335 0.5
950 31 0.802614 0.153289 0.5
190 34 0.854704 0.131969 0.5
220 30 0.883812 0.123474 0.5
50 31 0.894014 0.179943 0.5
96 30 0.899448 0.222475 0.5
849 32 0.912691 0.108013 0.5
922 33 0.882237 0.153718 0.5
403 28 0.0541468 0.130134 0.5
707 37 0.966978 0.113695 0.5
980 29 0.952092 0.177507 0.5
501 32 0.971259 0.151636 0.5
734 31 0.0300246 0.178763 0.5
280 34 0.0597388 0.176234 0.5
812 29 0.0311888 0.147449 0.5
465 29 0.0752175 0.151229 0.5
145 28 0.0444226 0.205331 0.5
18 35 0.118508 0.205282 0.5
870 30 0.151642 0.201206 0.5
619 31 0.169402 0.232276 0.5
209 29 0.180558 0.173286 0.5
679 35 0.143258 0.170093 0.5
755 28 0.192072 0.144381 0.5
884 33 0.234065 0.218446 0.5
887 31 0.200465 0.22905 0.5
219 29 0.334839 0.085341 0.5
127 27 0.296551 0.211588 0.5
781 30 0.266625 0.204332 0.5
24 30 0.320435 0.18995 0.5
387 30 0.293663 0.180089 0.5
582 30 0.347401 0.1772 0.5
367 29 0.375993 0.189935 0.5
799 29 0.329708 0.11643 0.5
239 32 0.350414 0.149142 0.5
538 32 0.41534 0.139857 0.5
835 31 0.396235 0.212873 0.5
790 31 0.37571 0.231999 0.5
633 30 0.42754 0.171532 0.5
713 33 0.501042 0.165886 0.5
606 32 0.444237 0.138789 0.5
469 33 0.558203 0.185443 0.5
47 31 0.515231 0.197032 0.5
124 29 0.532748 0.171602 0.5
549 30 0.552037 0.213732 0.5
36 33 0.605764 0.2019 0.5
274 29 0.587182 0.176403 0.5
424 27 0.612874 0.162704 0.5
634 25 0.614568 0.22839 0.5
651 28 0.655672 0.214049 0.5
620 29 0.647123 0.152111 0.5
841 31 0.661825 0.185959 0.5
369 32 0.690072 0.215371 0.5
555 30 0.710392 0.162794 0.5
416 32 0.758946 0.208081 0.5
739 35 0.788304 0.223762 0.5
680 30 0.839265 0.195221 0.5
153 33 0.827567 0.22119 0.5
971 26 0.848088 0.161454 0.5
497 31 0.86574 0.183862 0.5
599 32 0.866345 0.213539 0.5
332 29 0.93318 0.157237 0.5
759 33 0.887507 0.283081 0.5
496 30 0.923115 0.186609 0.5
226 31 0.909615 0.140607 0.5
287 33 0.937389 0.125449 0.5
300 33 0.966006 0.204116 0.5
871 30 0.990293 0.190213 0.5
890 32 0.0145173 0.206493 0.5
672 31 0.0182277 0.238183 0.5
575 31 0.0251031 0.298425 0.5
996 29 0.991096 0.222504 0.5
534 32 0.0400194 0.261979 0.5
53 32 0.0116571 0.266126 0.5
70 29 0.0723648 0.215826 0.5
698 27 0.0992394 0.228164 0.5
508 29 0.0677068 0.249109 0.5
381 31 0.111634 0.318297 0.5
673 29 0.0853095 0.280626 0.5
532 30 0.174599 0.261892 0.5
414 32 0.130855 0.230712 0.5
333 30 0.227157 0.248032 0.5
688 29 0.25969 0.265188 0.5
988 26 0.310966 0.236016 0.5
554 30 0.346603 0.235825 0.5
902 30 0.314396 0.261555 0.5
7 32 0.306959 0.154146 0.5
175 36 0.347882 0.206746 0.5
48 28 0.407492 0.240648 0.5
208 31 0.382734 0.289017 0.5
764 33 0.374709 0.259815 0.5
712 30 0.43659 0.234559 0.5
245 27 0.398736 0.164587 0.5
110 30 0.465053 0.167256 0.5
867 33 0.468215 0.230992 0.5
615 29 0.421095 0.203421 0.5
12 32 0.454435 0.195712 0.5
218 27 0.4863 0.198768 0.5
358 29 0.534175 0.263526 0.5
229 31 0.498749 0.223239 0.5
667 29 0.529228 0.235137 0.5
489 27 0.560679 0.244954 0.5
90 34 0.635579 0.248201 0.5
39 29 0.699395 0.249034 0.5
460 32 0.598767 0.248397 0.5
9 29 0.634321 0.183544 0.5
674 29 0.675955 0.279376 0.5
352 29 0.691566 0.185769 0.5
732 30 0.66497 0.239714 0.5
797 31 0.722969 0.273892 0.5
850 28 0.72797 0.223576 0.5
943 36 0.763058 0.242947 0.5
548 33 0.816356 0.251401 0.5
59 28 0.831965 0.276209 0.5
918 34 0.774602 0.298827 0.5
531 29 0.848212 0.247243 0.5
823 30 0.878129 0.249209 0.5
500 35 0.844137 0.313999 0.5
142 31 0.928476 0.21669 0.5
610 30 0.912706 0.315864 0.5
431 31 0.860011 0.273169 0.5
335 32 0.922473 0.28151 0.5
17 29 0.943716 0.261524 0.5
202 34 0.961078 0.235616 0.5
286 31 0.97954 0.264683 0.5
594 32 0.996226 0.299797 0.5
770 35 0.0585419 0.288066 0.5
665 35 0.0436148 0.324249 0.5
341 28 0.0490089 0.23138 0.5
509 29 0.0691537 0.362051 0.5
513 29 0.14169 0.269191 0.5
710 33 0.0767554 0.319494 0.5
547 32 0.111222 0.261529 0.5
834 31 0.114252 0.291947 0.5
372 29 0.203897 0.262601 0.5
198 32 0.147705 0.327901 0.5
574 27 0.192866 0.28656 0.5
420 32 0.231217 0.278911 0.5
169 27 0.180361 0.313026 0.5
164 32 0.26279 0.295294 0.5
856 29 0.272293 0.327807 0.5
33 30 0.294278 0.286681 0.5
727 33 0.356123 0.293885 0.5
895 30 0.297271 0.316127 0.5
860 30 0.334916 0.323869 0.5
847 33 0.325108 0.291618 0.5
714 30 0.412447 0.305269 0.5
484 32 0.417682 0.274356 0.5
699 27 0.48242 0.257367 0.5
5 32 0.442721 0.296232 0.5
249 32 0.573691 0.270861 0.5
452 32 0.506644 0.274863 0.5
666 31 0.449325 0.262941 0.5
402 33 0.58512 0.305051 0.5
486 33 0.581385 0.219391 0.5
313 32 0.60871 0.282446 0.5
965 30 0.551675 0.285366 0.5
991 31 0.651321 0.307566 0.5
695 27 0.602164 0.337072 0.5
365 29 0.74231 0.297463 0.5
279 31 0.622169 0.308231 0.5
880 34 0.663392 0.3373 0.5
304 29 0.781698 0.267104 0.5
804 30 0.70946 0.298268 0.5
708 29 0.753282 0.27225 0.5
504 34 0.75793 0.326422 0.5
188 31 0.803723 0.290449 0.5
800 27 0.784907 0.337751 0.5
71 32 0.80841 0.353218 0.5
968 33 0.885892 0.32076 0.5
661 30 0.814016 0.321318 0.5
8 28 0.842733 0.349985 0.5
624 28 0.983853 0.324349 0.5
528 32 0.945473 0.327074 0.5
906 34 0.964962 0.299556 0.5
10 30 0.907275 0.249495 0.5
752 29 0.0146812 0.331007 0.5
879 32 0.968693 0.350597 0.5
597 28 0.0315964 0.353605 0.5
644 30 -0.000739061 0.358647 0.5
960 34 0.0380843 0.381548 0.5
787 29 0.0614234 0.42334 0.5
425 31 0.0947811 0.350831 0.5
412 30 0.129996 0.402994 0.5
592 28 0.0701925 0.396363 0.5
78 26 0.124841 0.343066 0.5
921 33 0.159102 0.401815 0.5
25 31 0.134175 0.374419 0.5
748 32 0.185056 0.426784 0.5
82 32 0.163465 0.290747 0.5
138 31 0.19456 0.370841 0.5
393 34 0.160955 0.361914 0.5
125 30 0.215594 0.3329 0.5
763 32 0.248255 0.343273 0.5
694 31 0.177504 0.340009 0.5
328 27 0.22743 0.307803 0.5
882 33 0.295948 0.362765 0.5
851 31 0.31663 0.395054 0.5
563 33 0.32524 0.353481 0.5
113 32 0.362158 0.352313 0.5
488 29 0.346502 0.377401 0.5
68 31 0.373548 0.324011 0.5
682 33 0.392445 0.346087 0.5
93 35 0.439519 0.378176 0.5
261 33 0.432864 0.331714 0.5
753 31 0.470799 0.284971 0.5
329 32 0.457005 0.350304 0.5
391 28 0.4651 0.3163 0.5
559 31 0.493248 0.303026 0.5
793 30 0.537262 0.34319 0.5
214 32 0.551809 0.31646 0.5
293 33 0.578021 0.385109 0.5
171 32 0.682292 0.309705 0.5
237 32 0.629381 0.336189 0.5
478 30 0.621138 0.36699 0.5
146 28 0.608862 0.396159 0.5
62 30 0.695349 0.343068 0.5
622 30 0.725364 0.338994 0.5
371 30 0.749997 0.36518 0.5
340 27 0.778989 0.366169 0.5
603 30 0.76127 0.390636 0.5
613 29 0.832408 0.379982 0.5
742 31 0.793206 0.394606 0.5
22 32 0.864548 0.368433 0.5
638 37 0.857644 0.404784 0.5
77 26 0.918332 0.342878 0.5
972 30 0.907075 0.373201 0.5
303 30 0.939938 0.365484 0.5
819 30 0.0294081 0.417566 0.5
705 30 0.00699218 0.386313 0.5
516 34 0.965619 0.411131 0.5
173 30 0.99643 0.415738 0.5
716 30 0.0922473 0.410744 0.5
13 31 0.971305 0.468779 0.5
829 28 0.0125538 0.443488 0.5
155 30 0.0778794 0.451027 0.5
876 31 0.0660439 0.49915 0.5
723 30 0.129028 0.464552 0.5
277 29 0.0974097 0.379014 0.5
159 32 0.210281 0.439764 0.5
63 30 0.106231 0.449094 0.5
490 31 0.15589 0.430841 0.5
276 32 0.196258 0.398549 0.5
166 30 0.224469 0.365141 0.5
640 33 0.243149 0.388407 0.5
19 30 0.269095 0.364286 0.5
86 30 0.259563 0.413539 0.5
438 29 0.28342 0.397265 0.5
942 28 0.334077 0.420607 0.5
939 33 0.278439 0.436694 0.5
830 30 0.357558 0.408121 0.5
537 29 0.37516 0.384049 0.5
15 32 0.307895 0.433409 0.5
314 31 0.409 0.370736 0.5
948 33 0.47143 0.389973 0.5
792 31 0.41773 0.415248 0.5
646 29 0.410729 0.487336 0.5
172 26 0.482844 0.360688 0.5
267 29 0.489992 0.332568 0.5
904 32 0.51566 0.368695 0.5
786 34 0.548885 0.37245 0.5
494 27 0.527651 0.425993 0.5
83 31 0.5202 0.455371 0.5
234 32 0.523685 0.319657 0.5
675 29 0.583825 0.427604 0.5
816 31 0.55492 0.438531 0.5
542 31 0.615359 0.422699 0.5
423 32 0.57313 0.346784 0.5
206 31 0.620359 0.452015 0.5
832 35 0.639527 0.401551 0.5
195 33 0.707669 0.369695 0.5
596 29 0.676778 0.368044 0.5
297 30 0.650428 0.456106 0.5
251 31 0.679822 0.442582 0.5
629 28 0.705796 0.400466 0.5
361 31 0.67325 0.401985 0.5
256 32 0.82151 0.410417 0.5
351 31 0.738808 0.427617 0.5
987 32 0.764686 0.417818 0.5
647 30 0.886351 0.352856 0.5
139 30 0.881172 0.431907 0.5
875 32 0.851262 0.438683 0.5
167 29 0.885969 0.391072 0.5
211 26 0.973324 0.381138 0.5
648 28 0.939665 0.42643 0.5
305 30 0.905798 0.413452 0.5
521 31 0.939336 0.39325 0.5
118 29 0.984229 0.441613 0.5
733 33 0.0563881 0.473486 0.5
408 29 0.04596 0.447508 0.5
967 28 0.0248392 0.474082 0.5
212 28 0.999362 0.466269 0.5
656 27 0.152484 0.52683 0.5
260 30 0.117066 0.492882 0.5
114 28 0.139911 0.552947 0.5
703 30 0.0951353 0.474814 0.5
233 29 0.147805 0.489686 0.5
111 30 0.177184 0.509728 0.5
632 30 0.162955 0.460828 0.5
827 35 0.209783 0.500912 0.5
612 29 0.22593 0.414708 0.5
319 30 0.191864 0.474567 0.5
601 31 0.248475 0.44965 0.5
750 31 0.223507 0.47142 0.5
302 29 0.249866 0.484858 0.5
990 34 0.27679 0.473127 0.5
143 30 0.298974 0.493185 0.5
696 29 0.304353 0.466779 0.5
144 32 0.333669 0.454841 0.5
89 30 0.390222 0.431103 0.5
964 32 0.358935 0.435822 0.5
621 29 0.393166 0.51333 0.5
282 29 0.363743 0.466615 0.5
41 31 0.393992 0.465754 0.5
123 25 0.422866 0.444791 0.5
970 27 0.493117 0.421155 0.5
413 29 0.51293 0.400797 0.5
725 34 0.451382 0.41501 0.5
911 30 0.552591 0.46745 0.5
463 29 0.536136 0.519358 0.5
330 29 0.501214 0.486078 0.5
135 30 0.486022 0.449035 0.5
912 34 0.550829 0.406023 0.5
762 31 0.607778 0.477944 0.5
978 27 0.632427 0.48393 0.5
784 29 0.583356 0.492355 0.5
810 31 0.586518 0.457987 0.5
593 28 0.685935 0.553141 0.5
795 33 0.66308 0.487281 0.5
678 30 0.726942 0.464045 0.5
898 29 0.651159 0.427438 0.5
288 33 0.718594 0.525638 0.5
947 32 0.728494 0.49588 0.5
189 23 0.731762 0.390236 0.5
396 31 0.754129 0.475408 0.5
689 30 0.770696 0.450249 0.5
848 30 0.798939 0.43492 0.5
946 30 0.820873 0.454471 0.5
450 28 0.778031 0.521823 0.5
944 30 0.855626 0.50574 0.5
872 34 0.817787 0.486394 0.5
724 34 0.88476 0.499367 0.5
479 26 0.844724 0.469371 0.5
539 31 0.873886 0.466378 0.5
392 30 0.907256 0.44248 0.5
272 33 0.941927 0.455504 0.5
75 27 0.942925 0.489273 0.5
275 31 0.916524 0.501078 0.5
109 35 0.0948386 0.515908 0.5
64 31 0.00454203 0.493889 0.5
160 30 0.0378494 0.535942 0.5
717 30 0.0112145 0.525227 0.5
184 29 0.12498 0.5196 0.5
186 31 0.0960526 0.551202 0.5
376 34 0.117243 0.570637 0.5
67 30 0.152982 0.587048 0.5
152 32 0.176476 0.548218 0.5
364 31 0.213186 0.537379 0.5
772 31 0.239382 0.513405 0.5
817 33 0.278926 0.548283 0.5
432 30 0.271165 0.510271 0.5
163 28 0.3005 0.524619 0.5
231 31 0.330875 0.519656 0.5
46 32 0.346291 0.59375 0.5
95 31 0.361553 0.515671 0.5
945 32 0.327602 0.548758 0.5
66 31 0.332167 0.48769 0.5
349 35 0.424991 0.518618 0.5
221 27 0.434718 0.474297 0.5
511 33 0.465066 0.475473 0.5
176 31 0.450704 0.501959 0.5
926 32 0.451063 0.447505 0.5
437 31 0.46044 0.536623 0.5
920 30 0.513348 0.536903 0.5
523 27 0.480372 0.514012 0.5
736 28 0.555392 0.496795 0.5
627 31 0.525645 0.561549 0.5
498 30 0.529908 0.48655 0.5
765 28 0.645152 0.510834 0.5
404 31 0.5738 0.521632 0.5
441 30 0.683281 0.527478 0.5
973 27 0.748094 0.527529 0.5
550 28 0.659721 0.538561 0.5
230 31 0.628996 0.551464 0.5
583 28 0.707204 0.434896 0.5
505 31 0.715717 0.560346 0.5
116 27 0.741982 0.566888 0.5
635 27 0.696528 0.466453 0.5
112 28 0.801476 0.563637 0.5
468 29 0.759435 0.504145 0.5
51 31 0.694864 0.500325 0.5
477 31 0.781533 0.485908 0.5
74 32 0.837372 0.558226 0.5
236 35 0.816456 0.526846 0.5
443 29 0.90406 0.555495 0.5
925 27 0.860201 0.535962 0.5
474 29 0.88763 0.530596 0.5
954 28 0.988878 0.579475 0.5
187 32 0.92729 0.530498 0.5
388 29 0.915269 0.472305 0.5
551 30 0.980267 0.510513 0.5
193 29 0.954368 0.528987 0.5
519 28 0.0154697 0.564483 0.5
357 33 0.0647581 0.563508 0.5
350 25 0.0639295 0.592382 0.5
134 32 0.0362853 0.501162 0.5
949 32 0.0897572 0.585867 0.5
992 33 0.0682704 0.533505 0.5
130 30 0.0804067 0.639017 0.5
56 29 0.0955827 0.614688 0.5
433 28 0.194237 0.573894 0.5
783 29 0.132439 0.608624 0.5
756 30 0.111239 0.636496 0.5
179 31 0.223661 0.566178 0.5
503 33 0.183497 0.599597 0.5
436 31 0.305675 0.571585 0.5
217 31 0.314398 0.597884 0.5
421 32 0.246084 0.541618 0.5
588 29 0.261874 0.571877 0.5
471 28 0.282793 0.592718 0.5
993 30 0.370523 0.608912 0.5
529 30 0.358411 0.654832 0.5
459 33 0.356007 0.550851 0.5
11 33 0.377851 0.573977 0.5
641 30 0.38488 0.637965 0.5
969 30 0.428792 0.545204 0.5
483 29 0.453485 0.580886 0.5
568 31 0.386614 0.543619 0.5
42 35 0.481022 0.564144 0.5
936 28 0.486437 0.593338 0.5
670 32 0.548873 0.582654 0.5
862 28 0.521265 0.591277 0.5
564 29 0.555251 0.552933 0.5
546 31 0.576943 0.57846 0.5
264 31 0.59953 0.549012 0.5
445 32 0.615729 0.523039 0.5
691 34 0.637069 0.588615 0.5
97 27 0.612089 0.576048 0.5
652 35 0.694663 0.588977 0.5
354 32 0.724239 0.592995 0.5
658 33 0.69629 0.619983 0.5
49 29 0.663371 0.607118 0.5
255 30 0.754959 0.593348 0.5
34 31 0.770136 0.553111 0.5
625 31 0.734462 0.62256 0.5
422 30 0.778124 0.616023 0.5
573 30 0.855244 0.587649 0.5
401 28 0.822201 0.588195 0.5
310 32 0.871655 0.563328 0.5
426 27 0.893408 0.586466 0.5
865 27 0.932317 0.561978 0.5
266 32 0.949598 0.588032 0.5
535 28 0.959705 0.562347 0.5
325 31 0.00598239 0.601944 0.5
368 31 0.984621 0.549662 0.5
931 30 0.0329776 0.587834 0.5
417 28 0.025063 0.623378 0.5
318 32 -0.00211354 0.631812 0.5
1 29 0.968316 0.692195 0.5
702 29 0.0527517 0.6861 0.5
779 33 0.0510369 0.653598 0.5
760 29 0.054513 0.618608 0.5
121 31 0.0720442 0.7262 0.5
543 32 0.0822368 0.669799 0.5
526 30 0.11109 0.669526 0.5
289 27 0.0524325 0.749937 0.5
60 29 0.0850243 0.701023 0.5
562 33 0.161705 0.626721 0.5
576 31 0.216545 0.60207 0.5
495 31 0.207194 0.658748 0.5
79 33 0.200127 0.626688 0.5
480 29 0.273277 0.626724 0.5
57 31 0.245456 0.594486 0.5
743 31 0.241123 0.630365 0.5
577 33 0.24949 0.660436 0.5
512 31 0.310449 0.625081 0.5
956 32 0.343668 0.627601 0.5
466 35 0.400858 0.608414 0.5
782 29 0.344575 0.684122 0.5
981 30 0.382763 0.668849 0.5
137 32 0.418076 0.641527 0.5
729 27 0.415562 0.580724 0.5
360 25 0.476682 0.638154 0.5
337 30 0.433748 0.615547 0.5
250 30 0.466069 0.60921 0.5
151 33 0.54512 0.613163 0.5
889 29 0.508256 0.615967 0.5
307 31 0.441531 0.673419 0.5
322 27 0.471141 0.664166 0.5
213 31 0.513621 0.649491 0.5
660 29 0.533567 0.707972 0.5
609 30 0.572033 0.626205 0.5
150 34 0.602165 0.604711 0.5
541 31 0.538943 0.674461 0.5
726 30 0.628899 0.649304 0.5
119 30 0.633157 0.619231 0.5
506 33 0.661777 0.567778 0.5
395 29 0.65125 0.672492 0.5
630 31 0.694258 0.711011 0.5
258 34 0.658509 0.642486 0.5
579 29 0.705724 0.651516 0.5
581 27 0.792169 0.590349 0.5
806 29 0.758216 0.652052 0.5
854 29 0.807368 0.651043 0.5
687 31 0.784697 0.669357 0.5
105 31 0.807958 0.622266 0.5
473 31 0.833618 0.64156 0.5
80 30 0.836279 0.612634 0.5
693 30 0.921428 0.610526 0.5
740 32 0.882887 0.614628 0.5
989 32 0.904337 0.637448 0.5
649 33 0.866255 0.641778 0.5
720 30 0.943794 0.629925 0.5
844 31 0.920861 0.66102 0.5
398 33 0.976478 0.605636 0.5
262 31 0.971867 0.638322 0.5
180 31 0.951451 0.65957 0.5
628 31 0.993749 0.690433 0.5
602 28 0.0225331 0.652097 0.5
263 30 0.0215932 0.687978 0.5
32 27 0.104039 0.735771 0.5
43 32 0.101881 0.785445 0.5
270 31 0.116526 0.710129 0.5
470 30 0.0584946 0.77796 0.5
298 34 0.043654 0.721619 0.5
238 28 0.146098 0.65304 0.5
605 28 0.139104 0.685034 0.5
292 30 0.177117 0.651252 0.5
507 30 0.164331 0.675246 0.5
140 30 0.217984 0.693527 0.5
191 33 0.247203 0.753215 0.5
199 33 0.232924 0.721641 0.5
129 33 0.247771 0.696203 0.5
106 26 0.285793 0.651458 0.5
791 29 0.331649 0.657478 0.5
690 29 0.318199 0.685572 0.5
881 29 0.328356 0.714237 0.5
429 29 0.353615 0.731214 0.5
316 34 0.366698 0.705502 0.5
147 30 0.409347 0.674266 0.5
639 27 0.399328 0.703851 0.5
348 29 0.44957 0.640916 0.5
730 31 0.44349 0.70618 0.5
487 30 0.387874 0.756766 0.5
522 33 0.420277 0.727048 0.5
600 33 0.477166 0.693561 0.5
158 32 0.502871 0.717717 0.5
148 32 0.511364 0.686565 0.5
362 31 0.573687 0.670861 0.5
268 36 0.529062 0.737428 0.5
905 30 0.493293 0.743974 0.5
181 31 0.547565 0.648224 0.5
915 29 0.562765 0.702891 0.5
88 35 0.593363 0.646393 0.5
317 33 0.688439 0.676825 0.5
224 30 0.611091 0.6756 0.5
16 31 0.658641 0.707977 0.5
294 30 0.780539 0.706098 0.5
864 28 0.751378 0.68315 0.5
959 29 0.72036 0.679114 0.5
419 32 0.75391 0.722829 0.5
410 34 0.813051 0.67906 0.5
796 29 0.795151 0.733932 0.5
616 30 0.815418 0.71556 0.5
117 31 0.842663 0.702265 0.5
892 27 0.88364 0.746554 0.5
336 33 0.85571 0.669074 0.5
561 31 0.888586 0.67154 0.5
434 28 0.908013 0.700548 0.5
833 31 0.869846 0.692659 0.5
383 32 0.949167 0.732583 0.5
877 30 0.93473 0.689569 0.5
873 31 0.992491 0.659028 0.5
767 34 0.980636 0.718882 0.5
855 31 0.0116671 0.715169 0.5
885 28 0.0262662 0.756625 0.5
183 29 0.0214784 0.7889 0.5
359 32 0.99537 0.774976 0.5
69 32 0.0782256 0.803976 0.5
327 31 0.121702 0.762217 0.5
29 30 0.0907942 0.758438 0.5
983 31 0.145637 0.73031 0.5
397 31 0.17993 0.743817 0.5
571 36 0.197553 0.716801 0.5
225 32 0.168143 0.706855 0.5
955 29 0.214028 0.747395 0.5
232 29 0.290677 0.67769 0.5
290 31 0.262217 0.776271 0.5
204 32 0.271523 0.719339 0.5
296 30 0.329955 0.770871 0.5
20 32 0.298712 0.745779 0.5
900 28 0.327468 0.742604 0.5
458 33 0.382275 0.728883 0.5
216 35 0.297523 0.713273 0.5
595 32 0.349477 0.801329 0.5
122 30 0.433685 0.76187 0.5
953 30 0.359255 0.7656 0.5
461 31 0.398126 0.81493 0.5
985 28 0.473489 0.722501 0.5
789 29 0.454787 0.784027 0.5
914 28 0.448775 0.7387 0.5
223 26 0.418266 0.789871 0.5
246 32 0.590296 0.69899 0.5
1000 33 0.589278 0.767282 0.5
530 30 0.562525 0.732877 0.5
757 34 0.596779 0.737708 0.5
499 26 0.585042 0.812435 0.5
565 29 0.567608 0.790642 0.5
766 30 0.623099 0.707711 0.5
98 32 0.638541 0.739988 0.5
321 31 0.617099 0.762451 0.5
883 33 0.656013 0.764008 0.5
818 28 0.690797 0.761442 0.5
824 31 0.67328 0.737046 0.5
344 27 0.70767 0.737771 0.5
617 32 0.713473 0.779597 0.5
299 28 0.726331 0.707428 0.5
744 32 0.750018 0.793947 0.5
552 30 0.736759 0.750941 0.5
157 31 0.847422 0.73183 0.5
315 30 0.821506 0.748022 0.5
447 33 0.79811 0.765028 0.5
472 29 0.765778 0.763732 0.5
913 30 0.85777 0.759712 0.5
533 32 0.881514 0.776105 0.5
210 29 0.878487 0.719317 0.5
30 31 0.919888 0.728687 0.5
858 31 0.907871 0.760417 0.5
685 30 0.969589 0.79178 0.5
339 33 0.999021 0.744269 0.5
840 29 0.967672 0.760938 0.5
185 33 0.0477448 0.806228 0.5
428 29 0.0371419 0.887895 0.5
618 33 0.0651465 0.834135 0.5
775 32 0.132598 0.794497 0.5
273 29 0.153858 0.758667 0.5
194 31 0.160612 0.794835 0.5
338 30 0.189168 0.812171 0.5
446 30 0.181332 0.77373 0.5
370 33 0.246457 0.80813 0.5
524 32 0.215976 0.815947 0.5
44 32 0.210573 0.782343 0.5
861 32 0.29297 0.774294 0.5
308 29 0.277662 0.800421 0.5
491 30 0.314588 0.796557 0.5
58 29 0.351502 0.8803 0.5
869 31 0.301316 0.821048 0.5
378 31 0.283452 0.854575 0.5
61 31 0.314218 0.865664 0.5
836 30 0.32557 0.835034 0.5
604 27 0.348001 0.8476 0.5
919 28 0.379542 0.787951 0.5
917 34 0.409467 0.845687 0.5
102 27 0.365769 0.825355 0.5
659 32 0.435591 0.81013 0.5
741 32 0.551492 0.764167 0.5
901 33 0.539481 0.789322 0.5
907 29 0.477135 0.768499 0.5
334 32 0.604555 0.854601 0.5
52 33 0.501284 0.798593 0.5
384 35 0.635991 0.790467 0.5
839 29 0.649039 0.821681 0.5
590 28 0.608161 0.792245 0.5
859 34 0.721078 0.81166 0.5
963 29 0.694116 0.804685 0.5
481 30 0.665317 0.796173 0.5
721 29 0.766018 0.819181 0.5
379 29 0.710012 0.838591 0.5
244 30 0.784704 0.790057 0.5
976 27 0.793694 0.816632 0.5
558 31 0.844981 0.831038 0.5
837 31 0.776991 0.842566 0.5
777 29 0.816103 0.801172 0.5
31 27 0.839281 0.783078 0.5
697 33 0.92452 0.827851 0.5
788 32 0.864935 0.807708 0.5
995 28 0.905278 0.795512 0.5
545 34 0.936322 0.798284 0.5
355 31 0.938955 0.76753 0.5
794 31 0.994609 0.805666 0.5
399 32 0.0217095 0.861792 0.5
453 28 0.967298 0.821141 0.5
281 28 0.0366232 0.835115 0.5
382 33 0.00134218 0.897618 0.5
668 27 0.0843159 0.880104 0.5
886 29 0.0952108 0.849471 0.5
54 30 0.13642 0.858226 0.5
520 31 0.109667 0.825181 0.5
485 32 0.0511235 0.864687 0.5
607 33 0.110917 0.872558 0.5
909 29 0.15883 0.880629 0.5
934 28 0.131313 0.897984 0.5
515 30 0.140063 0.826826 0.5
940 29 0.204877 0.84122 0.5
933 30 0.17271 0.843361 0.5
356 28 0.188423 0.88149 0.5
389 34 0.269849 0.830377 0.5
686 30 0.235664 0.841124 0.5
527 30 0.220919 0.866011 0.5
35 33 0.257042 0.864803 0.5
544 29 0.28891 0.885904 0.5
664 31 0.350232 0.916218 0.5
55 29 0.378958 0.892141 0.5
677 34 0.444487 0.870647 0.5
771 28 0.418172 0.901954 0.5
242 33 0.375757 0.855736 0.5
813 30 0.47289 0.855025 0.5
961 30 0.443791 0.840669 0.5
240 30 0.470584 0.813057 0.5
825 33 0.493329 0.829473 0.5
366 30 0.505835 0.769342 0.5
81 29 0.558173 0.815708 0.5
975 29 0.616711 0.825221 0.5
761 30 0.574385 0.844826 0.5
492 34 0.640705 0.902484 0.5
831 30 0.636245 0.848389 0.5
131 29 0.605295 0.88506 0.5
643 29 0.742968 0.833988 0.5
257 32 0.665761 0.919517 0.5
440 34 0.699293 0.867123 0.5
803 31 0.666737 0.861602 0.5
863 29 0.682151 0.834824 0.5
241 32 0.747329 0.866661 0.5
802 32 0.780993 0.911553 0.5
589 28 0.772097 0.879482 0.5
149 29 0.797054 0.877439 0.5
774 32 0.822531 0.865802 0.5
986 30 0.887839 0.822541 0.5
525 29 0.808217 0.838963 0.5
99 28 0.868231 0.849643 0.5
773 26 0.852321 0.87122 0.5
168 33 0.953387 0.846596 0.5
243 31 0.992427 0.83398 0.5
435 28 0.903499 0.847894 0.5
746 28 0.941016 0.897896 0.5
386 33 0.993255 0.866032 0.5
21 31 0.077661 0.925044 0.5
269 31 0.065468 0.897596 0.5
320 32 0.125124 0.933127 0.5
380 34 0.0420742 0.919298 0.5
4 31 0.103882 0.913033 0.5
572 32 0.146767 0.952743 0.5
108 32 0.165619 0.978543 0.5
92 29 0.110859 0.958173 0.5
669 34 0.153862 0.918815 0.5
347 36 0.181837 0.952891 0.5
662 31 0.241661 0.963986 0.5
154 30 0.218769 0.893422 0.5
780 30 0.186644 0.916708 0.5
324 34 0.219893 0.940902 0.5
642 31 0.327107 0.895368 0.5
23 29 0.318851 0.924448 0.5
311 29 0.256861 0.898014 0.5
205 29 0.400479 0.948252 0.5
801 29 0.393824 0.918332 0.5
930 29 0.371563 0.95873 0.5
826 30 0.412833 0.875421 0.5
101 29 0.422401 0.932154 0.5
253 30 0.482594 0.881327 0.5
701 33 0.453479 0.903825 0.5
196 31 0.526909 0.820548 0.5
285 30 0.512792 0.855007 0.5
580 29 0.544068 0.845506 0.5
132 31 0.559524 0.900403 0.5
891 32 0.574307 0.878136 0.5
227 31 0.541984 0.873066 0.5
681 28 0.635863 0.874847 0.5
133 31 0.637584 0.934657 0.5
935 28 0.605584 0.951191 0.5
165 27 0.604273 0.983417 0.5
842 29 0.638261 0.965168 0.5
540 32 0.695807 0.928442 0.5
650 30 0.700993 0.956985 0.5
637 29 0.691951 0.896768 0.5
556 30 0.717755 0.907922 0.5
998 31 0.758799 0.932424 0.5
768 31 0.747869 0.898182 0.5
65 31 0.72406 0.934717 0.5
570 32 0.747626 0.964834 0.5
684 28 0.778384 0.98319 0.5
27 32 0.787469 0.943085 0.5
254 31 0.809828 0.919779 0.5
979 32 0.821545 0.894928 0.5
663 31 0.881784 0.878548 0.5
400 32 0.911748 0.889272 0.5
749 29 0.845866 0.950555 0.5
271 30 0.930673 0.866036 0.5
284 32 0.961235 0.875566 0.5
156 28 0.967264 0.910193 0.5
2 30 0.92227 0.926343 0.5
747 28 0.879627 0.907467 0.5
247 28 0.949853 0.929663 0.5
999 33 0.0212533 0.939512 0.5
587 33 0.0413819 0.00131009 0.5
676 31 0.988051 0.925857 0.5
845 29 0.0450434 0.974099 0.5
828 30 0.0728835 0.00318402 0.5
265 35 0.0559249 0.94718 0.5
215 29 0.0772225 0.97185 0.5
924 28 0.20299 0.0541871 0.5
722 32 0.133799 0.978786 0.5
776 31 0.103411 0.988531 0.5
451 31 0.127879 0.0103873 0.5
84 29 0.190343 0.993258 0.5
584 28 0.219186 0.996015 0.5
38 30 0.258648 0.990032 0.5
174 31 0.209204 0.968881 0.5
631 30 0.236657 0.918221 0.5
415 28 0.262279 0.945443 0.5
107 30 0.309569 0.950179 0.5
700 29 0.277676 0.917583 0.5
798 32 0.282305 0.96863 0.5
464 30 0.452541 0.932576 0.5
811 29 0.394455 0.978273 0.5
104 28 0.342473 0.944233 0.5
343 32 0.365787 0.987596 0.5
427 31 0.431348 0.0201557 0.5
557 33 0.456787 0.966602 0.5
476 27 0.480478 0.915554 0.5
982 31 0.514785 0.888487 0.5
899 27 0.513407 0.918228 0.5
923 32 0.454136 1.00099 0.5
454 31 0.489559 0.942135 0.5
201 32 0.541876 0.93007 0.5
510 32 0.516597 0.947312 0.5
363 28 0.571948 0.929683 0.5
809 29 0.613728 0.0158726 0.5
745 32 0.603101 0.9181 0.5
295 32 0.571209 0.961327 0.5
653 28 0.585102 0.00964156 0.5
442 32 0.669425 0.977017 0.5
377 29 0.635396 0.0331869 0.5
178 27 0.662007 0.949243 0.5
737 32 0.64015 0.996494 0.5
731 32 0.694445 0.990533 0.5
207 31 0.716691 0.0208667 0.5
807 27 0.719884 0.97795 0.5
932 29 0.747755 0.0392116 0.5
888 29 0.736966 -2.62994e-05 0.5
805 29 0.762453 0.0090585 0.5
896 30 0.807991 0.988627 0.5
719 27 0.836232 0.977739 0.5
141 31 0.819297 0.948684 0.5
203 34 0.824951 0.0128532 0.5
100 32 0.840022 0.920611 0.5
893 30 0.877163 0.972031 0.5
735 29 0.890775 0.946712 0.5
14 30 0.905324 0.969079 0.5
608 30 0.866409 0.935471 0.5
197 30 0.931638 0.953586 0.5
448 31 0.967535 0.952201 0.5
