ITEM: TIMESTEP
2510000
ITEM: NUMBER OF ATOMS
1000
ITEM: BOX BOUNDS pp pp pp
-1.6508578000000000e+01 1.6508578000000000e+01
-1.6508578000000000e+01 1.6508578000000000e+01
-5.0000000000000000e-01 5.0000000000000000e-01
ITEM: ATOMS id type xs ys zs
746 28 0.0554091 0.984134 0.5
100 32 0.0357261 0.951663 0.5
558 31 0.998144 0.988632 0.5
984 31 0.111256 0.0019451 0.5
654 28 0.113712 0.0350425 0.5
247 28 0.081435 0.999609 0.5
451 31 0.133881 0.979982 0.5
853 26 0.138761 0.0199763 0.5
342 34 0.215084 0.0172152 0.5
465 29 0.176771 0.00901459 0.5
679 35 0.250049 0.0235639 0.5
974 29 0.222065 0.045226 0.5
929 32 0.289054 0.0278217 0.5
715 27 0.258619 0.0504262 0.5
47 31 0.329161 0.0568345 0.5
110 30 0.289513 0.0988398 0.5
790 31 0.348947 0.0266939 0.5
585 31 0.360994 -0.00327694 0.5
127 27 0.377192 0.0329608 0.5
578 30 0.427013 1.00114 0.5
7 32 0.358826 0.0637048 0.5
713 33 0.457476 0.0140935 0.5
633 30 0.419957 0.968492 0.5
345 31 0.477764 0.956849 0.5
712 30 0.47952 0.990979 0.5
454 31 0.514021 0.996938 0.5
278 32 0.494461 0.0194311 0.5
771 28 0.466729 0.0402669 0.5
814 31 0.509516 0.0550891 0.5
427 31 0.603751 0.0212345 0.5
916 28 0.60807 0.0524428 0.5
124 29 0.552421 0.0841114 0.5
878 31 0.546409 0.0524766 0.5
274 29 0.62659 0.128087 0.5
591 29 0.683843 0.0443076 0.5
489 27 0.62753 0.00456855 0.5
549 30 0.640789 0.0447466 0.5
811 29 0.66016 0.0251699 0.5
205 29 0.643259 0.952915 0.5
334 32 0.717344 0.048639 0.5
899 27 0.649788 0.985593 0.5
935 28 0.736047 0.026735 0.5
430 32 0.766447 0.0967292 0.5
283 33 0.772308 0.0678356 0.5
809 29 0.822948 0.082453 0.5
203 34 0.865885 0.0519793 0.5
737 32 0.845138 0.986327 0.5
192 33 0.884367 0.026994 0.5
893 30 0.916714 0.0238796 0.5
768 31 0.969762 0.0387956 0.5
72 28 0.899604 1.00124 0.5
65 31 0.944026 0.0122418 0.5
888 29 0.930406 0.983509 0.5
773 26 0.0163839 0.0131662 0.5
156 28 0.0448258 0.0101111 0.5
807 27 0.978943 0.0122062 0.5
587 33 0.0273341 0.986738 0.5
683 32 0.0607123 0.0905397 0.5
979 32 0.110564 0.113092 0.5
626 32 0.100328 0.149827 0.5
747 28 0.0864196 0.0549446 0.5
776 31 0.101269 0.0848242 0.5
265 35 0.0707215 0.0256952 0.5
755 28 0.192657 0.043631 0.5
636 27 0.132119 0.168429 0.5
821 29 0.122885 0.0616293 0.5
309 32 0.160937 0.0876913 0.5
567 30 0.191721 0.0722959 0.5
532 30 0.158201 0.0528704 0.5
414 32 0.188356 0.10008 0.5
910 30 0.22872 0.0861135 0.5
280 34 0.261343 0.108193 0.5
513 29 0.266467 0.0763976 0.5
326 36 0.288045 0.135836 0.5
554 30 0.351215 0.093601 0.5
343 32 0.383539 0.0887724 0.5
606 32 0.312874 0.0801134 0.5
94 28 0.352585 0.120417 0.5
867 33 0.324067 0.11643 0.5
55 29 0.401103 0.061963 0.5
758 27 0.403645 0.0239709 0.5
261 33 0.359284 0.151886 0.5
239 32 0.426286 0.0390649 0.5
5 32 0.444415 0.064821 0.5
846 32 0.519187 0.125805 0.5
517 33 0.474977 0.0721573 0.5
460 32 0.486026 0.112836 0.5
91 28 0.509126 0.0846404 0.5
699 27 0.582241 0.0753814 0.5
932 29 0.582359 0.105571 0.5
937 31 0.66354 0.167015 0.5
133 31 0.636401 0.0769835 0.5
951 30 0.638636 0.153642 0.5
85 27 0.670582 0.0691574 0.5
557 33 0.735725 0.0729854 0.5
312 34 0.702151 0.078066 0.5
958 27 0.738223 0.128659 0.5
178 27 0.725806 0.102489 0.5
131 29 0.833601 0.0553988 0.5
589 28 0.763777 0.129513 0.5
718 26 0.798736 0.0769699 0.5
306 29 0.840957 0.111839 0.5
190 34 0.806331 0.11118 0.5
598 32 0.961847 0.0720602 0.5
769 30 0.940882 0.0402511 0.5
141 31 0.893549 0.0587134 0.5
228 29 0.997307 0.0727804 0.5
608 30 0.945737 0.0971709 0.5
927 31 1.00006 0.0362879 0.5
27 32 0.982786 0.0974385 0.5
645 31 0.056257 0.0562513 0.5
751 28 0.0249582 0.0816573 0.5
828 30 0.0490155 0.120315 0.5
406 30 0.0807198 0.128317 0.5
493 28 0.0265058 0.0495282 0.5
403 28 0.060309 0.147835 0.5
997 32 0.0773383 0.181316 0.5
496 30 0.12293 0.192768 0.5
341 28 0.132454 0.139267 0.5
455 31 0.156776 0.151543 0.5
177 28 0.132574 0.0864244 0.5
734 31 0.191078 0.134877 0.5
808 29 0.15727 0.118539 0.5
48 28 0.245642 0.188305 0.5
24 30 0.251044 0.135983 0.5
218 27 0.268353 0.215746 0.5
615 29 0.280909 0.189612 0.5
666 31 0.264356 0.165005 0.5
144 32 0.331629 0.216951 0.5
219 29 0.310302 0.187637 0.5
538 32 0.317941 0.147394 0.5
902 30 0.412842 0.179639 0.5
89 30 0.399246 0.205864 0.5
486 33 0.379546 0.178812 0.5
82 32 0.454622 0.129474 0.5
714 30 0.383449 0.133263 0.5
333 30 0.418905 0.0822522 0.5
175 36 0.422969 0.117575 0.5
249 32 0.454913 0.094711 0.5
452 32 0.55045 0.147028 0.5
391 28 0.533904 0.105249 0.5
692 29 0.558488 0.120925 0.5
9 29 0.574737 0.166231 0.5
329 32 0.583642 0.136325 0.5
620 29 0.607988 0.191037 0.5
469 33 0.655397 0.226614 0.5
291 29 0.611437 0.15027 0.5
36 33 0.641695 0.18702 0.5
731 32 0.612631 0.0997466 0.5
671 28 0.651829 0.110398 0.5
377 29 0.681685 0.106417 0.5
617 32 0.760249 0.158566 0.5
353 30 0.780432 0.186706 0.5
248 28 0.812293 0.179767 0.5
514 28 0.787216 0.146421 0.5
896 30 0.815792 0.149626 0.5
252 32 0.928839 0.0713271 0.5
738 31 0.869191 0.109073 0.5
411 31 0.854871 0.0802376 0.5
457 33 0.890488 0.0903071 0.5
202 34 0.894293 0.120306 0.5
749 29 0.919373 0.0992975 0.5
197 30 0.956236 0.126654 0.5
922 33 0.0159547 0.116047 0.5
707 37 0.9962 0.160157 0.5
287 33 0.964767 0.161327 0.5
482 30 0.0335563 0.153417 0.5
971 26 0.0100707 0.189503 0.5
277 29 0.0623677 0.208303 0.5
812 29 0.0332696 0.204002 0.5
623 33 0.0476788 0.181095 0.5
655 30 0.0890611 0.234331 0.5
245 27 0.0977401 0.204628 0.5
222 31 0.155478 0.219818 0.5
657 28 0.155143 0.184895 0.5
781 30 0.149181 0.248998 0.5
884 33 0.188002 0.20442 0.5
870 30 0.216607 0.111385 0.5
835 31 0.217239 0.195152 0.5
259 26 0.20752 0.154075 0.5
754 31 0.297849 0.21315 0.5
162 31 0.186971 0.172974 0.5
582 30 0.314582 0.248998 0.5
847 33 0.347465 0.184747 0.5
895 30 0.344682 0.26749 0.5
834 31 0.279629 0.244085 0.5
346 30 0.441519 0.177135 0.5
696 29 0.470174 0.159022 0.5
988 26 0.524512 0.151951 0.5
484 32 0.487223 0.187575 0.5
764 33 0.408307 0.149213 0.5
68 31 0.512216 0.241873 0.5
172 26 0.514586 0.1821 0.5
991 31 0.515522 0.211659 0.5
904 32 0.549583 0.178182 0.5
229 31 0.579049 0.195872 0.5
912 34 0.55126 0.208783 0.5
73 31 0.602155 0.221434 0.5
797 31 0.628012 0.243436 0.5
494 27 0.58682 0.257076 0.5
634 25 0.629953 0.214637 0.5
708 29 0.714554 0.202903 0.5
136 33 0.692206 0.175855 0.5
994 30 0.67573 0.201539 0.5
709 30 0.678996 0.141134 0.5
586 35 0.705275 0.123916 0.5
424 27 0.756717 0.205533 0.5
785 32 0.739261 0.180279 0.5
653 28 0.799983 0.209776 0.5
852 32 0.776475 0.228261 0.5
555 30 0.832475 0.201258 0.5
778 28 0.862103 0.198096 0.5
719 27 0.840376 0.168262 0.5
14 30 0.897435 0.149372 0.5
90 34 0.879675 0.171428 0.5
952 32 0.85915 0.146179 0.5
200 32 0.908709 0.178641 0.5
87 30 0.935902 0.165646 0.5
390 31 0.964732 0.237416 0.5
103 31 0.925731 0.130059 0.5
501 32 0.984211 0.134333 0.5
78 26 0.984462 0.189946 0.5
534 32 0.0540709 0.266522 0.5
619 31 0.0599237 0.23759 0.5
770 35 0.0258881 0.260822 0.5
594 32 0.0698517 0.303202 0.5
698 27 0.118927 0.222796 0.5
145 28 0.0826268 0.26355 0.5
547 32 0.10282 0.294149 0.5
393 34 0.117929 0.254498 0.5
673 29 0.149628 0.305555 0.5
387 30 0.21359 0.231744 0.5
86 30 0.241873 0.216389 0.5
381 31 0.18083 0.242105 0.5
33 30 0.234262 0.163979 0.5
367 29 0.25047 0.249872 0.5
990 34 0.264506 0.276245 0.5
198 32 0.307929 0.286671 0.5
432 30 0.226626 0.319631 0.5
125 30 0.353985 0.238847 0.5
851 31 0.367563 0.209289 0.5
882 33 0.429156 0.205462 0.5
563 33 0.333365 0.299705 0.5
488 29 0.383973 0.229209 0.5
860 30 0.42572 0.276292 0.5
438 29 0.494909 0.140626 0.5
727 33 0.459406 0.218805 0.5
942 28 0.488788 0.224929 0.5
267 29 0.544166 0.240304 0.5
965 30 0.573282 0.228937 0.5
208 31 0.529948 0.267184 0.5
559 31 0.608708 0.275382 0.5
651 28 0.581964 0.285876 0.5
195 33 0.693543 0.230797 0.5
76 29 0.684618 0.262476 0.5
674 29 0.688657 0.297941 0.5
596 29 0.720707 0.154554 0.5
26 34 0.73406 0.226388 0.5
188 31 0.71482 0.251347 0.5
416 32 0.786364 0.264306 0.5
331 29 0.808515 0.240462 0.5
352 29 0.825492 0.261423 0.5
732 30 0.836175 0.229724 0.5
407 29 0.900557 0.213187 0.5
142 31 0.901062 0.245447 0.5
739 35 0.852623 0.274148 0.5
126 31 0.925652 0.227518 0.5
890 32 0.881107 0.270533 0.5
39 29 0.963959 0.210373 0.5
170 32 0.998747 0.215123 0.5
161 29 0.9887 0.26072 0.5
894 29 0.0257368 0.22902 0.5
710 33 0.0407922 0.294704 0.5
575 31 0.0381062 0.324129 0.5
286 31 0.0281184 0.353497 0.5
597 28 0.0328878 0.378656 0.5
566 31 0.0936874 0.324908 0.5
226 31 0.126014 0.327737 0.5
164 32 0.155096 0.368239 0.5
928 31 0.125279 0.367738 0.5
18 35 0.0921409 0.390796 0.5
19 30 0.196272 0.266532 0.5
887 31 0.137928 0.278245 0.5
328 27 0.155279 0.333271 0.5
166 30 0.225463 0.260843 0.5
276 32 0.233497 0.289914 0.5
138 31 0.204828 0.297163 0.5
41 31 0.257418 0.347164 0.5
688 29 0.251802 0.314298 0.5
816 31 0.287354 0.312229 0.5
302 29 0.371771 0.268744 0.5
817 33 0.398074 0.253403 0.5
772 31 0.361946 0.29794 0.5
113 32 0.351254 0.325496 0.5
939 33 0.413437 0.303468 0.5
537 29 0.460628 0.261022 0.5
115 27 0.389661 0.289317 0.5
358 29 0.488297 0.261808 0.5
413 29 0.435105 0.244327 0.5
786 34 0.478337 0.294782 0.5
682 33 0.570141 0.317029 0.5
753 31 0.560491 0.268053 0.5
804 30 0.526046 0.325087 0.5
423 32 0.54773 0.294276 0.5
313 32 0.610028 0.306727 0.5
279 31 0.551209 0.348124 0.5
340 27 0.579033 0.397168 0.5
235 32 0.652349 0.257443 0.5
841 31 0.645085 0.291195 0.5
304 29 0.579162 0.357587 0.5
371 30 0.638735 0.318084 0.5
978 27 0.665091 0.309215 0.5
189 23 0.711294 0.278593 0.5
369 32 0.655416 0.34698 0.5
868 34 0.685712 0.33499 0.5
622 30 0.738086 0.285499 0.5
962 37 0.752661 0.256252 0.5
765 28 0.765441 0.286511 0.5
968 33 0.737487 0.3148 0.5
800 27 0.794524 0.289847 0.5
647 30 0.818952 0.305464 0.5
752 29 0.827538 0.336336 0.5
850 28 0.771789 0.317374 0.5
759 33 0.864614 0.235397 0.5
182 31 0.850457 0.308819 0.5
220 30 0.893454 0.32953 0.5
332 29 0.934846 0.255123 0.5
497 31 0.93576 0.19624 0.5
300 33 0.880126 0.300698 0.5
3 32 0.961075 0.267498 0.5
950 31 0.947171 0.295486 0.5
980 29 0.00891238 0.286709 0.5
849 32 0.979163 0.292303 0.5
169 27 0.0436517 0.41313 0.5
996 29 0.996479 0.344711 0.5
508 29 0.062675 0.38443 0.5
750 31 0.0553827 0.352491 0.5
70 29 0.0829998 0.417879 0.5
640 33 0.0412766 0.439881 0.5
763 32 0.0928377 0.358088 0.5
364 31 0.175973 0.310859 0.5
748 32 0.139757 0.427924 0.5
372 29 0.199871 0.419077 0.5
921 33 0.167629 0.282874 0.5
231 31 0.182487 0.355938 0.5
656 27 0.201327 0.334687 0.5
66 31 0.224002 0.354613 0.5
588 29 0.242715 0.374444 0.5
601 31 0.280518 0.363703 0.5
945 32 0.314492 0.32551 0.5
163 28 0.363232 0.354925 0.5
612 29 0.338245 0.365639 0.5
282 29 0.391878 0.362139 0.5
95 31 0.361869 0.382543 0.5
93 35 0.452559 0.36865 0.5
143 30 0.386738 0.325832 0.5
214 32 0.444208 0.326199 0.5
83 31 0.473946 0.330308 0.5
314 31 0.447431 0.295917 0.5
171 32 0.508296 0.289112 0.5
297 30 0.498691 0.31689 0.5
966 28 0.509944 0.356938 0.5
62 30 0.532268 0.398911 0.5
880 34 0.483958 0.39107 0.5
361 31 0.554227 0.381381 0.5
667 29 0.553202 0.467414 0.5
504 34 0.553105 0.420761 0.5
695 27 0.606655 0.334684 0.5
943 36 0.609243 0.362824 0.5
872 34 0.660227 0.390268 0.5
477 31 0.679679 0.366489 0.5
613 29 0.638692 0.368016 0.5
944 30 0.713312 0.430703 0.5
153 33 0.779246 0.419865 0.5
548 33 0.745351 0.342099 0.5
8 28 0.737869 0.402489 0.5
661 30 0.715511 0.354215 0.5
536 29 0.774429 0.348565 0.5
53 32 0.766785 0.390533 0.5
742 31 0.741684 0.372666 0.5
449 29 0.855637 0.345239 0.5
96 30 0.823115 0.366522 0.5
875 32 0.797173 0.331084 0.5
167 29 0.908559 0.389376 0.5
665 35 0.911311 0.281692 0.5
906 34 0.884805 0.366452 0.5
879 32 0.919555 0.316728 0.5
528 32 0.994957 0.31668 0.5
211 26 0.994545 0.37979 0.5
425 31 0.00919743 0.430782 0.5
412 30 0.971501 0.422057 0.5
644 30 0.0180909 0.465783 0.5
694 31 0.109361 0.429728 0.5
186 31 0.126552 0.461992 0.5
716 30 0.136254 0.395251 0.5
876 31 0.080115 0.450346 0.5
184 29 0.176288 0.393534 0.5
779 33 0.171032 0.425556 0.5
827 35 0.21554 0.474324 0.5
152 32 0.219026 0.394051 0.5
931 30 0.230279 0.505076 0.5
111 30 0.246845 0.479239 0.5
349 35 0.224083 0.443624 0.5
176 31 0.245544 0.412602 0.5
703 30 0.269545 0.390106 0.5
436 31 0.311312 0.356191 0.5
646 29 0.301331 0.387968 0.5
911 30 0.391368 0.390573 0.5
964 32 0.336386 0.399989 0.5
234 32 0.362778 0.417561 0.5
437 31 0.419988 0.343791 0.5
793 30 0.423087 0.381525 0.5
948 33 0.478799 0.357451 0.5
725 34 0.391802 0.429939 0.5
402 33 0.424894 0.411714 0.5
293 33 0.464818 0.429084 0.5
635 27 0.456465 0.401823 0.5
237 32 0.51564 0.423785 0.5
230 31 0.499654 0.470704 0.5
784 29 0.606983 0.480738 0.5
689 30 0.523194 0.452141 0.5
603 30 0.578751 0.448373 0.5
236 35 0.592474 0.423767 0.5
678 30 0.613344 0.394772 0.5
500 35 0.625546 0.42583 0.5
22 32 0.688406 0.409177 0.5
987 32 0.67615 0.434857 0.5
599 32 0.743327 0.430173 0.5
704 32 0.713756 0.383414 0.5
431 31 0.808329 0.40329 0.5
680 30 0.69692 0.457271 0.5
531 29 0.794986 0.370621 0.5
256 32 0.793699 0.46097 0.5
706 31 0.877925 0.398951 0.5
303 30 0.842252 0.385295 0.5
10 30 0.849516 0.416964 0.5
118 29 0.910089 0.424437 0.5
672 31 0.949376 0.324443 0.5
624 28 0.917313 0.35745 0.5
705 30 0.969366 0.392464 0.5
305 30 0.872954 0.462323 0.5
574 27 1.00126 0.403508 0.5
50 31 0.966844 0.349521 0.5
723 30 0.944364 0.370579 0.5
25 31 0.0053218 0.494431 0.5
592 28 0.987024 0.451288 0.5
260 30 0.0662059 0.507689 0.5
949 32 0.0524527 0.469214 0.5
632 30 0.160138 0.454176 0.5
490 31 0.114988 0.49038 0.5
325 31 0.0796201 0.479462 0.5
471 28 0.192075 0.450412 0.5
519 28 0.234133 0.554962 0.5
238 28 0.180182 0.536782 0.5
179 31 0.18051 0.47835 0.5
756 30 0.211266 0.533573 0.5
57 31 0.199321 0.499923 0.5
357 33 0.165458 0.503893 0.5
421 32 0.306868 0.506919 0.5
495 31 0.255154 0.524537 0.5
217 31 0.251259 0.441941 0.5
330 29 0.277313 0.504743 0.5
862 28 0.27785 0.451255 0.5
135 30 0.275324 0.422732 0.5
970 27 0.338305 0.426914 0.5
856 29 0.30733 0.42302 0.5
926 32 0.422226 0.484666 0.5
832 35 0.397999 0.465271 0.5
920 30 0.365345 0.446565 0.5
830 30 0.443756 0.467563 0.5
478 30 0.431387 0.442861 0.5
498 30 0.452938 0.49588 0.5
15 32 0.471964 0.473492 0.5
810 31 0.55775 0.501085 0.5
675 29 0.503556 0.498405 0.5
251 31 0.589616 0.515763 0.5
627 31 0.579316 0.482049 0.5
762 31 0.62694 0.51656 0.5
691 34 0.636372 0.486028 0.5
51 31 0.655728 0.542527 0.5
823 30 0.608102 0.453451 0.5
450 28 0.654914 0.510996 0.5
17 29 0.646916 0.451397 0.5
573 30 0.667743 0.482926 0.5
918 34 0.715453 0.519198 0.5
365 29 0.705048 0.484045 0.5
629 28 0.768753 0.448034 0.5
388 29 0.71214 0.551574 0.5
724 34 0.808848 0.43431 0.5
479 26 0.768789 0.478341 0.5
468 29 0.728046 0.455153 0.5
638 37 0.818899 0.474383 0.5
871 30 0.878988 0.435492 0.5
829 28 0.897174 0.477054 0.5
610 30 0.9022 0.45025 0.5
335 32 0.844886 0.449023 0.5
521 31 0.928294 0.46942 0.5
376 34 0.935885 0.44038 0.5
155 30 0.934586 0.405175 0.5
77 26 0.957019 0.462262 0.5
56 29 0.979985 0.485894 0.5
134 32 0.0255901 0.548185 0.5
760 29 0.93608 0.521431 0.5
420 32 0.095457 0.513545 0.5
109 35 0.0355037 0.495409 0.5
32 27 0.0176695 0.521876 0.5
319 30 0.049818 0.530614 0.5
526 30 0.0899192 0.542378 0.5
702 29 0.144852 0.483022 0.5
225 32 0.135849 0.509443 0.5
159 32 0.150094 0.556162 0.5
743 31 0.260805 0.553792 0.5
562 33 0.20028 0.568026 0.5
433 28 0.285653 0.533741 0.5
512 31 0.31648 0.539983 0.5
67 30 0.334152 0.461307 0.5
480 29 0.368405 0.514114 0.5
79 33 0.29383 0.479149 0.5
529 30 0.366364 0.543862 0.5
523 27 0.307516 0.453019 0.5
42 35 0.397121 0.538316 0.5
221 27 0.417491 0.519769 0.5
729 27 0.363753 0.481273 0.5
898 29 0.446644 0.523977 0.5
511 33 0.475854 0.513506 0.5
736 28 0.425478 0.585339 0.5
123 25 0.527996 0.516512 0.5
564 29 0.497175 0.538842 0.5
264 31 0.467351 0.541559 0.5
463 29 0.556719 0.528693 0.5
396 31 0.528931 0.481519 0.5
546 31 0.531642 0.544196 0.5
766 30 0.571035 0.577626 0.5
401 28 0.636054 0.562474 0.5
848 30 0.599609 0.571328 0.5
947 32 0.61232 0.54334 0.5
59 28 0.683849 0.515746 0.5
973 27 0.671687 0.579495 0.5
351 31 0.682263 0.605386 0.5
13 31 0.70397 0.580447 0.5
80 30 0.685386 0.555942 0.5
105 31 0.733701 0.578461 0.5
255 30 0.763265 0.511086 0.5
74 32 0.736516 0.488567 0.5
34 31 0.779161 0.535921 0.5
310 32 0.739728 0.538906 0.5
539 31 0.838373 0.518138 0.5
602 28 0.791646 0.496935 0.5
392 30 0.803226 0.521541 0.5
193 29 0.842558 0.548037 0.5
992 33 0.860931 0.491817 0.5
972 30 0.866602 0.522013 0.5
960 34 0.900036 0.569913 0.5
408 29 0.950698 0.489322 0.5
509 29 0.915447 0.499218 0.5
263 30 0.895887 0.519633 0.5
64 31 0.984654 0.51735 0.5
75 27 0.914869 0.54517 0.5
417 28 0.962304 0.538998 0.5
233 29 0.995358 0.547543 0.5
266 32 0.0267864 0.577123 0.5
183 29 0.0594003 0.555782 0.5
767 34 0.12111 0.566654 0.5
121 31 0.0915859 0.576195 0.5
318 32 0.174349 0.619604 0.5
783 29 0.128957 0.535579 0.5
185 33 0.16427 0.650543 0.5
350 25 0.173352 0.57293 0.5
503 33 0.160625 0.679106 0.5
576 31 0.255818 0.618268 0.5
232 29 0.231187 0.585369 0.5
199 33 0.259789 0.587194 0.5
114 28 0.332833 0.489591 0.5
690 29 0.31515 0.576231 0.5
147 30 0.288385 0.568316 0.5
307 31 0.339464 0.596015 0.5
791 29 0.394296 0.497975 0.5
568 31 0.340564 0.518799 0.5
151 33 0.397518 0.571026 0.5
46 32 0.344438 0.563952 0.5
660 29 0.434931 0.553291 0.5
609 30 0.371321 0.5853 0.5
246 32 0.447382 0.61362 0.5
541 31 0.495516 0.642598 0.5
322 27 0.418737 0.614765 0.5
792 31 0.457373 0.582766 0.5
148 32 0.484462 0.609401 0.5
258 34 0.515377 0.577421 0.5
404 31 0.547694 0.596448 0.5
542 31 0.581798 0.549635 0.5
150 34 0.592979 0.600956 0.5
146 28 0.619639 0.592264 0.5
445 32 0.651591 0.599738 0.5
288 33 0.7209 0.6388 0.5
583 28 0.639433 0.639435 0.5
506 33 0.678342 0.645067 0.5
550 28 0.721972 0.606137 0.5
593 28 0.762435 0.562395 0.5
833 31 0.788079 0.578882 0.5
422 30 0.851103 0.577042 0.5
315 30 0.873971 0.549474 0.5
71 32 0.813016 0.556038 0.5
173 30 0.897045 0.626381 0.5
516 34 0.879192 0.590683 0.5
787 29 0.940608 0.592493 0.5
819 30 0.94724 0.623596 0.5
605 28 0.969565 0.563799 0.5
733 33 0.971612 0.600178 0.5
63 30 0.938547 0.562163 0.5
298 34 0.994818 0.618272 0.5
628 31 0.0261365 0.610943 0.5
4 31 0.0643028 0.592197 0.5
29 30 0.110421 0.700126 0.5
983 31 0.101054 0.638045 0.5
885 28 0.0811467 0.618673 0.5
69 32 0.11062 0.610366 0.5
520 31 0.138837 0.657994 0.5
618 33 0.143711 0.596969 0.5
515 30 0.136899 0.627702 0.5
571 36 0.206907 0.605444 0.5
292 30 0.199325 0.636027 0.5
397 31 0.221595 0.660447 0.5
577 33 0.286868 0.606904 0.5
140 30 0.304122 0.635268 0.5
106 26 0.226373 0.630825 0.5
466 35 0.307812 0.663923 0.5
250 30 0.315709 0.608884 0.5
316 34 0.376402 0.68809 0.5
240 30 0.340736 0.636458 0.5
621 29 0.369073 0.652542 0.5
969 30 0.345321 0.693646 0.5
889 29 0.394659 0.6027 0.5
268 36 0.364954 0.613922 0.5
993 30 0.392999 0.636497 0.5
360 25 0.396872 0.665168 0.5
600 33 0.425165 0.642668 0.5
881 29 0.464818 0.674401 0.5
670 32 0.488757 0.692568 0.5
726 30 0.485293 0.570358 0.5
795 33 0.526106 0.63689 0.5
181 31 0.514454 0.611038 0.5
98 32 0.55124 0.660116 0.5
224 30 0.583468 0.635546 0.5
119 30 0.58407 0.665714 0.5
206 31 0.613548 0.631514 0.5
299 28 0.649404 0.666103 0.5
854 29 0.614664 0.661119 0.5
652 35 0.707254 0.664175 0.5
49 29 0.743934 0.672277 0.5
473 31 0.756692 0.641267 0.5
410 34 0.776768 0.666606 0.5
913 30 0.786625 0.634866 0.5
505 31 0.754558 0.604865 0.5
112 28 0.793547 0.608005 0.5
925 27 0.814961 0.586871 0.5
581 27 0.849386 0.610495 0.5
272 33 0.816599 0.625617 0.5
630 31 0.867644 0.639876 0.5
967 28 0.971893 0.641442 0.5
339 33 0.922302 0.640414 0.5
60 29 0.911832 0.598302 0.5
855 31 -0.000712999 0.644141 0.5
289 27 0.994257 0.580216 0.5
160 30 0.0768352 0.685153 0.5
180 31 0.074553 0.715025 0.5
669 34 0.0542305 0.622942 0.5
551 30 0.0478951 0.691316 0.5
873 31 0.0672119 0.649568 0.5
453 28 0.1358 0.72986 0.5
543 32 0.104705 0.667754 0.5
327 31 0.162993 0.729117 0.5
191 33 0.14108 0.703288 0.5
507 30 0.191847 0.668373 0.5
20 32 0.185365 0.699442 0.5
470 30 0.201941 0.753185 0.5
900 28 0.176213 0.759314 0.5
641 30 0.202511 0.726023 0.5
194 31 0.248984 0.707542 0.5
290 31 0.215047 0.690074 0.5
429 29 0.34123 0.667012 0.5
604 27 0.249637 0.644911 0.5
861 32 0.318359 0.691669 0.5
137 32 0.30497 0.724928 0.5
311 29 0.277357 0.718483 0.5
158 32 0.359201 0.720509 0.5
936 28 0.388064 0.716141 0.5
102 27 0.386094 0.746118 0.5
348 29 0.416363 0.700585 0.5
522 33 0.460405 0.642417 0.5
213 31 0.437417 0.670232 0.5
985 28 0.510498 0.672322 0.5
362 31 0.554895 0.622965 0.5
883 33 0.524021 0.708992 0.5
321 31 0.464231 0.723177 0.5
88 35 0.63224 0.692619 0.5
824 31 0.601995 0.693967 0.5
590 28 0.563565 0.693789 0.5
344 27 0.671873 0.703297 0.5
687 31 0.665915 0.744459 0.5
317 33 0.646546 0.720306 0.5
354 32 0.679526 0.67576 0.5
294 30 0.742661 0.733519 0.5
97 27 0.702327 0.695088 0.5
946 30 0.757673 0.696419 0.5
16 31 0.730357 0.708592 0.5
693 30 0.769643 0.722131 0.5
865 27 0.799948 0.733948 0.5
625 31 0.827665 0.72323 0.5
187 32 0.786895 0.696434 0.5
858 31 0.807928 0.665092 0.5
1 29 0.824629 0.688211 0.5
561 31 0.836003 0.65742 0.5
116 27 0.853732 0.676033 0.5
443 29 0.882057 0.67556 0.5
648 28 0.897265 0.653652 0.5
717 30 0.920702 0.669566 0.5
533 32 0.974076 0.673636 0.5
954 28 0.947114 0.660217 0.5
130 30 0.0172248 0.680557 0.5
359 32 0.0402039 0.659671 0.5
212 28 0.0179099 0.715658 0.5
794 31 0.978531 0.724052 0.5
740 32 0.0144198 0.741648 0.5
281 28 0.0610248 0.766012 0.5
383 32 0.0492316 0.736863 0.5
775 32 0.106923 0.73212 0.5
780 30 0.138201 0.782696 0.5
686 30 0.167569 0.787706 0.5
54 30 0.0794841 0.744438 0.5
415 28 0.146133 0.754524 0.5
43 32 0.189123 0.804963 0.5
273 29 0.149386 0.812981 0.5
204 32 0.23099 0.732274 0.5
129 33 0.258619 0.747485 0.5
308 29 0.20482 0.837277 0.5
270 31 0.248888 0.675527 0.5
378 31 0.289551 0.692773 0.5
955 29 0.277331 0.66315 0.5
869 31 0.30896 0.78104 0.5
642 31 0.32227 0.750777 0.5
337 30 0.28901 0.749701 0.5
216 35 0.358999 0.754311 0.5
527 30 0.415812 0.75441 0.5
919 28 0.374953 0.78285 0.5
782 29 0.401932 0.781056 0.5
458 33 0.429259 0.72883 0.5
11 33 0.435531 0.778297 0.5
813 30 0.443539 0.699112 0.5
956 32 0.558036 0.721525 0.5
914 28 0.538252 0.684572 0.5
774 32 0.535354 0.742811 0.5
1000 33 0.465365 0.761586 0.5
530 30 0.586635 0.728684 0.5
419 32 0.634336 0.747144 0.5
963 29 0.681815 0.784877 0.5
395 29 0.710341 0.783587 0.5
227 31 0.649591 0.786235 0.5
818 28 0.694007 0.758558 0.5
552 30 0.695395 0.811583 0.5
839 29 0.725953 0.759008 0.5
658 33 0.754039 0.783159 0.5
959 29 0.767081 0.748563 0.5
117 31 0.691713 0.730342 0.5
426 27 0.853372 0.702758 0.5
447 33 0.816492 0.761036 0.5
99 28 0.880044 0.753324 0.5
275 31 0.886502 0.703046 0.5
643 29 0.845096 0.757148 0.5
434 28 0.866868 0.727749 0.5
720 30 0.949185 0.68964 0.5
139 30 0.929317 0.746137 0.5
271 30 0.994365 0.696732 0.5
535 28 0.949958 0.723246 0.5
243 31 0.988149 0.762437 0.5
607 33 0.0290973 0.804355 0.5
909 29 0.983342 0.864831 0.5
545 34 0.0304321 0.77389 0.5
934 28 0.0680296 0.821768 0.5
338 30 0.0915872 0.776177 0.5
44 32 0.0641099 0.794245 0.5
685 30 0.110891 0.800953 0.5
584 28 0.117115 0.762835 0.5
399 32 0.155172 0.851879 0.5
940 29 0.176093 0.831239 0.5
107 30 0.196577 0.863433 0.5
370 33 0.124448 0.828469 0.5
789 29 0.230158 0.762572 0.5
981 30 0.255598 0.869802 0.5
491 30 0.237071 0.833016 0.5
524 32 0.22763 0.802513 0.5
631 30 0.343173 0.784925 0.5
374 32 0.320095 0.809473 0.5
61 31 0.364964 0.841073 0.5
700 29 0.329186 0.841186 0.5
930 29 0.292996 0.836277 0.5
595 32 0.341391 0.867589 0.5
459 33 0.390322 0.814883 0.5
961 30 0.349434 0.817637 0.5
836 30 0.412773 0.832204 0.5
483 29 0.428484 0.805551 0.5
296 30 0.461827 0.793115 0.5
730 31 0.537465 0.781301 0.5
953 30 0.492155 0.780641 0.5
639 27 0.491616 0.729021 0.5
975 29 0.511024 0.756066 0.5
441 30 0.599093 0.753138 0.5
481 30 0.613072 0.799703 0.5
741 32 0.560137 0.764069 0.5
540 32 0.615223 0.720032 0.5
244 30 0.620952 0.770864 0.5
761 30 0.677508 0.838258 0.5
721 29 0.732111 0.820772 0.5
796 29 0.752681 0.855454 0.5
806 29 0.716999 0.842533 0.5
744 32 0.760849 0.823668 0.5
474 29 0.784896 0.85123 0.5
864 28 0.784031 0.79021 0.5
525 29 0.811256 0.791397 0.5
210 29 0.839822 0.786162 0.5
254 31 0.858161 0.820471 0.5
877 30 0.899541 0.730676 0.5
844 31 0.871311 0.781413 0.5
995 28 0.810665 0.845825 0.5
241 32 0.909481 0.773614 0.5
336 33 0.923336 0.801802 0.5
435 28 0.91677 0.833342 0.5
368 31 0.965726 0.799348 0.5
262 31 0.962226 0.750549 0.5
355 31 0.995901 0.793781 0.5
398 33 0.91867 0.703859 0.5
448 31 0.940509 0.775622 0.5
485 32 0.97479 0.894816 0.5
840 29 0.0174412 0.859211 0.5
386 33 0.0736435 0.847528 0.5
356 28 0.0956473 0.827661 0.5
933 30 0.105333 0.853578 0.5
154 30 0.00856467 0.889459 0.5
886 29 0.129996 0.86523 0.5
446 30 0.115304 0.889609 0.5
722 32 0.263756 0.81393 0.5
385 31 0.226086 0.86874 0.5
324 34 0.170486 0.882956 0.5
389 34 0.252544 0.781708 0.5
977 33 0.238542 0.903361 0.5
35 33 0.255361 0.933133 0.5
23 29 0.311248 0.862969 0.5
462 30 0.280348 0.789883 0.5
58 29 0.264858 0.841842 0.5
456 31 0.332961 0.900046 0.5
544 29 0.370745 0.880021 0.5
664 31 0.409281 0.887316 0.5
104 28 0.37649 0.929731 0.5
196 31 0.459916 0.859733 0.5
917 34 0.398487 0.857133 0.5
476 27 0.431686 0.855526 0.5
891 32 0.520724 0.8409 0.5
659 32 0.487813 0.810964 0.5
825 33 0.502337 0.867937 0.5
461 31 0.490523 0.837451 0.5
52 33 0.518747 0.80818 0.5
901 33 0.586484 0.78983 0.5
363 28 0.616853 0.85853 0.5
757 34 0.641276 0.818225 0.5
253 30 0.556554 0.80198 0.5
863 29 0.668659 0.807129 0.5
565 29 0.644802 0.849502 0.5
295 32 0.67851 0.931895 0.5
132 31 0.708898 0.871187 0.5
616 30 0.712019 0.932364 0.5
803 31 0.737243 0.888434 0.5
384 35 0.675683 0.867187 0.5
831 30 0.696845 0.90264 0.5
379 29 0.762806 0.912043 0.5
989 32 0.776186 0.881066 0.5
30 31 0.791193 0.816297 0.5
802 32 0.806169 0.877097 0.5
892 27 0.823696 0.813663 0.5
149 29 0.893662 0.813227 0.5
128 31 0.839769 0.87391 0.5
976 27 0.89557 0.850793 0.5
650 30 0.924651 0.867163 0.5
777 29 0.898082 0.878592 0.5
165 27 0.867184 0.86749 0.5
697 33 0.992122 0.83425 0.5
788 32 0.943921 0.82249 0.5
168 33 0.957757 0.849881 0.5
668 27 0.946692 0.883441 0.5
676 31 0.0427332 0.837763 0.5
347 36 0.0179847 0.917715 0.5
21 31 0.0516642 0.871581 0.5
269 31 0.142904 0.896553 0.5
215 29 0.0875756 0.917796 0.5
108 32 0.103237 0.950928 0.5
822 32 0.185058 0.922967 0.5
320 32 0.080907 0.885103 0.5
382 33 0.22515 0.964354 0.5
924 28 0.271187 0.966616 0.5
409 30 0.199471 0.897858 0.5
12 32 0.217929 0.927702 0.5
553 31 0.284686 0.938686 0.5
572 32 0.274132 0.898594 0.5
301 33 0.313349 0.923336 0.5
84 29 0.32496 0.951746 0.5
38 30 0.282514 0.864436 0.5
223 26 0.306279 0.891792 0.5
857 34 0.409727 0.926605 0.5
6 24 0.357998 0.906224 0.5
518 30 0.349336 0.933225 0.5
323 30 0.458436 0.832036 0.5
826 30 0.43665 0.88543 0.5
677 34 0.441573 0.916172 0.5
487 30 0.500807 0.898928 0.5
122 30 0.46699 0.890273 0.5
728 32 0.505558 0.92937 0.5
569 31 0.546798 0.965461 0.5
905 30 0.569059 0.826913 0.5
982 31 0.607891 0.834101 0.5
242 33 0.532666 0.895333 0.5
366 30 0.602782 0.88626 0.5
915 29 0.581769 0.85573 0.5
745 32 0.5363 0.866687 0.5
938 27 0.660158 0.893481 0.5
907 29 0.635952 0.879232 0.5
897 31 0.554665 0.917621 0.5
440 34 0.678383 0.966967 0.5
838 27 0.595789 0.918319 0.5
442 32 0.622542 0.907288 0.5
556 30 0.649729 0.923487 0.5
579 29 0.72397 0.961702 0.5
649 33 0.699993 0.985108 0.5
31 27 0.747358 0.97534 0.5
157 31 0.742804 0.939865 0.5
257 32 0.778049 0.956276 0.5
837 31 0.790276 0.910533 0.5
663 31 0.819976 0.00680785 0.5
570 32 0.803873 0.93763 0.5
684 28 0.826901 0.900452 0.5
394 30 0.838382 0.958079 0.5
614 30 0.840772 0.843305 0.5
472 29 0.840706 0.926829 0.5
2 30 0.896116 0.91329 0.5
375 30 0.862655 0.901561 0.5
492 34 0.894221 0.941644 0.5
284 32 0.953134 0.913109 0.5
380 34 0.923137 0.897224 0.5
28 29 0.929768 0.930492 0.5
174 31 0.987419 0.920853 0.5
845 29 0.0538173 0.929318 0.5
92 29 0.0516449 0.902438 0.5
428 29 0.100448 0.978659 0.5
986 30 0.0768345 0.960337 0.5
560 30 0.117331 0.923167 0.5
815 30 0.133499 0.948569 0.5
40 34 0.155807 0.929853 0.5
209 29 0.165522 0.974521 0.5
120 30 0.186263 0.953068 0.5
711 32 0.241242 0.988307 0.5
903 31 0.198612 0.982202 0.5
439 29 0.277056 0.997187 0.5
418 32 0.300731 0.969885 0.5
874 33 0.291459 0.0600839 0.5
662 31 0.311815 0.000380709 0.5
502 28 0.333808 0.980957 0.5
798 32 0.363792 0.964799 0.5
799 29 0.318462 0.0319496 0.5
373 32 0.392131 0.98707 0.5
611 33 0.391774 0.952504 0.5
405 30 0.448134 0.977164 0.5
475 29 0.438024 0.945207 0.5
820 30 0.474783 0.927373 0.5
866 30 0.51435 0.959589 0.5
801 29 0.541654 0.999937 0.5
81 29 0.533771 0.939671 0.5
923 32 0.526574 0.0304052 0.5
908 27 0.596189 0.995803 0.5
941 30 0.568239 0.0123776 0.5
580 29 0.572527 0.888684 0.5
101 29 0.578419 0.970584 0.5
444 32 0.611606 0.948146 0.5
37 30 0.574231 0.0388052 0.5
285 30 0.620523 0.974115 0.5
499 26 0.670977 0.999233 0.5
701 33 0.574827 0.938926 0.5
201 32 0.692068 0.0185214 0.5
957 33 0.761581 0.0338807 0.5
859 34 0.725665 0.998851 0.5
464 30 0.79687 0.0223143 0.5
681 28 0.756419 0.00325576 0.5
637 29 0.782873 0.994372 0.5
207 31 0.80126 0.0500874 0.5
510 32 0.80388 0.9744 0.5
467 31 0.846787 0.0228094 0.5
45 30 0.946261 0.955769 0.5
735 29 0.873171 0.993413 0.5
999 33 0.905209 0.970998 0.5
842 29 0.866842 0.933888 0.5
805 29 0.871192 0.96613 0.5
843 32 0.976721 0.951622 0.5
998 31 0.960688 0.988827 0.5
400 32 0.0065213 0.948898 0.5
