ITEM: TIMESTEP
250000
ITEM: NUMBER OF ATOMS
1000
ITEM: BOX BOUNDS pp pp pp
-1.6508578000000000e+01 1.6508578000000000e+01
-1.6508578000000000e+01 1.6508578000000000e+01
-5.0000000000000000e-01 5.0000000000000000e-01
ITEM: ATOMS id type xs ys zs
140 30 0.0387933 0.0311588 0.5
120 30 0.00751796 0.0182583 0.5
429 29 0.0130766 0.0513859 0.5
124 29 0.0654996 0.00956386 0.5
736 28 0.0716797 0.0412105 0.5
260 30 0.10653 0.0481461 0.5
815 30 0.096104 0.0183974 0.5
837 31 0.127351 0.0251722 0.5
902 30 0.157083 0.0371093 0.5
967 28 0.13512 0.0603867 0.5
823 30 0.180056 0.0152265 0.5
756 30 0.187874 0.0462763 0.5
427 31 0.212525 0.0246241 0.5
376 34 0.220911 0.0577794 0.5
96 30 0.24445 0.0347363 0.5
664 31 0.278177 0.037832 0.5
273 29 0.263876 0.00967051 0.5
621 29 0.29022 -0.00567268 0.5
701 33 0.306865 0.0214078 0.5
841 31 0.311868 0.052755 0.5
296 30 0.344126 0.0566629 0.5
90 34 0.341902 0.0205239 0.5
232 29 0.371131 0.0370553 0.5
434 28 0.408497 0.0226935 0.5
888 29 0.398668 0.0538023 0.5
728 32 0.380878 0.0033672 0.5
645 31 0.458818 0.0340907 0.5
263 30 0.438576 0.00896627 0.5
497 31 0.47424 0.00492999 0.5
368 31 0.490896 0.0355578 0.5
225 32 0.518355 0.0153649 0.5
251 31 0.529137 0.049018 0.5
988 26 0.559021 0.0329066 0.5
666 31 0.580272 0.00961401 0.5
91 28 0.550311 0.0039789 0.5
637 29 0.590126 0.0399007 0.5
887 31 0.613234 0.0202806 0.5
265 35 0.645428 0.0294811 0.5
963 29 0.619203 0.0531543 0.5
797 31 0.677052 0.0389908 0.5
832 35 0.701709 0.0153013 0.5
393 34 0.669799 0.00397517 0.5
521 31 0.711451 0.0466388 0.5
456 31 0.73449 0.0232127 0.5
529 30 0.759015 0.00249249 0.5
611 33 0.767718 0.0329028 0.5
353 30 0.798678 0.0443954 0.5
377 29 0.793037 0.0126083 0.5
803 31 0.826275 0.0177502 0.5
886 29 0.856323 0.0319531 0.5
310 32 0.849933 -0.00187103 0.5
776 31 0.830897 0.053618 0.5
2 30 0.881083 0.00949106 0.5
762 31 0.887704 0.0418618 0.5
346 30 0.91295 0.0188837 0.5
210 29 0.939848 -0.00156756 0.5
545 34 0.921223 0.0509027 0.5
729 27 0.945938 0.0292431 0.5
202 34 0.979444 0.0404569 0.5
24 30 0.973683 0.00859012 0.5
881 29 0.042823 0.0616427 0.5
369 32 0.0191978 0.0837579 0.5
84 29 0.0520371 0.0941647 0.5
720 30 0.0765953 0.073303 0.5
672 31 0.0822623 0.105445 0.5
293 33 0.109289 0.0820293 0.5
794 31 0.167103 0.0705506 0.5
897 31 0.142181 0.0937175 0.5
196 31 0.117406 0.114408 0.5
935 28 0.174285 0.103988 0.5
87 30 0.196645 0.0809198 0.5
668 27 0.226358 0.0908133 0.5
167 29 0.20568 0.114029 0.5
651 28 0.255095 0.0654107 0.5
144 32 0.285285 0.0746168 0.5
400 32 0.261326 0.0991648 0.5
707 37 0.297149 0.107689 0.5
357 33 0.324598 0.0858323 0.5
458 33 0.330968 0.118075 0.5
581 27 0.356115 0.0957038 0.5
77 26 0.371449 0.0699141 0.5
491 30 0.387163 0.104501 0.5
949 32 0.413053 0.0801552 0.5
452 32 0.431587 0.052781 0.5
348 29 0.44455 0.0904232 0.5
4 31 0.419623 0.113256 0.5
278 32 0.468719 0.0662751 0.5
500 35 0.478418 0.098173 0.5
587 33 0.503191 0.0726174 0.5
593 28 0.511656 0.108897 0.5
72 28 0.560985 0.0631358 0.5
309 32 0.534908 0.0834855 0.5
874 33 0.56777 0.0954902 0.5
384 35 0.594282 0.0730732 0.5
21 31 0.599203 0.106811 0.5
674 29 0.627411 0.0835229 0.5
44 32 0.652888 0.0627863 0.5
980 29 0.660327 0.0957509 0.5
745 32 0.685627 0.0705964 0.5
12 32 0.69277 0.102849 0.5
615 29 0.742935 0.0561727 0.5
806 29 0.721039 0.0790197 0.5
363 28 0.753256 0.0897167 0.5
606 32 0.773149 0.0661699 0.5
418 32 0.806793 0.076203 0.5
6 24 0.782854 0.100833 0.5
923 32 0.811564 0.109935 0.5
27 32 0.83831 0.0873065 0.5
345 31 0.864157 0.0654157 0.5
177 28 0.869986 0.0965517 0.5
244 30 0.895546 0.0751987 0.5
283 33 0.902444 0.10756 0.5
557 33 0.928264 0.0858883 0.5
618 33 0.953174 0.061246 0.5
751 28 0.960533 0.0939188 0.5
652 35 0.986108 0.0741866 0.5
407 29 0.991092 0.106229 0.5
326 36 0.0241122 0.118736 0.5
851 31 0.0591968 0.128785 0.5
405 30 0.0318178 0.150739 0.5
686 30 -0.000695304 0.141919 0.5
336 33 0.00678549 0.173699 0.5
8 28 0.0653378 0.160347 0.5
586 35 0.0903233 0.136455 0.5
687 31 0.0973046 0.167351 0.5
234 32 0.124418 0.14605 0.5
631 30 0.148602 0.125134 0.5
882 33 0.156599 0.158996 0.5
532 30 0.181498 0.13542 0.5
331 29 0.191466 0.169125 0.5
785 32 0.213401 0.145887 0.5
885 28 0.237911 0.123097 0.5
563 33 0.246942 0.156053 0.5
333 30 0.270375 0.130925 0.5
162 31 0.278643 0.163125 0.5
36 33 0.3048 0.141652 0.5
734 31 0.336241 0.15005 0.5
228 29 0.312239 0.176168 0.5
201 32 0.362552 0.127875 0.5
658 33 0.371247 0.15996 0.5
977 33 0.395449 0.136568 0.5
692 29 0.402459 0.170406 0.5
626 32 0.453654 0.123856 0.5
893 30 0.429764 0.144587 0.5
549 30 0.460385 0.154011 0.5
125 30 0.485719 0.132562 0.5
870 30 0.493781 0.162633 0.5
866 30 0.518323 0.141065 0.5
206 31 0.544008 0.118416 0.5
531 29 0.57593 0.129488 0.5
404 31 0.550645 0.152005 0.5
431 31 0.5828 0.15959 0.5
360 25 0.634307 0.116488 0.5
892 27 0.612641 0.13696 0.5
426 27 0.641006 0.145871 0.5
821 29 0.618446 0.169974 0.5
416 32 0.665994 0.127314 0.5
443 29 0.675966 0.158523 0.5
166 30 0.700439 0.137011 0.5
859 34 0.726972 0.113218 0.5
901 33 0.760984 0.121512 0.5
156 28 0.733907 0.147694 0.5
540 32 0.706319 0.171181 0.5
879 32 0.765018 0.157912 0.5
85 27 0.789903 0.136453 0.5
438 29 0.798701 0.169326 0.5
375 30 0.820532 0.142868 0.5
544 29 0.845212 0.119516 0.5
141 31 0.877118 0.12935 0.5
288 33 0.851685 0.154518 0.5
698 27 0.881856 0.167193 0.5
259 26 0.93933 0.11716 0.5
548 33 0.910818 0.140579 0.5
233 29 0.943067 0.15071 0.5
542 31 0.969001 0.130804 0.5
781 30 0.973444 0.162647 0.5
917 34 0.0408688 0.183793 0.5
179 31 0.0531634 0.217459 0.5
792 31 0.0134472 0.205809 0.5
750 31 0.0756319 0.192605 0.5
985 28 0.0845413 0.224229 0.5
22 32 0.107656 0.20262 0.5
541 31 0.129476 0.177505 0.5
616 30 0.166758 0.190701 0.5
929 32 0.14002 0.211879 0.5
534 32 0.173257 0.223061 0.5
786 34 0.225015 0.178173 0.5
848 30 0.199153 0.201691 0.5
783 29 0.232155 0.210428 0.5
51 31 0.209161 0.23319 0.5
965 30 0.257654 0.186297 0.5
620 29 0.262754 0.220482 0.5
690 29 0.288138 0.198219 0.5
709 30 0.295564 0.229953 0.5
665 35 0.346237 0.183733 0.5
875 32 0.32 0.207726 0.5
476 27 0.351462 0.21623 0.5
133 31 0.379714 0.19263 0.5
175 36 0.385182 0.227555 0.5
421 32 0.412691 0.203278 0.5
504 34 0.435723 0.178303 0.5
306 29 0.443164 0.212379 0.5
394 30 0.421338 0.235475 0.5
730 31 0.468413 0.186684 0.5
727 33 0.527497 0.174998 0.5
23 29 0.475903 0.219276 0.5
899 27 0.499419 0.194173 0.5
1000 33 0.507899 0.226335 0.5
17 29 0.534906 0.206822 0.5
157 31 0.558485 0.185492 0.5
101 29 0.565551 0.218104 0.5
176 31 0.591706 0.191158 0.5
478 30 0.597163 0.223635 0.5
383 32 0.624886 0.202395 0.5
952 32 0.650543 0.180615 0.5
277 29 0.656473 0.213658 0.5
165 27 0.681111 0.190858 0.5
679 35 0.687622 0.224513 0.5
566 31 0.740168 0.179475 0.5
829 28 0.716517 0.202131 0.5
47 31 0.746928 0.212753 0.5
343 32 0.774396 0.191225 0.5
39 29 0.779671 0.22393 0.5
519 28 0.805034 0.199941 0.5
973 27 0.828772 0.177837 0.5
983 31 0.836595 0.211736 0.5
553 31 0.85905 0.18734 0.5
723 30 0.868503 0.220126 0.5
962 37 0.915673 0.175118 0.5
911 30 0.890921 0.196888 0.5
713 33 0.924418 0.207302 0.5
191 33 0.8995 0.229999 0.5
512 31 0.949248 0.18433 0.5
428 29 0.9797 0.193992 0.5
791 29 0.957013 0.216509 0.5
555 30 0.986955 0.225168 0.5
764 33 0.0259518 0.237329 0.5
971 26 0.038228 0.270944 0.5
959 29 0.00574039 0.265194 0.5
812 29 0.0581743 0.24826 0.5
628 31 0.0676673 0.281241 0.5
111 30 0.115793 0.235418 0.5
872 34 0.0905939 0.256989 0.5
26 34 0.122218 0.26898 0.5
7 32 0.148725 0.246041 0.5
154 30 0.154942 0.278048 0.5
550 28 0.183144 0.25676 0.5
693 30 0.215457 0.26511 0.5
594 32 0.188013 0.288083 0.5
556 30 0.239896 0.241845 0.5
636 27 0.244621 0.275879 0.5
105 31 0.270514 0.254364 0.5
361 31 0.279123 0.285476 0.5
740 32 0.329302 0.239607 0.5
412 30 0.304726 0.262201 0.5
423 32 0.335668 0.273718 0.5
126 31 0.36059 0.25265 0.5
303 30 0.36988 0.283345 0.5
446 30 0.392505 0.261126 0.5
11 33 0.401667 0.294339 0.5
349 35 0.425901 0.270482 0.5
65 31 0.451295 0.244703 0.5
771 28 0.459262 0.276829 0.5
688 29 0.484309 0.252585 0.5
691 34 0.492951 0.285936 0.5
324 34 0.51685 0.260457 0.5
83 31 0.54213 0.240235 0.5
9 29 0.553058 0.272661 0.5
590 28 0.574203 0.247439 0.5
267 29 0.582571 0.280017 0.5
70 29 0.632447 0.235627 0.5
136 33 0.610279 0.260017 0.5
110 30 0.638672 0.274058 0.5
999 33 0.660517 0.24803 0.5
264 31 0.671054 0.281552 0.5
364 31 0.694694 0.258486 0.5
968 33 0.723043 0.235372 0.5
822 32 0.756467 0.247724 0.5
867 33 0.730615 0.269419 0.5
632 30 0.764976 0.280706 0.5
533 32 0.810732 0.233058 0.5
633 30 0.790032 0.260158 0.5
41 31 0.821062 0.265348 0.5
784 29 0.797276 0.288936 0.5
471 28 0.844099 0.242852 0.5
480 29 0.851085 0.276216 0.5
313 32 0.874777 0.253194 0.5
188 31 0.886021 0.28555 0.5
716 30 0.934577 0.238127 0.5
575 31 0.909938 0.261819 0.5
807 27 0.942305 0.271592 0.5
600 33 0.966159 0.249695 0.5
503 33 0.976421 0.282809 0.5
793 30 0.0108458 0.296455 0.5
748 32 0.0435116 0.30366 0.5
450 28 0.0485768 0.336451 0.5
472 29 0.01638 0.327389 0.5
60 29 0.0982321 0.292653 0.5
524 32 0.0768304 0.314664 0.5
972 30 0.105742 0.32663 0.5
925 27 0.0819661 0.34827 0.5
826 30 0.129218 0.303453 0.5
129 33 0.136822 0.336265 0.5
410 34 0.161521 0.311409 0.5
948 33 0.169597 0.345665 0.5
702 29 0.222198 0.29701 0.5
29 30 0.194311 0.322021 0.5
928 31 0.226585 0.328959 0.5
506 33 0.252843 0.307225 0.5
956 32 0.260467 0.341197 0.5
486 33 0.287074 0.320695 0.5
92 29 0.311513 0.293542 0.5
765 28 0.345641 0.306114 0.5
266 32 0.320786 0.33077 0.5
300 33 0.353465 0.339321 0.5
40 34 0.377992 0.318517 0.5
619 31 0.38474 0.351166 0.5
560 30 0.411019 0.327049 0.5
595 32 0.437168 0.301432 0.5
864 28 0.441755 0.335502 0.5
128 31 0.467936 0.312945 0.5
908 27 0.475461 0.34481 0.5
347 36 0.525864 0.293358 0.5
281 28 0.502823 0.31984 0.5
805 29 0.535528 0.326756 0.5
760 29 0.559742 0.303658 0.5
981 30 0.564078 0.3401 0.5
772 31 0.591456 0.316854 0.5
289 27 0.612234 0.292916 0.5
910 30 0.621619 0.325451 0.5
578 30 0.64863 0.306751 0.5
282 29 0.704266 0.291471 0.5
35 33 0.657892 0.339515 0.5
974 29 0.680715 0.314016 0.5
341 28 0.689651 0.345075 0.5
625 31 0.712541 0.324177 0.5
906 34 0.737061 0.303248 0.5
584 28 0.745218 0.336551 0.5
135 30 0.768216 0.313687 0.5
601 31 0.777109 0.344006 0.5
585 31 0.803752 0.321587 0.5
579 29 0.827707 0.298176 0.5
294 30 0.834581 0.333577 0.5
960 34 0.859821 0.309203 0.5
187 32 0.866712 0.342582 0.5
918 34 0.918931 0.296119 0.5
725 34 0.893789 0.319743 0.5
212 28 0.927035 0.328618 0.5
951 30 0.953019 0.305785 0.5
190 34 0.959979 0.341151 0.5
422 30 0.984362 0.318588 0.5
680 30 0.0256544 0.360165 0.5
145 28 0.0310426 0.39564 0.5
1 29 0.0573989 0.3661 0.5
830 30 0.0639919 0.405514 0.5
833 31 0.11256 0.358033 0.5
465 29 0.0861102 0.381649 0.5
204 32 0.122885 0.390945 0.5
942 28 0.146956 0.368588 0.5
624 28 0.15561 0.401047 0.5
804 30 0.177852 0.376117 0.5
287 33 0.204643 0.35527 0.5
722 32 0.211088 0.388341 0.5
275 31 0.235579 0.365672 0.5
25 31 0.29353 0.355451 0.5
13 31 0.242425 0.398188 0.5
796 29 0.267164 0.374733 0.5
62 30 0.278801 0.409443 0.5
732 30 0.304017 0.386476 0.5
20 32 0.329113 0.363416 0.5
246 32 0.336367 0.397693 0.5
814 31 0.360933 0.37299 0.5
79 33 0.370484 0.405295 0.5
411 31 0.394991 0.382984 0.5
767 34 0.417113 0.359578 0.5
209 29 0.425609 0.393476 0.5
432 30 0.449878 0.365971 0.5
481 30 0.455775 0.397414 0.5
311 29 0.50632 0.350212 0.5
470 30 0.481179 0.376557 0.5
321 31 0.512538 0.385017 0.5
638 37 0.489396 0.410403 0.5
195 33 0.537674 0.361921 0.5
904 32 0.570434 0.371055 0.5
297 30 0.545491 0.395748 0.5
323 30 0.578247 0.405091 0.5
137 32 0.596272 0.349291 0.5
42 35 0.605928 0.383279 0.5
118 29 0.629491 0.355694 0.5
711 32 0.640342 0.391193 0.5
338 30 0.666398 0.370098 0.5
119 30 0.673063 0.400284 0.5
853 26 0.698995 0.377581 0.5
381 31 0.720212 0.355155 0.5
778 28 0.728486 0.390409 0.5
295 32 0.752083 0.368257 0.5
392 30 0.761074 0.399424 0.5
862 28 0.809182 0.35404 0.5
134 32 0.78627 0.376946 0.5
861 32 0.817267 0.387419 0.5
818 28 0.842984 0.366229 0.5
271 30 0.849018 0.398626 0.5
495 31 0.872943 0.377055 0.5
684 28 0.880418 0.406887 0.5
916 28 0.902815 0.352523 0.5
868 34 0.906946 0.384358 0.5
95 31 0.93305 0.361745 0.5
109 35 0.941192 0.394093 0.5
641 30 0.993778 0.350884 0.5
789 29 1.00104 0.381647 0.5
854 29 0.968973 0.373365 0.5
441 30 0.975299 0.407529 0.5
447 33 0.00627019 0.418306 0.5
869 31 0.0398648 0.429289 0.5
718 26 0.046189 0.460518 0.5
696 29 0.0161102 0.453179 0.5
205 29 0.0974688 0.41446 0.5
151 33 0.071544 0.439488 0.5
475 29 0.102398 0.446255 0.5
714 30 0.129923 0.426613 0.5
954 28 0.162726 0.43103 0.5
48 28 0.170594 0.462196 0.5
86 30 0.134677 0.4585 0.5
634 25 0.187355 0.408483 0.5
32 27 0.219064 0.420196 0.5
117 31 0.193363 0.438614 0.5
286 31 0.225608 0.451459 0.5
543 32 0.25095 0.429484 0.5
883 33 0.25839 0.462242 0.5
186 31 0.283234 0.439886 0.5
958 27 0.310216 0.416375 0.5
406 30 0.344172 0.429368 0.5
371 30 0.316786 0.448418 0.5
758 27 0.345527 0.460855 0.5
840 29 0.403405 0.415419 0.5
370 33 0.377352 0.438846 0.5
572 32 0.411159 0.449186 0.5
825 33 0.436569 0.424976 0.5
604 27 0.443808 0.458168 0.5
820 30 0.468638 0.437809 0.5
915 29 0.523739 0.421886 0.5
437 31 0.500363 0.444695 0.5
800 27 0.473913 0.468414 0.5
850 28 0.533249 0.453511 0.5
816 31 0.555932 0.429729 0.5
932 29 0.564919 0.460352 0.5
454 31 0.586688 0.438656 0.5
43 32 0.61417 0.417213 0.5
573 30 0.619758 0.448118 0.5
997 32 0.64725 0.422912 0.5
46 32 0.704422 0.41105 0.5
635 27 0.652093 0.45585 0.5
163 28 0.678165 0.432888 0.5
683 32 0.681913 0.466013 0.5
654 28 0.710883 0.444022 0.5
322 27 0.735839 0.42127 0.5
599 32 0.74077 0.454644 0.5
318 32 0.765352 0.433336 0.5
276 32 0.791701 0.411447 0.5
514 28 0.798551 0.443264 0.5
695 27 0.774492 0.466456 0.5
675 29 0.822129 0.421511 0.5
489 27 0.831712 0.452642 0.5
946 30 0.854747 0.430105 0.5
630 31 0.86117 0.462967 0.5
546 31 0.912695 0.419366 0.5
231 31 0.884976 0.439397 0.5
401 28 0.921248 0.452521 0.5
790 31 0.948013 0.42949 0.5
398 33 0.954153 0.461705 0.5
359 32 0.983348 0.444144 0.5
344 27 0.0520433 0.490018 0.5
913 30 0.0207809 0.485046 0.5
724 34 0.023667 0.519308 0.5
19 30 0.0581596 0.521902 0.5
970 27 0.0767476 0.471353 0.5
116 27 0.108889 0.47575 0.5
460 32 0.0874731 0.504589 0.5
989 32 0.123048 0.503237 0.5
284 32 0.151824 0.486703 0.5
74 32 0.150076 0.52295 0.5
399 32 0.179601 0.504814 0.5
909 29 0.200865 0.474735 0.5
352 29 0.210932 0.50639 0.5
388 29 0.234684 0.484367 0.5
152 32 0.26562 0.494386 0.5
602 28 0.26756 0.526761 0.5
717 30 0.236638 0.525269 0.5
45 30 0.293096 0.474348 0.5
226 31 0.296746 0.50873 0.5
386 33 0.326255 0.491188 0.5
667 29 0.324981 0.525229 0.5
526 30 0.388473 0.473838 0.5
479 26 0.359299 0.486273 0.5
863 29 0.355978 0.517969 0.5
547 32 0.388142 0.507807 0.5
69 32 0.419341 0.481775 0.5
773 26 0.452373 0.489259 0.5
755 28 0.430453 0.510922 0.5
979 32 0.461071 0.520062 0.5
978 27 0.509195 0.473968 0.5
3 32 0.486377 0.498364 0.5
520 31 0.517399 0.510671 0.5
335 32 0.540383 0.48485 0.5
327 31 0.54867 0.518003 0.5
184 29 0.573962 0.495576 0.5
522 33 0.596596 0.470617 0.5
50 31 0.604675 0.503544 0.5
108 32 0.628584 0.480428 0.5
354 32 0.635189 0.51532 0.5
463 29 0.661476 0.490667 0.5
878 31 0.691675 0.502223 0.5
142 31 0.668377 0.523188 0.5
64 31 0.714605 0.477507 0.5
319 30 0.723269 0.508686 0.5
678 30 0.74739 0.486773 0.5
93 35 0.756038 0.519928 0.5
605 28 0.804442 0.473552 0.5
612 29 0.780207 0.497339 0.5
200 32 0.809916 0.510122 0.5
269 31 0.834129 0.4852 0.5
98 32 0.843881 0.517366 0.5
643 29 0.871588 0.496517 0.5
149 29 0.876628 0.527214 0.5
757 34 0.89512 0.473582 0.5
237 32 0.929488 0.486901 0.5
876 31 0.902536 0.507799 0.5
969 30 0.934715 0.520739 0.5
777 29 0.989761 0.474448 0.5
726 30 0.992729 0.505914 0.5
477 31 0.962376 0.493438 0.5
146 28 0.964635 0.523997 0.5
468 29 0.0192567 0.561736 0.5
160 30 0.0500718 0.551688 0.5
342 34 0.0459946 0.584008 0.5
82 32 0.0819649 0.542721 0.5
617 32 0.0783632 0.577268 0.5
320 32 0.112444 0.568109 0.5
10 30 0.118031 0.53546 0.5
15 32 0.142204 0.557351 0.5
739 35 0.166596 0.583343 0.5
639 27 0.175369 0.544328 0.5
576 31 0.206664 0.539659 0.5
53 32 0.20306 0.572546 0.5
640 33 0.23579 0.560594 0.5
417 28 0.267174 0.556864 0.5
235 32 0.257582 0.586939 0.5
627 31 0.292481 0.574892 0.5
99 28 0.294751 0.542401 0.5
222 31 0.320666 0.561803 0.5
735 29 0.349859 0.552468 0.5
391 28 0.346748 0.582889 0.5
198 32 0.379415 0.539881 0.5
535 28 0.375173 0.571372 0.5
59 28 0.407237 0.560497 0.5
189 23 0.409366 0.530962 0.5
268 36 0.437393 0.576277 0.5
304 29 0.436801 0.543184 0.5
292 30 0.465517 0.555793 0.5
337 30 0.491995 0.533034 0.5
562 33 0.524017 0.547015 0.5
993 30 0.496613 0.564593 0.5
49 29 0.581874 0.527881 0.5
482 30 0.555359 0.549772 0.5
30 31 0.562624 0.582042 0.5
782 29 0.588747 0.562875 0.5
373 32 0.612953 0.541681 0.5
185 33 0.646615 0.549155 0.5
570 32 0.626731 0.579879 0.5
496 30 0.699989 0.533331 0.5
302 29 0.65817 0.579307 0.5
123 25 0.677986 0.554786 0.5
697 33 0.707178 0.566259 0.5
955 29 0.732515 0.544039 0.5
285 30 0.739349 0.579531 0.5
810 31 0.762823 0.555697 0.5
474 29 0.787591 0.53239 0.5
254 31 0.793848 0.566989 0.5
88 35 0.818977 0.543342 0.5
236 35 0.830785 0.578596 0.5
240 30 0.853543 0.550998 0.5
889 29 0.862982 0.581162 0.5
308 29 0.906579 0.539395 0.5
839 29 0.892131 0.567332 0.5
539 31 0.932511 0.556975 0.5
827 35 0.994441 0.539521 0.5
801 29 0.988683 0.573201 0.5
435 28 0.96454 0.553614 0.5
224 30 0.955024 0.581816 0.5
610 30 0.0379077 0.616953 0.5
351 31 0.0141704 0.595153 0.5
992 33 0.0038339 0.628398 0.5
554 30 0.0695498 0.609817 0.5
439 29 0.101751 0.601121 0.5
315 30 0.0938068 0.632574 0.5
647 30 0.0626188 0.641398 0.5
552 30 0.133633 0.592467 0.5
567 30 0.125937 0.622958 0.5
127 27 0.159203 0.617036 0.5
387 30 0.149923 0.647245 0.5
220 30 0.224534 0.594791 0.5
257 32 0.182912 0.638571 0.5
419 32 0.192795 0.606497 0.5
5 32 0.219319 0.627304 0.5
449 29 0.250986 0.618327 0.5
670 32 0.285637 0.6062 0.5
731 32 0.277736 0.639396 0.5
507 30 0.316224 0.594539 0.5
657 28 0.310587 0.627654 0.5
941 30 0.338898 0.616206 0.5
390 31 0.401166 0.591844 0.5
937 31 0.36585 0.636719 0.5
291 29 0.36996 0.603401 0.5
362 31 0.396056 0.627492 0.5
817 33 0.429084 0.612669 0.5
192 33 0.455913 0.635881 0.5
877 30 0.460793 0.602057 0.5
153 33 0.529244 0.583276 0.5
366 30 0.488838 0.629454 0.5
139 30 0.492252 0.595698 0.5
609 30 0.521588 0.616548 0.5
774 32 0.554503 0.61358 0.5
741 32 0.581664 0.634525 0.5
708 29 0.546657 0.645008 0.5
669 34 0.592445 0.597217 0.5
843 32 0.645137 0.610014 0.5
147 30 0.613319 0.623506 0.5
681 28 0.638213 0.642849 0.5
314 31 0.669345 0.634542 0.5
221 27 0.676888 0.603274 0.5
558 31 0.700716 0.629353 0.5
759 33 0.710181 0.598254 0.5
299 28 0.737987 0.613806 0.5
219 29 0.760642 0.638235 0.5
880 34 0.770615 0.602372 0.5
56 29 0.802498 0.596794 0.5
501 32 0.794251 0.632814 0.5
613 29 0.826478 0.621119 0.5
510 32 0.858237 0.613092 0.5
238 28 0.852148 0.64617 0.5
396 31 0.884211 0.633905 0.5
223 26 0.921337 0.591351 0.5
515 30 0.887986 0.600776 0.5
161 29 0.916753 0.62281 0.5
194 31 0.950956 0.614855 0.5
747 28 0.980699 0.603819 0.5
433 28 0.973696 0.638351 0.5
865 27 0.0276228 0.651144 0.5
828 30 0.0233486 0.682659 0.5
261 33 0.0529833 0.67393 0.5
213 31 0.0855899 0.66539 0.5
61 31 0.079632 0.699917 0.5
459 33 0.112452 0.68865 0.5
775 32 0.117211 0.655318 0.5
131 29 0.144891 0.681771 0.5
907 29 0.171302 0.702465 0.5
316 34 0.17522 0.670991 0.5
330 29 0.211078 0.658834 0.5
659 32 0.201985 0.691406 0.5
984 31 0.234619 0.681884 0.5
860 30 0.242596 0.649964 0.5
230 31 0.265705 0.669993 0.5
623 33 0.26044 0.703063 0.5
148 32 0.294001 0.691718 0.5
525 29 0.334957 0.649352 0.5
150 34 0.302056 0.658221 0.5
831 30 0.326319 0.681225 0.5
890 32 0.358833 0.672544 0.5
523 27 0.392104 0.659593 0.5
798 32 0.387289 0.689857 0.5
78 26 0.418498 0.681648 0.5
537 29 0.422277 0.646842 0.5
444 32 0.449843 0.669363 0.5
355 31 0.475386 0.691034 0.5
102 27 0.480374 0.660602 0.5
395 29 0.514952 0.649413 0.5
159 32 0.505955 0.681612 0.5
253 30 0.539048 0.675898 0.5
340 27 0.561701 0.69797 0.5
453 28 0.569797 0.668951 0.5
836 30 0.596329 0.68693 0.5
746 28 0.60639 0.65702 0.5
415 28 0.629034 0.676289 0.5
945 32 0.660029 0.667545 0.5
975 29 0.693279 0.659538 0.5
55 29 0.684751 0.689867 0.5
527 30 0.654692 0.700572 0.5
334 32 0.727001 0.64841 0.5
842 29 0.717783 0.680615 0.5
183 29 0.752639 0.670157 0.5
689 30 0.818814 0.654775 0.5
780 30 0.779577 0.693004 0.5
931 30 0.786483 0.662394 0.5
436 31 0.811067 0.687226 0.5
113 32 0.843517 0.677071 0.5
34 31 0.868404 0.701349 0.5
905 30 0.878851 0.666196 0.5
873 31 0.911963 0.657096 0.5
943 36 0.903861 0.690181 0.5
248 28 0.935848 0.679783 0.5
518 30 0.941778 0.644969 0.5
207 31 0.997364 0.662568 0.5
642 31 0.9921 0.695426 0.5
894 29 0.964093 0.668805 0.5
38 30 0.959239 0.701809 0.5
710 33 0.0466399 0.708219 0.5
565 29 0.0408575 0.741717 0.5
538 32 0.015913 0.718697 0.5
505 31 0.00673369 0.749396 0.5
947 32 0.073596 0.733581 0.5
339 33 0.105199 0.723338 0.5
279 31 0.0989776 0.758662 0.5
462 30 0.137236 0.712085 0.5
490 31 0.130505 0.746599 0.5
380 34 0.161098 0.736443 0.5
884 33 0.227276 0.715707 0.5
577 33 0.189967 0.75895 0.5
743 31 0.194652 0.725574 0.5
218 27 0.223447 0.747433 0.5
122 30 0.255398 0.734364 0.5
835 31 0.279127 0.755112 0.5
536 29 0.285584 0.724072 0.5
921 33 0.313416 0.745341 0.5
650 30 0.321336 0.713592 0.5
808 29 0.345028 0.736544 0.5
494 27 0.352507 0.70441 0.5
934 28 0.369515 0.757762 0.5
256 32 0.377789 0.724914 0.5
451 31 0.404692 0.747438 0.5
982 31 0.412494 0.715266 0.5
598 32 0.444075 0.703954 0.5
824 31 0.436501 0.739069 0.5
629 28 0.469108 0.72574 0.5
752 29 0.461487 0.759842 0.5
445 32 0.49251 0.74955 0.5
214 32 0.499709 0.715201 0.5
655 30 0.523395 0.739359 0.5
509 29 0.531684 0.706563 0.5
173 30 0.554006 0.730413 0.5
420 32 0.580568 0.750385 0.5
75 27 0.547328 0.7623 0.5
583 28 0.590928 0.718504 0.5
858 31 0.6213 0.708397 0.5
76 29 0.614509 0.74085 0.5
924 28 0.647741 0.733152 0.5
719 27 0.677912 0.721812 0.5
243 31 0.672312 0.753065 0.5
591 29 0.702472 0.74237 0.5
588 29 0.71152 0.710791 0.5
919 28 0.746162 0.700449 0.5
52 33 0.734945 0.735069 0.5
182 31 0.761336 0.757921 0.5
258 34 0.768739 0.72467 0.5
622 30 0.801946 0.717633 0.5
397 31 0.793465 0.751009 0.5
502 28 0.826627 0.743589 0.5
922 33 0.83504 0.710876 0.5
89 30 0.857185 0.735622 0.5
656 27 0.852918 0.764654 0.5
33 30 0.883718 0.756412 0.5
262 31 0.927944 0.713976 0.5
164 32 0.894191 0.723327 0.5
987 32 0.920379 0.745247 0.5
328 27 0.954077 0.7336 0.5
172 26 0.984151 0.726937 0.5
461 31 0.974728 0.758834 0.5
466 35 0.0324645 0.773749 0.5
891 32 0.0267999 0.805595 0.5
197 30 -0.000149835 0.783861 0.5
721 29 0.0668265 0.765119 0.5
516 34 0.0612903 0.79936 0.5
215 29 0.0930322 0.790305 0.5
455 31 0.117945 0.814458 0.5
37 30 0.0870619 0.823139 0.5
80 30 0.125716 0.782004 0.5
255 30 0.156733 0.769887 0.5
819 30 0.15155 0.802953 0.5
180 31 0.184549 0.791267 0.5
168 33 0.217331 0.780037 0.5
738 31 0.210006 0.812205 0.5
374 32 0.242195 0.802949 0.5
852 32 0.249724 0.770711 0.5
592 28 0.276543 0.789283 0.5
673 29 0.266365 0.822969 0.5
71 32 0.299211 0.811928 0.5
409 30 0.339005 0.768854 0.5
58 29 0.30642 0.778181 0.5
473 31 0.330608 0.801774 0.5
844 31 0.362636 0.790163 0.5
682 33 0.394704 0.780568 0.5
649 33 0.386419 0.814324 0.5
467 31 0.420076 0.802776 0.5
31 27 0.4277 0.770527 0.5
430 32 0.453504 0.790607 0.5
178 27 0.476458 0.815107 0.5
898 29 0.485604 0.784411 0.5
704 32 0.51655 0.772284 0.5
107 30 0.511194 0.806054 0.5
301 33 0.543018 0.795903 0.5
749 29 0.575044 0.782469 0.5
305 30 0.568874 0.81523 0.5
926 32 0.637886 0.761819 0.5
744 32 0.600118 0.802796 0.5
250 30 0.606426 0.77331 0.5
715 27 0.631796 0.794082 0.5
241 32 0.664567 0.784699 0.5
484 32 0.69849 0.777917 0.5
158 32 0.690496 0.810099 0.5
483 29 0.730138 0.768567 0.5
703 30 0.722816 0.799573 0.5
990 34 0.756182 0.79114 0.5
895 30 0.820924 0.774132 0.5
660 29 0.789182 0.783861 0.5
940 29 0.812555 0.80526 0.5
857 34 0.780738 0.81539 0.5
332 29 0.847252 0.79666 0.5
378 31 0.878074 0.787129 0.5
663 31 0.870555 0.820688 0.5
998 31 0.942027 0.769418 0.5
242 33 0.904132 0.810565 0.5
846 32 0.909821 0.777588 0.5
920 30 0.935326 0.802631 0.5
498 30 0.996465 0.817489 0.5
67 30 0.968593 0.791398 0.5
694 31 0.0535866 0.833953 0.5
290 31 0.044571 0.866424 0.5
754 31 0.0219752 0.83935 0.5
770 35 0.0125598 0.875058 0.5
813 30 0.0795461 0.855667 0.5
442 32 0.104305 0.879346 0.5
903 31 0.111831 0.846739 0.5
811 29 0.177865 0.823016 0.5
81 29 0.138162 0.864545 0.5
247 28 0.147957 0.835462 0.5
193 29 0.1737 0.856115 0.5
996 29 0.203625 0.844811 0.5
325 31 0.228818 0.866796 0.5
487 30 0.197354 0.876029 0.5
227 31 0.235469 0.834232 0.5
927 31 0.25924 0.855759 0.5
559 31 0.290482 0.8435 0.5
991 31 0.285065 0.878095 0.5
203 34 0.323896 0.836121 0.5
493 28 0.315201 0.868401 0.5
871 30 0.348524 0.857431 0.5
953 30 0.354726 0.823809 0.5
896 30 0.378424 0.84577 0.5
607 33 0.406061 0.869122 0.5
961 30 0.411594 0.836342 0.5
788 32 0.445879 0.823532 0.5
104 28 0.436273 0.856913 0.5
795 33 0.463181 0.878728 0.5
551 30 0.470723 0.845692 0.5
699 27 0.501275 0.837061 0.5
16 31 0.497313 0.867892 0.5
425 31 0.527777 0.859216 0.5
930 29 0.535655 0.827489 0.5
737 32 0.561675 0.848938 0.5
317 33 0.587346 0.871858 0.5
312 34 0.595831 0.837271 0.5
485 32 0.627834 0.826369 0.5
779 33 0.620556 0.861914 0.5
499 26 0.651063 0.851885 0.5
986 30 0.658584 0.817076 0.5
408 29 0.680261 0.841751 0.5
994 30 0.674301 0.87527 0.5
138 31 0.705341 0.863194 0.5
528 32 0.715471 0.832648 0.5
63 30 0.748884 0.823993 0.5
561 31 0.7382 0.856189 0.5
356 28 0.772657 0.848023 0.5
208 31 0.806143 0.83817 0.5
569 31 0.79582 0.875558 0.5
838 27 0.763998 0.876876 0.5
365 29 0.82702 0.865377 0.5
229 31 0.838811 0.831136 0.5
379 29 0.861675 0.853191 0.5
676 31 0.895789 0.842873 0.5
685 30 0.928588 0.833867 0.5
155 30 0.923852 0.865575 0.5
964 32 0.886608 0.876008 0.5
976 27 0.954775 0.856772 0.5
298 34 0.962501 0.824682 0.5
448 31 0.987892 0.847606 0.5
614 30 0.979031 0.882398 0.5
216 35 0.034662 0.900773 0.5
18 35 0.0199763 0.933827 0.5
245 27 0.0636103 0.920524 0.5
517 33 0.0711965 0.889899 0.5
367 29 0.0951287 0.912051 0.5
385 31 0.0864041 0.944376 0.5
564 29 0.120932 0.931196 0.5
706 31 0.132348 0.898962 0.5
511 33 0.163448 0.888065 0.5
389 34 0.155605 0.92372 0.5
280 34 0.188379 0.911416 0.5
847 33 0.221027 0.900181 0.5
809 29 0.215105 0.932381 0.5
802 32 0.253082 0.889234 0.5
239 32 0.247312 0.921865 0.5
274 29 0.279047 0.911234 0.5
464 30 0.304403 0.932637 0.5
181 31 0.310501 0.899704 0.5
763 32 0.34322 0.891436 0.5
372 29 0.33684 0.923221 0.5
14 30 0.374955 0.878875 0.5
845 29 0.366946 0.913614 0.5
900 28 0.396748 0.903333 0.5
769 30 0.391918 0.934598 0.5
174 31 0.422313 0.924236 0.5
492 34 0.431756 0.892273 0.5
944 30 0.457536 0.912377 0.5
799 29 0.487737 0.900162 0.5
413 29 0.520868 0.893355 0.5
358 29 0.515052 0.924892 0.5
568 31 0.48391 0.934614 0.5
307 31 0.555376 0.882274 0.5
57 31 0.54499 0.916078 0.5
103 31 0.576827 0.905756 0.5
761 30 0.571305 0.937724 0.5
211 26 0.643581 0.885846 0.5
677 34 0.611452 0.894089 0.5
603 30 0.603849 0.927038 0.5
100 32 0.635014 0.918828 0.5
653 28 0.700018 0.896837 0.5
644 30 0.666926 0.906416 0.5
768 31 0.693746 0.933559 0.5
938 27 0.725203 0.920709 0.5
270 31 0.731339 0.888663 0.5
68 31 0.756382 0.909508 0.5
574 27 0.748136 0.939971 0.5
939 33 0.822634 0.897052 0.5
933 30 0.788561 0.906165 0.5
249 32 0.813576 0.927873 0.5
589 28 0.853158 0.883229 0.5
700 29 0.8454 0.924386 0.5
170 32 0.874425 0.906978 0.5
350 25 0.904087 0.924605 0.5
766 30 0.914503 0.894762 0.5
143 30 0.935776 0.923226 0.5
712 30 0.947352 0.891011 0.5
513 29 0.998144 0.90679 0.5
97 27 0.9685 0.913836 0.5
130 30 0.0347664 0.99988 0.5
488 29 0.0485317 0.947477 0.5
66 31 0.0238691 0.968014 0.5
596 29 0.0561407 0.977154 0.5
787 29 -0.00337508 0.987962 0.5
54 30 0.0870614 0.983181 0.5
403 28 0.113402 0.960582 0.5
597 28 0.118383 0.99164 0.5
171 32 0.150662 1.00162 0.5
469 33 0.146572 0.959631 0.5
966 28 0.174205 0.977739 0.5
28 29 0.203821 0.993896 0.5
169 27 0.181355 0.945839 0.5
132 31 0.208984 0.963022 0.5
995 28 0.237112 0.992938 0.5
608 30 0.240924 0.956278 0.5
414 32 0.272195 0.943524 0.5
856 29 0.265059 0.976483 0.5
671 28 0.297277 0.963611 0.5
73 31 0.327474 0.957179 0.5
753 31 0.322624 0.991035 0.5
957 33 0.360291 0.946989 0.5
440 34 0.354204 0.981871 0.5
646 29 0.38589 0.969585 0.5
114 28 0.411366 0.992322 0.5
402 33 0.418061 0.957264 0.5
457 33 0.452293 0.946281 0.5
914 28 0.445619 0.978233 0.5
834 31 0.476483 0.969256 0.5
112 28 0.501561 0.987336 0.5
950 31 0.509762 0.956614 0.5
424 27 0.532518 0.980067 0.5
582 30 0.541089 0.949086 0.5
121 31 0.563894 0.974886 0.5
580 29 0.635608 0.996229 0.5
508 29 0.596389 0.958842 0.5
94 28 0.605468 0.988327 0.5
217 31 0.630106 0.953217 0.5
530 30 0.660038 0.939118 0.5
742 31 0.658196 0.971898 0.5
912 34 0.69276 0.976252 0.5
571 36 0.718869 0.955288 0.5
329 32 0.72594 0.990326 0.5
855 31 0.754125 0.969903 0.5
382 33 0.78068 0.940964 0.5
106 26 0.785101 0.979089 0.5
115 27 0.810325 0.958179 0.5
661 30 0.814609 0.988003 0.5
272 33 0.874864 0.941023 0.5
733 33 0.843981 0.958765 0.5
849 32 0.874697 0.975392 0.5
705 30 0.904695 0.955727 0.5
648 28 0.908013 0.987835 0.5
936 28 0.935123 0.966263 0.5
662 31 0.96028 0.945311 0.5
199 33 0.966689 0.977591 0.5
252 32 0.991597 0.955631 0.5
