ITEM: TIMESTEP
250000
ITEM: NUMBER OF ATOMS
1000
ITEM: BOX BOUNDS pp pp pp
-1.6590344000000002e+01 1.6590344000000002e+01
-1.6590344000000002e+01 1.6590344000000002e+01
-5.0000000000000000e-01 5.0000000000000000e-01
ITEM: ATOMS id type xs ys zs
542 32 0.029243 0.0402397 0.5
750 33 0.0523261 0.010108 0.5
564 26 0.0199908 0.00981816 0.5
405 28 0.0545719 0.0546413 0.5
84 27 0.0762529 0.0335673 0.5
259 19 0.105412 0.033805 0.5
54 29 0.137744 0.038642 0.5
273 28 0.154948 0.0106211 0.5
823 28 0.123865 0.00958575 0.5
837 33 0.170253 0.0402241 0.5
673 27 0.202323 0.0400802 0.5
802 35 0.222809 0.0140613 0.5
596 27 0.187902 0.0118727 0.5
756 28 0.236657 0.0459383 0.5
96 30 0.25553 0.0204492 0.5
263 29 0.272247 0.0456287 0.5
949 34 0.300574 0.0242062 0.5
734 32 0.331762 0.0355441 0.5
664 32 0.336847 0.00233881 0.5
144 34 0.363055 0.0212756 0.5
114 25 0.389299 0.0411953 0.5
409 30 0.392743 0.00846847 0.5
497 32 0.419495 0.0295089 0.5
402 38 0.447667 0.0503145 0.5
4 33 0.450595 0.0152705 0.5
666 33 0.479559 0.0330436 0.5
658 36 0.484848 0.000126092 0.5
566 31 0.512818 0.0213325 0.5
44 33 0.539652 0.0437282 0.5
225 35 0.542892 0.00998557 0.5
582 28 0.568163 0.028818 0.5
892 22 0.597302 0.018204 0.5
317 37 0.576377 -0.00319571 0.5
540 35 0.625498 0.0331491 0.5
94 24 0.641422 0.00662349 0.5
12 35 0.66484 0.0283321 0.5
356 24 0.699352 0.0165119 0.5
879 34 0.697976 0.0484382 0.5
797 31 0.726274 0.0291933 0.5
653 24 0.756368 0.0374586 0.5
859 40 0.750951 0.00178314 0.5
806 27 0.783824 0.0293723 0.5
762 33 0.814854 0.0229508 0.5
901 37 0.803326 0.0568969 0.5
923 34 0.837666 0.0511794 0.5
202 39 0.880656 0.038891 0.5
27 33 0.849606 0.0184588 0.5
886 28 0.915993 0.0445571 0.5
729 22 0.937387 0.024642 0.5
636 22 0.94175 0.0533412 0.5
614 29 0.907831 0.0141026 0.5
751 24 0.993042 0.0186854 0.5
897 31 0.995921 0.0510655 0.5
407 26 0.967914 0.0364229 0.5
171 34 0.0271546 0.0766777 0.5
781 29 0.0082235 0.107659 0.5
881 26 -0.00350512 0.0802893 0.5
967 24 0.0851237 0.0607288 0.5
628 31 0.0638105 0.0844792 0.5
120 30 0.0985675 0.0880751 0.5
848 28 0.118613 0.0634609 0.5
555 30 0.150442 0.067709 0.5
403 25 0.132114 0.0927271 0.5
331 26 0.165113 0.0968015 0.5
785 33 0.18442 0.0700168 0.5
429 27 0.197528 0.101171 0.5
293 36 0.219534 0.0734714 0.5
556 29 0.229578 0.104768 0.5
966 24 0.252493 0.07305 0.5
707 46 0.268494 0.110478 0.5
671 25 0.304384 0.0576705 0.5
651 24 0.280021 0.074828 0.5
368 33 0.304968 0.0936684 0.5
607 38 0.332761 0.0724323 0.5
834 31 0.361031 0.0558763 0.5
645 33 0.363392 0.0927128 0.5
761 29 0.389997 0.0724735 0.5
72 25 0.415356 0.0590802 0.5
950 32 0.423875 0.0897879 0.5
434 24 0.454372 0.0830396 0.5
531 26 0.475082 0.0641421 0.5
988 18 0.477278 0.101171 0.5
176 33 0.508126 0.0552192 0.5
864 24 0.499114 0.0852981 0.5
500 42 0.533141 0.0802275 0.5
443 28 0.596934 0.0481081 0.5
348 27 0.568071 0.0609464 0.5
100 33 0.56764 0.0915027 0.5
91 24 0.595076 0.0761559 0.5
829 24 0.649258 0.0541352 0.5
952 34 0.618524 0.0993916 0.5
963 26 0.623456 0.0661919 0.5
983 32 0.64937 0.0864057 0.5
165 22 0.673325 0.0689073 0.5
166 30 0.678537 0.0995458 0.5
418 34 0.705551 0.0824437 0.5
557 38 0.732898 0.0628351 0.5
177 24 0.734458 0.0948403 0.5
611 37 0.767937 0.0682634 0.5
270 32 0.76741 0.103579 0.5
85 22 0.795938 0.0887709 0.5
661 30 0.823751 0.11261 0.5
97 22 0.824284 0.0819891 0.5
662 32 0.865406 0.0703872 0.5
698 20 0.848185 0.0938724 0.5
686 30 0.877454 0.100541 0.5
770 42 0.901357 0.0740409 0.5
803 31 0.915325 0.113076 0.5
618 36 0.939726 0.0861715 0.5
130 28 0.967437 0.0669348 0.5
233 27 0.970815 0.0976028 0.5
929 34 0.0405136 0.108904 0.5
792 31 0.0216487 0.138231 0.5
26 40 -0.00493186 0.165543 0.5
2 28 0.0538971 0.142491 0.5
786 39 0.0760821 0.116611 0.5
951 29 0.0919067 0.146019 0.5
162 32 0.112301 0.118014 0.5
902 30 0.144937 0.120668 0.5
812 27 0.125892 0.146744 0.5
720 28 0.156731 0.149886 0.5
965 29 0.176936 0.123758 0.5
427 31 0.20995 0.130276 0.5
885 24 0.18662 0.152258 0.5
815 30 0.219917 0.1576 0.5
690 26 0.240759 0.134043 0.5
794 31 0.270149 0.148975 0.5
73 31 0.335313 0.109353 0.5
728 34 0.303165 0.127892 0.5
740 34 0.303398 0.164568 0.5
36 37 0.334584 0.147463 0.5
665 42 0.366907 0.129325 0.5
232 27 0.39486 0.108867 0.5
333 30 0.395612 0.146593 0.5
112 25 0.420118 0.128412 0.5
674 27 0.420367 0.162386 0.5
309 34 0.44775 0.113576 0.5
549 30 0.450425 0.146399 0.5
21 31 0.477902 0.130026 0.5
587 36 0.483798 0.165581 0.5
626 35 0.509559 0.115769 0.5
424 22 0.510317 0.146497 0.5
265 42 0.545431 0.119586 0.5
476 21 0.536856 0.156972 0.5
529 28 0.564228 0.149604 0.5
679 43 0.58591 0.122446 0.5
267 26 0.594468 0.156676 0.5
217 32 0.621864 0.13531 0.5
521 32 0.64948 0.117408 0.5
980 28 0.65182 0.149778 0.5
606 34 0.710874 0.117031 0.5
264 31 0.67935 0.131134 0.5
289 22 0.704269 0.146943 0.5
574 21 0.742207 0.12128 0.5
652 42 0.738502 0.153762 0.5
353 29 0.76957 0.136112 0.5
363 25 0.794987 0.119569 0.5
533 35 0.800749 0.150286 0.5
973 21 0.831379 0.141521 0.5
428 28 0.853827 0.121802 0.5
41 31 0.860338 0.152895 0.5
807 22 0.889001 0.158825 0.5
345 32 0.887288 0.131762 0.5
962 48 0.922941 0.150483 0.5
288 36 0.947196 0.120746 0.5
503 38 0.98372 0.128501 0.5
336 36 0.96008 0.157641 0.5
244 29 0.0321242 0.168214 0.5
313 33 0.0457103 0.197822 0.5
713 37 0.00968324 0.197406 0.5
534 34 0.070708 0.171892 0.5
111 28 0.102735 0.176012 0.5
326 44 0.083198 0.207747 0.5
179 31 0.119989 0.203475 0.5
92 27 0.134699 0.174036 0.5
882 36 0.151543 0.209679 0.5
140 30 0.170845 0.17985 0.5
201 34 0.203849 0.184315 0.5
458 37 0.188659 0.21606 0.5
563 36 0.224473 0.21386 0.5
709 30 0.23748 0.18334 0.5
532 28 0.259526 0.208204 0.5
888 28 0.273278 0.179712 0.5
361 33 0.332449 0.182019 0.5
175 44 0.300322 0.203246 0.5
668 22 0.334385 0.211163 0.5
296 30 0.365395 0.165935 0.5
504 40 0.364206 0.201671 0.5
491 29 0.394476 0.181498 0.5
275 32 0.401991 0.212806 0.5
581 23 0.421623 0.191604 0.5
875 34 0.451662 0.179151 0.5
384 43 0.444263 0.215807 0.5
619 32 0.478992 0.201141 0.5
157 32 0.511862 0.206737 0.5
17 27 0.514218 0.174519 0.5
251 32 0.541703 0.189523 0.5
426 22 0.572987 0.177928 0.5
421 34 0.571493 0.208417 0.5
9 27 0.600676 0.189107 0.5
821 26 0.62333 0.1684 0.5
590 24 0.629106 0.206362 0.5
136 38 0.654194 0.183751 0.5
156 24 0.679025 0.161932 0.5
137 33 0.687414 0.193034 0.5
519 23 0.711081 0.173379 0.5
438 27 0.713628 0.20764 0.5
716 30 0.770559 0.16844 0.5
277 26 0.740852 0.187353 0.5
544 28 0.767361 0.201303 0.5
545 39 0.799696 0.190233 0.5
822 35 0.831424 0.17354 0.5
723 28 0.836011 0.207143 0.5
191 37 0.864279 0.18782 0.5
188 31 0.870256 0.224625 0.5
6 13 0.888417 0.205225 0.5
575 33 0.904317 0.183106 0.5
959 27 0.92228 0.209083 0.5
480 25 0.94019 0.184022 0.5
196 31 0.953153 0.217375 0.5
631 30 0.971679 0.19025 0.5
826 30 0.985645 0.222616 0.5
60 26 0.0243303 0.226197 0.5
971 19 0.0527855 0.226713 0.5
447 37 0.037197 0.257476 0.5
450 23 0.0623722 0.276865 0.5
154 28 0.0746688 0.246643 0.5
22 34 0.0937907 0.272332 0.5
586 43 0.110667 0.239547 0.5
687 33 0.127836 0.272477 0.5
541 33 0.147641 0.244149 0.5
51 31 0.162903 0.276859 0.5
616 29 0.180323 0.248273 0.5
620 27 0.212306 0.244817 0.5
702 27 0.233802 0.268894 0.5
45 28 0.246402 0.241212 0.5
306 27 0.264856 0.265994 0.5
506 37 0.279504 0.235893 0.5
126 32 0.316877 0.236184 0.5
357 37 0.302698 0.268262 0.5
77 19 0.333809 0.26063 0.5
303 28 0.352405 0.235731 0.5
692 28 0.361636 0.265085 0.5
128 31 0.383243 0.239421 0.5
105 31 0.393021 0.271034 0.5
65 31 0.413673 0.245747 0.5
893 30 0.425767 0.277099 0.5
431 31 0.450446 0.252209 0.5
228 27 0.475927 0.233256 0.5
771 25 0.48253 0.263441 0.5
133 32 0.507968 0.240214 0.5
383 36 0.541599 0.225724 0.5
1000 36 0.513843 0.274262 0.5
478 29 0.545173 0.259338 0.5
125 30 0.601476 0.222204 0.5
866 28 0.573448 0.241211 0.5
118 26 0.573511 0.271431 0.5
278 33 0.603086 0.255398 0.5
887 33 0.631759 0.237193 0.5
101 27 0.636248 0.267996 0.5
70 27 0.661206 0.250137 0.5
910 30 0.659517 0.217669 0.5
760 26 0.691178 0.228588 0.5
364 33 0.691552 0.261974 0.5
911 29 0.741759 0.218844 0.5
39 26 0.7189 0.238414 0.5
999 37 0.723241 0.27757 0.5
375 30 0.747348 0.252667 0.5
578 29 0.773175 0.232025 0.5
471 24 0.778265 0.259908 0.5
141 33 0.808186 0.227999 0.5
283 37 0.811705 0.264235 0.5
585 32 0.839824 0.237982 0.5
960 41 0.848623 0.273145 0.5
818 25 0.879126 0.253603 0.5
294 29 0.900594 0.233158 0.5
187 33 0.908286 0.2665 0.5
135 29 0.929442 0.241862 0.5
869 32 0.940431 0.274884 0.5
524 34 1.00121 0.251645 0.5
600 36 0.963773 0.249268 0.5
972 29 0.00820848 0.285249 0.5
748 35 0.0210675 0.322423 0.5
472 26 0.0403157 0.29359 0.5
234 34 0.056934 0.321555 0.5
344 20 0.0787062 0.298702 0.5
151 38 0.0938578 0.327085 0.5
465 27 0.110092 0.300032 0.5
783 26 0.144034 0.302226 0.5
925 22 0.126784 0.32471 0.5
641 29 0.156727 0.332408 0.5
410 41 0.197571 0.279226 0.5
985 24 0.174504 0.305896 0.5
40 40 0.221496 0.308397 0.5
412 29 0.253199 0.295194 0.5
593 24 0.249594 0.326819 0.5
765 23 0.281934 0.291323 0.5
349 41 0.283071 0.325309 0.5
693 28 0.311781 0.301749 0.5
928 33 0.32175 0.336761 0.5
406 30 0.339111 0.287989 0.5
958 22 0.348839 0.316045 0.5
62 28 0.369618 0.2943 0.5
595 36 0.379628 0.327357 0.5
814 31 0.402434 0.3013 0.5
688 26 0.43488 0.306331 0.5
730 32 0.459008 0.284482 0.5
281 25 0.46351 0.314133 0.5
23 27 0.489042 0.296305 0.5
691 39 0.489935 0.330888 0.5
404 31 0.545949 0.289882 0.5
206 32 0.518668 0.309115 0.5
727 36 0.551056 0.324553 0.5
43 35 0.580091 0.304694 0.5
47 31 0.611326 0.288247 0.5
392 30 0.609152 0.32176 0.5
772 33 0.637715 0.304566 0.5
553 32 0.664636 0.283022 0.5
282 27 0.669266 0.314111 0.5
381 32 0.698201 0.299889 0.5
110 30 0.694376 0.332139 0.5
269 32 0.732181 0.311523 0.5
625 32 0.755825 0.28464 0.5
343 34 0.766826 0.317384 0.5
784 28 0.787515 0.28903 0.5
633 30 0.799611 0.322302 0.5
271 30 0.819284 0.296943 0.5
916 25 0.832402 0.326565 0.5
793 28 0.880613 0.286734 0.5
632 30 0.856655 0.307986 0.5
725 39 0.888201 0.321623 0.5
601 31 0.917518 0.299359 0.5
862 24 0.980414 0.275459 0.5
764 37 0.95136 0.307157 0.5
512 31 0.985949 0.30879 0.5
696 27 0.0347878 0.351504 0.5
359 34 0.0088512 0.372256 0.5
854 28 0.0466287 0.378835 0.5
422 30 0.0662376 0.353996 0.5
680 29 0.0786066 0.385002 0.5
8 25 0.0978455 0.360642 0.5
475 26 0.109935 0.390098 0.5
833 33 0.13051 0.355218 0.5
116 22 0.166845 0.360377 0.5
948 37 0.193181 0.335248 0.5
594 33 0.198259 0.37102 0.5
543 34 0.226323 0.347906 0.5
7 35 0.234335 0.380387 0.5
956 33 0.260175 0.355613 0.5
883 36 0.269551 0.387321 0.5
423 34 0.294415 0.360546 0.5
11 38 0.3281 0.375418 0.5
117 31 0.353853 0.350421 0.5
479 20 0.362698 0.383603 0.5
767 40 0.41557 0.334671 0.5
266 35 0.388755 0.362035 0.5
79 38 0.42298 0.374241 0.5
470 29 0.454748 0.386042 0.5
347 45 0.454032 0.349936 0.5
820 29 0.486424 0.365915 0.5
805 27 0.523043 0.342657 0.5
42 41 0.521054 0.377623 0.5
870 30 0.550985 0.358105 0.5
83 31 0.583623 0.339244 0.5
522 36 0.580666 0.371757 0.5
584 25 0.60887 0.357482 0.5
908 20 0.61213 0.388725 0.5
46 34 0.637019 0.339791 0.5
654 24 0.632877 0.370799 0.5
311 27 0.661761 0.376625 0.5
981 29 0.66794 0.345686 0.5
35 38 0.695921 0.366376 0.5
974 25 0.721961 0.341722 0.5
711 34 0.733068 0.370619 0.5
338 28 0.750609 0.344627 0.5
341 25 0.766333 0.380029 0.5
968 38 0.784555 0.350627 0.5
119 28 0.81896 0.35029 0.5
867 37 0.798849 0.386418 0.5
318 36 0.838205 0.376536 0.5
861 35 0.857968 0.346006 0.5
777 26 0.871117 0.378473 0.5
791 26 0.892629 0.35347 0.5
109 43 0.925402 0.335253 0.5
514 25 0.905114 0.381846 0.5
724 41 0.940909 0.373189 0.5
95 32 0.961364 0.34013 0.5
579 27 0.99467 0.342844 0.5
789 28 0.97724 0.374039 0.5
617 33 0.0249497 0.402226 0.5
970 22 0.0362867 0.431212 0.5
684 25 0.00720347 0.428016 0.5
790 32 0.0583975 0.41014 0.5
804 29 0.0672542 0.440121 0.5
399 34 0.0912529 0.41537 0.5
194 31 0.0996304 0.447575 0.5
872 39 0.143737 0.388004 0.5
576 33 0.124122 0.41972 0.5
714 29 0.155045 0.426006 0.5
129 37 0.178003 0.401034 0.5
550 24 0.186908 0.438523 0.5
722 33 0.211295 0.403953 0.5
287 36 0.21949 0.439359 0.5
486 38 0.246198 0.415658 0.5
449 26 0.281576 0.419924 0.5
526 30 0.301529 0.394447 0.5
235 36 0.315438 0.426426 0.5
796 26 0.341488 0.407206 0.5
732 28 0.350152 0.440111 0.5
20 35 0.372215 0.416577 0.5
291 27 0.378377 0.450094 0.5
446 28 0.399203 0.397229 0.5
371 29 0.402247 0.428654 0.5
432 29 0.431217 0.407039 0.5
246 33 0.433178 0.438648 0.5
324 39 0.488536 0.398961 0.5
840 25 0.458703 0.416809 0.5
560 28 0.496732 0.432829 0.5
454 32 0.522455 0.413156 0.5
297 30 0.527392 0.445538 0.5
899 22 0.550939 0.391246 0.5
185 37 0.55566 0.424674 0.5
816 32 0.584665 0.405582 0.5
163 25 0.588469 0.438487 0.5
496 30 0.614682 0.418974 0.5
573 30 0.64077 0.398779 0.5
904 34 0.651091 0.432565 0.5
599 33 0.672641 0.406109 0.5
678 30 0.692008 0.432967 0.5
997 35 0.70745 0.398441 0.5
322 22 0.724543 0.427425 0.5
64 31 0.74341 0.402759 0.5
254 33 0.753547 0.439183 0.5
546 32 0.775 0.41249 0.5
778 24 0.804043 0.418145 0.5
612 27 0.785891 0.443055 0.5
853 18 0.826247 0.401559 0.5
918 40 0.833749 0.43613 0.5
295 33 0.8553 0.407253 0.5
489 21 0.868004 0.436091 0.5
946 30 0.887457 0.40761 0.5
398 38 0.923004 0.409242 0.5
495 33 0.90086 0.438545 0.5
913 29 0.938283 0.439058 0.5
212 24 0.992205 0.402238 0.5
906 39 0.959533 0.405316 0.5
401 24 0.014957 0.454894 0.5
48 25 0.0241973 0.486914 0.5
74 35 0.0461873 0.464229 0.5
204 34 0.0566198 0.497328 0.5
10 29 0.078715 0.470857 0.5
186 32 0.111105 0.480242 0.5
830 29 0.130671 0.453116 0.5
942 25 0.144939 0.484808 0.5
441 30 0.163694 0.45764 0.5
640 37 0.178195 0.490675 0.5
29 29 0.201074 0.466629 0.5
286 31 0.255128 0.448655 0.5
460 35 0.233882 0.474499 0.5
152 34 0.266623 0.486019 0.5
284 35 0.289224 0.45402 0.5
122 30 0.298527 0.488631 0.5
226 31 0.32266 0.462546 0.5
547 33 0.330518 0.495069 0.5
507 29 0.353889 0.472014 0.5
32 21 0.361239 0.50431 0.5
220 30 0.384073 0.482447 0.5
13 31 0.40875 0.46075 0.5
69 35 0.417214 0.493535 0.5
758 21 0.444312 0.466617 0.5
394 29 0.46724 0.44646 0.5
604 21 0.475605 0.476766 0.5
323 30 0.500586 0.461496 0.5
209 26 0.502457 0.491761 0.5
850 23 0.53027 0.476072 0.5
411 31 0.558331 0.457741 0.5
800 22 0.558451 0.48796 0.5
195 37 0.587344 0.474463 0.5
108 33 0.616532 0.451957 0.5
474 28 0.621158 0.486224 0.5
123 17 0.646769 0.462246 0.5
774 34 0.653229 0.489301 0.5
334 33 0.677092 0.461947 0.5
683 34 0.710932 0.458737 0.5
843 35 0.689329 0.495842 0.5
142 31 0.722414 0.492962 0.5
605 24 0.74126 0.468632 0.5
319 29 0.755018 0.495593 0.5
675 27 0.770586 0.467625 0.5
134 34 0.809288 0.467155 0.5
643 27 0.824878 0.494998 0.5
93 43 0.850705 0.470504 0.5
435 23 0.883121 0.463278 0.5
231 32 0.881827 0.493409 0.5
827 41 0.916458 0.473105 0.5
190 40 0.975128 0.440497 0.5
1 25 0.940204 0.498685 0.5
477 31 0.954188 0.470818 0.5
624 23 0.987193 0.472643 0.5
865 21 0.971045 0.493777 0.5
610 30 -0.00263856 0.506586 0.5
19 28 0.0289115 0.515919 0.5
207 31 0.0405225 0.544944 0.5
342 40 -0.001923 0.540007 0.5
145 24 0.0881775 0.500318 0.5
747 23 0.0662093 0.526612 0.5
351 31 0.09523 0.532283 0.5
518 30 0.0710199 0.555734 0.5
300 37 0.123019 0.510967 0.5
352 27 0.124813 0.544294 0.5
739 43 0.157934 0.524876 0.5
127 22 0.208726 0.494963 0.5
909 27 0.194733 0.519896 0.5
554 29 0.183656 0.55011 0.5
222 33 0.217758 0.539399 0.5
386 37 0.241157 0.509801 0.5
634 17 0.254251 0.537357 0.5
559 33 0.277481 0.5183 0.5
657 24 0.309241 0.517053 0.5
417 25 0.300009 0.543196 0.5
863 26 0.322273 0.56157 0.5
198 36 0.339148 0.528264 0.5
667 26 0.350267 0.558707 0.5
388 26 0.373133 0.540312 0.5
362 32 0.392846 0.515983 0.5
327 31 0.426329 0.526692 0.5
937 32 0.404724 0.550646 0.5
890 34 0.450329 0.497566 0.5
99 25 0.45526 0.530149 0.5
602 25 0.477688 0.5147 0.5
321 31 0.484009 0.544702 0.5
25 33 0.508878 0.522731 0.5
481 30 0.53434 0.504242 0.5
978 22 0.542316 0.535783 0.5
184 26 0.563231 0.515954 0.5
276 35 0.5975 0.510053 0.5
337 29 0.579653 0.545412 0.5
915 26 0.611405 0.540295 0.5
49 27 0.63199 0.51536 0.5
570 34 0.64137 0.550902 0.5
810 31 0.664097 0.524854 0.5
354 35 0.698974 0.527693 0.5
759 36 0.736001 0.525173 0.5
50 33 0.757895 0.552399 0.5
695 20 0.767361 0.523335 0.5
880 41 0.789756 0.499946 0.5
876 31 0.790918 0.543276 0.5
726 29 0.815194 0.524081 0.5
238 24 0.853185 0.507051 0.5
868 39 0.845795 0.538188 0.5
285 30 0.878725 0.526955 0.5
200 35 0.909825 0.514124 0.5
642 31 0.904267 0.549769 0.5
969 28 0.93566 0.535566 0.5
237 35 0.966281 0.522923 0.5
839 27 0.967055 0.556603 0.5
801 26 0.0171341 0.565816 0.5
146 24 0.0147199 0.596238 0.5
160 29 0.0460564 0.577801 0.5
205 27 0.099309 0.565262 0.5
466 44 0.0785496 0.594727 0.5
223 18 0.110427 0.593811 0.5
907 27 0.154084 0.560316 0.5
954 23 0.127439 0.573793 0.5
320 33 0.13953 0.600969 0.5
82 34 0.173502 0.587477 0.5
53 35 0.207533 0.573816 0.5
391 24 0.273851 0.55818 0.5
451 33 0.240761 0.562789 0.5
717 30 0.230289 0.598746 0.5
5 34 0.261997 0.591154 0.5
627 33 0.297231 0.581154 0.5
330 27 0.31385 0.614026 0.5
572 34 0.334926 0.590788 0.5
773 20 0.3619 0.60648 0.5
825 37 0.378166 0.573717 0.5
59 23 0.386814 0.603777 0.5
370 37 0.413832 0.585173 0.5
268 45 0.448158 0.56457 0.5
494 22 0.462727 0.596183 0.5
3 33 0.48832 0.576564 0.5
437 32 0.51765 0.55436 0.5
304 27 0.554439 0.563815 0.5
638 49 0.521088 0.59271 0.5
932 27 0.557993 0.59407 0.5
76 26 0.583452 0.579254 0.5
755 25 0.611005 0.568154 0.5
314 32 0.609212 0.599027 0.5
221 22 0.634184 0.583701 0.5
335 34 0.678177 0.558811 0.5
669 41 0.724731 0.56271 0.5
153 38 0.664171 0.593192 0.5
635 22 0.69717 0.582821 0.5
630 32 0.721745 0.599892 0.5
975 27 0.75383 0.585806 0.5
463 26 0.816794 0.560145 0.5
397 33 0.787245 0.611398 0.5
878 32 0.785305 0.578178 0.5
88 42 0.820121 0.593443 0.5
842 28 0.874267 0.561081 0.5
308 25 0.845854 0.614045 0.5
613 27 0.845208 0.57043 0.5
436 31 0.869183 0.592139 0.5
757 39 0.935368 0.570116 0.5
219 27 0.900991 0.581936 0.5
459 36 0.927788 0.605497 0.5
98 35 0.988253 0.610368 0.5
248 25 0.989171 0.576572 0.5
240 28 0.962158 0.588211 0.5
828 29 0.0157709 0.633777 0.5
505 33 0.0151014 0.664947 0.5
213 32 0.044947 0.648578 0.5
992 37 0.0424654 0.613591 0.5
86 30 0.0720657 0.631628 0.5
462 29 0.101643 0.650905 0.5
433 24 0.104995 0.620488 0.5
731 35 0.13439 0.636086 0.5
387 29 0.199056 0.61012 0.5
989 35 0.166835 0.622551 0.5
552 30 0.160443 0.656453 0.5
884 37 0.193429 0.645211 0.5
218 22 0.22325 0.631633 0.5
180 33 0.25212 0.623922 0.5
247 23 0.240139 0.654235 0.5
61 32 0.273567 0.652686 0.5
230 31 0.28331 0.618246 0.5
339 36 0.308654 0.64583 0.5
15 34 0.341118 0.62923 0.5
670 34 0.351816 0.661527 0.5
150 39 0.378218 0.634619 0.5
189 11 0.379296 0.664789 0.5
537 27 0.437441 0.610271 0.5
993 29 0.409562 0.621987 0.5
523 21 0.403726 0.655199 0.5
253 29 0.432085 0.64668 0.5
159 34 0.489061 0.614907 0.5
30 33 0.459725 0.631938 0.5
817 36 0.487563 0.650889 0.5
520 32 0.517994 0.634267 0.5
107 29 0.545324 0.654289 0.5
56 27 0.580971 0.614032 0.5
527 28 0.550262 0.624281 0.5
681 23 0.575129 0.641943 0.5
484 34 0.600376 0.660434 0.5
395 27 0.636575 0.61501 0.5
415 24 0.607963 0.6288 0.5
482 29 0.634379 0.644504 0.5
147 30 0.663155 0.630118 0.5
836 29 0.663948 0.661223 0.5
149 27 0.69311 0.611667 0.5
373 35 0.693137 0.646066 0.5
299 24 0.720172 0.630614 0.5
924 25 0.718533 0.666538 0.5
501 34 0.753229 0.617276 0.5
945 35 0.745933 0.65117 0.5
75 20 0.778715 0.640939 0.5
689 30 0.816539 0.626964 0.5
258 39 0.805255 0.660297 0.5
502 25 0.838044 0.654934 0.5
515 29 0.862687 0.638263 0.5
113 36 0.862205 0.675426 0.5
697 37 0.892577 0.616478 0.5
922 37 0.891999 0.654281 0.5
894 27 0.921562 0.637986 0.5
539 31 0.954154 0.661542 0.5
468 27 0.986222 0.647628 0.5
236 42 0.957589 0.628685 0.5
510 35 0.0143596 0.698275 0.5
224 30 0.0439466 0.717348 0.5
315 28 0.0455702 0.685745 0.5
947 34 0.0728569 0.669082 0.5
316 39 0.0748909 0.70385 0.5
439 28 0.101198 0.685261 0.5
852 34 0.102688 0.724924 0.5
567 29 0.128546 0.67069 0.5
903 31 0.127728 0.704129 0.5
721 27 0.15363 0.687738 0.5
639 21 0.15628 0.714953 0.5
419 33 0.185522 0.680313 0.5
169 20 0.183153 0.712704 0.5
819 30 0.219266 0.669936 0.5
984 32 0.211763 0.702261 0.5
168 37 0.251511 0.683257 0.5
623 37 0.273734 0.712338 0.5
860 30 0.288668 0.68285 0.5
941 29 0.321936 0.677321 0.5
148 34 0.311184 0.707147 0.5
390 32 0.347259 0.701231 0.5
78 19 0.371308 0.685459 0.5
509 26 0.387016 0.709998 0.5
535 24 0.398146 0.682186 0.5
808 26 0.426518 0.674924 0.5
467 32 0.418747 0.706634 0.5
366 29 0.456704 0.666223 0.5
444 34 0.450946 0.697858 0.5
292 28 0.482435 0.683391 0.5
355 31 0.480042 0.716826 0.5
782 27 0.516835 0.667543 0.5
562 37 0.514447 0.701577 0.5
173 30 0.545097 0.687487 0.5
708 25 0.543325 0.718098 0.5
453 25 0.570561 0.671335 0.5
930 25 0.573151 0.705377 0.5
302 26 0.598797 0.691982 0.5
877 29 0.600422 0.722871 0.5
52 38 0.629865 0.677431 0.5
551 30 0.629363 0.710977 0.5
558 32 0.658429 0.697101 0.5
420 34 0.68905 0.683442 0.5
243 33 0.688983 0.717496 0.5
719 23 0.715907 0.69927 0.5
183 28 0.74412 0.685084 0.5
588 26 0.740958 0.715835 0.5
55 28 0.772812 0.671152 0.5
780 29 0.7715 0.703236 0.5
703 30 0.803812 0.696717 0.5
182 33 0.833007 0.713243 0.5
328 22 0.830269 0.681995 0.5
622 28 0.865676 0.71205 0.5
889 28 0.891262 0.729148 0.5
38 29 0.893649 0.689123 0.5
131 27 0.922149 0.667179 0.5
89 30 0.917974 0.711601 0.5
718 19 0.935819 0.691178 0.5
261 38 0.94921 0.72319 0.5
647 30 0.985281 0.676945 0.5
873 32 0.983645 0.714069 0.5
656 20 0.96255 0.693088 0.5
987 35 0.0402078 0.751654 0.5
490 32 0.014206 0.732636 0.5
262 32 0.00964029 0.766385 0.5
197 29 0.0664563 0.769307 0.5
811 26 0.0709515 0.738424 0.5
565 27 0.0988223 0.756045 0.5
374 35 0.125427 0.77553 0.5
577 37 0.134721 0.741142 0.5
442 35 0.160388 0.774883 0.5
257 34 0.171443 0.74161 0.5
659 35 0.205212 0.735998 0.5
461 33 0.199717 0.77142 0.5
227 32 0.237439 0.724968 0.5
167 27 0.231471 0.759375 0.5
738 32 0.262609 0.74697 0.5
58 27 0.283851 0.771108 0.5
921 37 0.298034 0.740507 0.5
835 33 0.317076 0.767013 0.5
650 29 0.332071 0.732963 0.5
682 36 0.366267 0.733567 0.5
769 28 0.351033 0.766084 0.5
192 36 0.388611 0.762441 0.5
525 25 0.404651 0.735305 0.5
735 27 0.421952 0.764 0.5
649 36 0.442633 0.734063 0.5
102 22 0.454424 0.769369 0.5
16 32 0.475665 0.748904 0.5
301 37 0.501473 0.773704 0.5
598 34 0.508154 0.735754 0.5
979 35 0.537486 0.753373 0.5
741 34 0.56981 0.736295 0.5
752 26 0.566095 0.769064 0.5
609 30 0.595303 0.75417 0.5
250 30 0.657563 0.730252 0.5
340 21 0.625042 0.77431 0.5
139 29 0.62688 0.744599 0.5
749 28 0.652506 0.763401 0.5
583 24 0.681062 0.749699 0.5
919 23 0.678975 0.779305 0.5
858 33 0.71069 0.75873 0.5
115 22 0.717605 0.727375 0.5
591 25 0.765642 0.732559 0.5
660 27 0.739913 0.745875 0.5
589 23 0.766076 0.759549 0.5
746 24 0.739668 0.775702 0.5
158 35 0.798109 0.730329 0.5
249 34 0.795472 0.770092 0.5
943 45 0.828632 0.750892 0.5
931 29 0.863263 0.742953 0.5
964 33 0.858137 0.775572 0.5
242 36 0.890472 0.762272 0.5
905 30 0.918871 0.744472 0.5
34 31 0.922964 0.779092 0.5
143 30 0.951682 0.761038 0.5
710 37 0.981041 0.746077 0.5
172 20 0.97984 0.776519 0.5
279 32 0.0367592 0.787926 0.5
455 31 0.0355271 0.820941 0.5
891 33 0.0039219 0.800221 0.5
290 31 0.00191449 0.833683 0.5
513 27 0.0603091 0.838561 0.5
498 29 0.0638228 0.805237 0.5
775 33 0.0918742 0.78814 0.5
239 36 0.0911639 0.826274 0.5
37 28 0.118233 0.804939 0.5
81 27 0.148419 0.803255 0.5
298 39 0.185045 0.801721 0.5
896 29 0.254452 0.781272 0.5
18 42 0.223757 0.799754 0.5
380 39 0.239654 0.834533 0.5
469 37 0.267597 0.811877 0.5
473 31 0.302178 0.799838 0.5
592 24 0.323018 0.822392 0.5
181 32 0.336308 0.794509 0.5
844 33 0.370488 0.793288 0.5
831 29 0.35371 0.821572 0.5
178 22 0.386318 0.822218 0.5
256 33 0.404061 0.793464 0.5
982 32 0.418648 0.82548 0.5
824 32 0.437917 0.792281 0.5
704 35 0.451995 0.822946 0.5
358 28 0.469768 0.793003 0.5
715 22 0.482416 0.822891 0.5
699 23 0.50643 0.837022 0.5
413 26 0.505927 0.808035 0.5
655 29 0.531738 0.788549 0.5
580 27 0.532554 0.819226 0.5
57 33 0.592775 0.786437 0.5
926 34 0.562762 0.800989 0.5
986 28 0.592133 0.817617 0.5
561 32 0.622476 0.803104 0.5
838 22 0.650193 0.79141 0.5
138 31 0.652672 0.821832 0.5
208 32 0.68288 0.808814 0.5
241 33 0.709856 0.790106 0.5
955 28 0.710968 0.825546 0.5
68 32 0.737106 0.807212 0.5
895 29 0.769354 0.790058 0.5
857 40 0.769327 0.825023 0.5
378 32 0.799474 0.805941 0.5
272 37 0.827532 0.824636 0.5
644 30 0.827061 0.787884 0.5
663 33 0.860805 0.810095 0.5
396 31 0.891089 0.795494 0.5
538 34 0.890919 0.829489 0.5
516 41 0.925094 0.813516 0.5
215 27 0.954056 0.793044 0.5
161 27 0.972256 0.817337 0.5
216 42 0.0312714 0.8563 0.5
846 34 -0.0043644 0.867304 0.5
199 37 0.0212273 0.892835 0.5
448 33 0.0560155 0.893893 0.5
995 25 0.0691495 0.86575 0.5
694 31 0.12623 0.834669 0.5
743 33 0.100998 0.864704 0.5
67 30 0.143494 0.862448 0.5
517 37 0.162279 0.83474 0.5
389 40 0.202526 0.835277 0.5
996 26 0.180284 0.862764 0.5
856 27 0.212961 0.867423 0.5
991 33 0.245042 0.87026 0.5
934 24 0.295447 0.828664 0.5
274 27 0.271213 0.851497 0.5
927 32 0.300826 0.858649 0.5
31 23 0.323832 0.879488 0.5
961 30 0.335387 0.852397 0.5
763 34 0.371044 0.850458 0.5
536 27 0.352128 0.878963 0.5
629 25 0.381418 0.881985 0.5
798 35 0.403484 0.85535 0.5
900 24 0.423971 0.883009 0.5
90 40 0.441279 0.855638 0.5
425 32 0.476897 0.85068 0.5
788 34 0.482987 0.881381 0.5
211 18 0.505798 0.863035 0.5
485 35 0.533521 0.852764 0.5
445 36 0.529237 0.887717 0.5
214 34 0.56339 0.836059 0.5
307 33 0.561983 0.874172 0.5
737 34 0.591357 0.856996 0.5
312 39 0.621446 0.838525 0.5
103 33 0.619889 0.875584 0.5
229 32 0.652426 0.854578 0.5
528 33 0.681785 0.8418 0.5
499 17 0.67709 0.871129 0.5
994 28 0.707482 0.858081 0.5
569 33 0.738625 0.843736 0.5
768 31 0.738098 0.877908 0.5
164 34 0.769963 0.862344 0.5
920 28 0.797935 0.841285 0.5
365 27 0.800656 0.873733 0.5
998 31 0.828265 0.859133 0.5
310 33 0.859299 0.845103 0.5
332 26 0.857718 0.877313 0.5
379 26 0.885034 0.863305 0.5
766 28 0.916318 0.848598 0.5
106 19 0.906613 0.878487 0.5
712 29 0.932394 0.873108 0.5
685 30 0.949177 0.84232 0.5
350 15 0.976478 0.844672 0.5
193 28 0.963275 0.872028 0.5
87 28 0.0410184 0.920774 0.5
245 21 0.0270824 0.944743 0.5
24 29 0.0050562 0.924062 0.5
488 25 0.0914346 0.893438 0.5
124 27 0.055737 0.953047 0.5
511 38 0.0745989 0.925861 0.5
252 36 0.125073 0.88977 0.5
706 32 0.109622 0.923268 0.5
255 29 0.141055 0.916308 0.5
385 32 0.161222 0.889805 0.5
841 31 0.194241 0.892215 0.5
847 38 0.175696 0.922211 0.5
953 29 0.209773 0.924787 0.5
203 40 0.273606 0.89127 0.5
646 27 0.226085 0.896405 0.5
701 38 0.250937 0.922223 0.5
809 27 0.284961 0.928625 0.5
14 28 0.305797 0.904268 0.5
174 31 0.315448 0.935694 0.5
608 29 0.336395 0.908055 0.5
957 36 0.370315 0.911678 0.5
914 25 0.346378 0.93677 0.5
414 34 0.399212 0.935753 0.5
845 27 0.401994 0.902986 0.5
492 40 0.434012 0.917788 0.5
898 28 0.451649 0.888636 0.5
430 33 0.471353 0.914383 0.5
372 26 0.504415 0.906958 0.5
305 29 0.496784 0.937417 0.5
944 29 0.52919 0.924699 0.5
744 33 0.592637 0.892483 0.5
452 33 0.558838 0.908882 0.5
795 36 0.59123 0.924616 0.5
940 27 0.650088 0.887251 0.5
408 27 0.620893 0.907041 0.5
990 41 0.653341 0.921896 0.5
456 31 0.708886 0.893194 0.5
63 28 0.678377 0.897806 0.5
530 29 0.690821 0.926376 0.5
615 28 0.71984 0.944495 0.5
676 31 0.731822 0.914856 0.5
393 39 0.765042 0.90183 0.5
855 31 0.756551 0.937726 0.5
700 26 0.801275 0.9048 0.5
382 38 0.792644 0.937128 0.5
705 29 0.828372 0.924931 0.5
155 30 0.829616 0.893064 0.5
483 28 0.857549 0.908366 0.5
210 27 0.857724 0.938584 0.5
648 24 0.883969 0.893289 0.5
939 38 0.889744 0.928317 0.5
754 31 0.91844 0.904613 0.5
733 38 0.936288 0.934018 0.5
260 28 0.985407 0.899225 0.5
170 33 0.951712 0.901507 0.5
813 30 0.971297 0.929481 0.5
917 39 0.0341991 0.978956 0.5
367 27 0.000953491 0.955026 0.5
851 31 -0.00140115 0.987473 0.5
597 24 0.0896206 1.00633 0.5
935 25 0.0900833 0.954742 0.5
66 32 0.0721145 0.981818 0.5
132 31 0.106855 0.981523 0.5
672 31 0.150852 0.947777 0.5
28 27 0.118963 0.95308 0.5
487 30 0.137738 0.979285 0.5
280 38 0.173167 0.980751 0.5
753 32 0.193849 0.953008 0.5
621 27 0.209241 0.983871 0.5
71 34 0.22817 0.952482 0.5
871 28 0.263306 0.953921 0.5
400 35 0.243577 0.983711 0.5
376 41 0.277674 0.994645 0.5
493 24 0.310609 0.988903 0.5
325 32 0.29569 0.962557 0.5
440 40 0.33645 0.966776 0.5
104 25 0.369137 0.953623 0.5
977 36 0.366647 0.987309 0.5
464 30 0.395995 0.972188 0.5
832 42 0.429616 0.95597 0.5
457 38 0.423528 0.993958 0.5
121 32 0.465562 0.951405 0.5
568 31 0.456983 0.982825 0.5
508 27 0.492392 0.968944 0.5
799 27 0.521256 0.955951 0.5
637 28 0.516736 0.988252 0.5
603 29 0.546233 0.975088 0.5
874 38 0.558769 0.943876 0.5
329 34 0.588805 0.96247 0.5
779 38 0.613786 0.987424 0.5
677 39 0.623515 0.948219 0.5
416 34 0.659154 0.9561 0.5
360 16 0.643034 0.98033 0.5
571 44 0.673917 0.992504 0.5
742 31 0.692811 0.959144 0.5
912 39 0.714894 0.985891 0.5
377 27 0.742275 0.966089 0.5
346 29 0.773245 0.966316 0.5
33 30 0.831763 0.957625 0.5
745 35 0.788706 0.997165 0.5
976 22 0.80319 0.969004 0.5
776 31 0.823131 0.992546 0.5
849 36 0.878463 0.965092 0.5
938 22 0.851438 0.980367 0.5
80 29 0.87746 1.00101 0.5
736 25 0.909899 0.953828 0.5
787 26 0.932831 0.996336 0.5
933 29 0.905241 0.982649 0.5
936 24 0.937459 0.967496 0.5
548 37 0.966228 1.00075 0.5
369 35 0.967527 0.963103 0.5
