ITEM: TIMESTEP
1250000
ITEM: NUMBER OF ATOMS
1000
ITEM: BOX BOUNDS pp pp pp
-1.6590344000000002e+01 1.6590344000000002e+01
-1.6590344000000002e+01 1.6590344000000002e+01
-5.0000000000000000e-01 5.0000000000000000e-01
ITEM: ATOMS id type xs ys zs
766 28 0.0228998 0.0250935 0.5
685 30 0.0555551 0.0178396 0.5
712 29 0.0425695 0.0495739 0.5
106 19 0.0140019 0.0517152 0.5
350 15 0.082874 0.0180727 0.5
290 31 0.107038 1.00444 0.5
846 34 0.10427 0.0382664 0.5
193 28 0.0726231 0.0451532 0.5
216 42 0.139741 0.029426 0.5
513 27 0.166261 0.00801549 0.5
995 25 0.184702 0.0338445 0.5
743 33 0.217515 0.033647 0.5
694 31 0.242743 0.0107363 0.5
517 37 0.277456 0.0111132 0.5
67 30 0.255936 0.0402139 0.5
389 40 0.315271 0.00511325 0.5
996 26 0.287238 0.0441316 0.5
856 27 0.318164 0.0397393 0.5
991 33 0.349916 0.0353725 0.5
274 27 0.380306 0.0217176 0.5
934 24 0.416515 0.0130228 0.5
961 30 0.442408 0.0293103 0.5
927 32 0.402519 0.0439235 0.5
31 23 0.42904 0.0559445 0.5
763 34 0.476832 0.0241736 0.5
178 22 0.502031 0.0065246 0.5
536 27 0.458517 0.0554471 0.5
629 25 0.489732 0.0561256 0.5
798 35 0.516006 0.0345742 0.5
90 40 0.553879 0.0309697 0.5
900 24 0.530299 0.0619906 0.5
425 32 0.590164 0.0155903 0.5
788 34 0.588852 0.0518808 0.5
699 23 0.61831 0.00674727 0.5
211 18 0.614242 0.0329959 0.5
485 35 0.642908 0.0251419 0.5
307 33 0.66861 0.0476545 0.5
214 34 0.673319 0.0097922 0.5
737 34 0.699312 0.0327947 0.5
312 39 0.73063 0.01569 0.5
229 32 0.76169 0.033015 0.5
103 33 0.728286 0.0524688 0.5
528 33 0.792726 0.0188225 0.5
994 28 0.819259 0.0374175 0.5
499 17 0.786104 0.0493449 0.5
569 33 0.84682 0.0210763 0.5
164 34 0.876241 0.0418441 0.5
768 31 0.84566 0.0570867 0.5
920 28 0.908606 0.0211146 0.5
998 31 0.936871 0.0349845 0.5
365 27 0.907015 0.0519851 0.5
379 26 0.992227 0.0375026 0.5
310 33 0.966105 0.0176004 0.5
332 26 0.964958 0.052228 0.5
754 31 0.0273704 0.0784484 0.5
733 38 0.0466088 0.110081 0.5
170 33 0.0614601 0.0768851 0.5
260 28 0.0954724 0.0708066 0.5
813 30 0.0816393 0.10397 0.5
24 29 0.11243 0.0967522 0.5
448 33 0.164128 0.0598138 0.5
199 37 0.128813 0.0651417 0.5
87 28 0.147734 0.0921562 0.5
511 38 0.183584 0.090169 0.5
488 25 0.197061 0.0580745 0.5
706 32 0.218733 0.097728 0.5
252 36 0.233728 0.0660477 0.5
385 32 0.268259 0.0711756 0.5
255 29 0.251717 0.0991712 0.5
847 38 0.287398 0.10082 0.5
841 31 0.306153 0.0690997 0.5
953 29 0.321288 0.0963906 0.5
646 27 0.3384 0.0671994 0.5
203 40 0.372725 0.0640576 0.5
701 38 0.354468 0.0960003 0.5
809 27 0.388499 0.101928 0.5
14 28 0.406985 0.0762756 0.5
608 29 0.441251 0.082576 0.5
174 31 0.420872 0.107138 0.5
957 36 0.474827 0.0850504 0.5
914 25 0.452551 0.110064 0.5
845 27 0.507867 0.0791602 0.5
492 40 0.540799 0.0933806 0.5
414 34 0.499788 0.11094 0.5
898 28 0.560114 0.0640243 0.5
430 33 0.577933 0.0896608 0.5
372 26 0.607179 0.0797762 0.5
305 29 0.604564 0.110143 0.5
445 36 0.635149 0.0603007 0.5
944 29 0.634108 0.095389 0.5
452 33 0.665204 0.081435 0.5
744 33 0.699183 0.0685304 0.5
795 36 0.696276 0.103047 0.5
408 27 0.726181 0.0883467 0.5
940 27 0.757169 0.0666743 0.5
990 41 0.759323 0.101081 0.5
63 28 0.785274 0.0776587 0.5
456 31 0.815575 0.069003 0.5
530 29 0.803703 0.106158 0.5
615 28 0.831618 0.12151 0.5
676 31 0.840548 0.0911249 0.5
393 39 0.874571 0.0791061 0.5
855 31 0.864654 0.115313 0.5
700 26 0.907658 0.0839763 0.5
155 30 0.933681 0.067136 0.5
705 29 0.934859 0.0983274 0.5
382 38 0.899568 0.116014 0.5
648 24 0.991892 0.0667337 0.5
483 28 0.964024 0.0832642 0.5
939 38 0.9953 0.0982644 0.5
210 27 0.964406 0.1135 0.5
736 25 0.016164 0.123126 0.5
936 24 0.0439145 0.142374 0.5
933 29 0.0156828 0.155196 0.5
787 26 0.0399354 0.172842 0.5
369 35 0.0758692 0.138393 0.5
851 31 0.104343 0.158422 0.5
367 27 0.107174 0.127135 0.5
548 37 0.072373 0.173889 0.5
245 21 0.13438 0.117707 0.5
917 39 0.143021 0.148108 0.5
124 27 0.165199 0.117999 0.5
935 25 0.197734 0.121526 0.5
66 32 0.178185 0.147786 0.5
132 31 0.212134 0.149484 0.5
28 27 0.234533 0.125158 0.5
672 31 0.266897 0.129951 0.5
487 30 0.244528 0.156434 0.5
280 38 0.280366 0.160818 0.5
753 32 0.30298 0.133453 0.5
621 27 0.314506 0.164073 0.5
71 34 0.336942 0.127204 0.5
871 28 0.369651 0.130413 0.5
400 35 0.345839 0.162523 0.5
376 41 0.381095 0.167177 0.5
325 32 0.403943 0.134075 0.5
440 40 0.44131 0.142412 0.5
493 24 0.414737 0.163875 0.5
104 25 0.474544 0.133066 0.5
977 36 0.469854 0.165788 0.5
464 30 0.500561 0.14988 0.5
832 42 0.531049 0.129729 0.5
457 38 0.529331 0.16839 0.5
568 31 0.562014 0.153915 0.5
121 32 0.566175 0.120529 0.5
508 27 0.598761 0.140885 0.5
799 27 0.628984 0.132611 0.5
874 38 0.661825 0.11679 0.5
603 29 0.656366 0.151465 0.5
637 28 0.622581 0.163493 0.5
329 34 0.693117 0.137885 0.5
779 38 0.720339 0.162557 0.5
677 39 0.730015 0.126305 0.5
416 34 0.770864 0.134372 0.5
360 16 0.75043 0.15764 0.5
742 31 0.804073 0.138591 0.5
571 44 0.782554 0.170851 0.5
912 39 0.823354 0.168772 0.5
377 27 0.850402 0.1461 0.5
346 29 0.881815 0.144445 0.5
976 22 0.910698 0.144683 0.5
33 30 0.938891 0.134583 0.5
776 31 0.930972 0.166294 0.5
849 36 0.986976 0.136654 0.5
938 22 0.959983 0.155778 0.5
729 22 0.0507804 0.199203 0.5
614 29 0.0132382 0.185504 0.5
886 28 0.0212471 0.214763 0.5
636 22 0.0492141 0.227143 0.5
751 24 0.100657 0.188801 0.5
407 26 0.0783077 0.208009 0.5
897 31 0.107991 0.218054 0.5
564 26 0.128619 0.178578 0.5
750 33 0.161339 0.179198 0.5
542 32 0.139217 0.206992 0.5
597 24 0.194343 0.174968 0.5
84 27 0.185027 0.202923 0.5
259 19 0.213129 0.211011 0.5
823 28 0.224211 0.184044 0.5
273 28 0.259767 0.187615 0.5
54 29 0.242499 0.213342 0.5
837 33 0.275674 0.214885 0.5
596 27 0.296958 0.189617 0.5
802 35 0.329039 0.194317 0.5
673 27 0.308054 0.218317 0.5
96 30 0.362368 0.195938 0.5
263 29 0.382015 0.219586 0.5
756 28 0.34629 0.223116 0.5
949 34 0.40782 0.195482 0.5
664 32 0.438298 0.183348 0.5
734 32 0.436447 0.217442 0.5
144 34 0.465319 0.20216 0.5
114 25 0.494596 0.214502 0.5
409 30 0.497347 0.18538 0.5
497 32 0.524993 0.204233 0.5
4 33 0.55668 0.189565 0.5
658 36 0.590492 0.17281 0.5
666 33 0.586529 0.20798 0.5
402 38 0.554598 0.22471 0.5
566 31 0.61757 0.195941 0.5
225 35 0.649385 0.182819 0.5
44 33 0.645949 0.217843 0.5
317 37 0.683436 0.171728 0.5
892 22 0.711337 0.192862 0.5
582 28 0.677362 0.207418 0.5
443 28 0.703815 0.225051 0.5
94 24 0.748829 0.183479 0.5
540 35 0.735939 0.213127 0.5
12 35 0.77766 0.209556 0.5
356 24 0.806744 0.197446 0.5
797 31 0.836382 0.203912 0.5
879 34 0.811174 0.227792 0.5
859 40 0.862247 0.177688 0.5
653 24 0.86553 0.212369 0.5
806 27 0.893359 0.206839 0.5
745 35 0.898731 0.175894 0.5
762 33 0.925049 0.198946 0.5
27 33 0.956671 0.187244 0.5
80 29 0.986062 0.170951 0.5
202 39 0.986055 0.208341 0.5
923 34 0.951701 0.221219 0.5
618 36 0.0477249 0.261072 0.5
770 42 0.0135079 0.247861 0.5
130 28 0.0758514 0.238436 0.5
881 26 0.104054 0.247853 0.5
233 27 0.0822502 0.26963 0.5
405 28 0.164548 0.225753 0.5
171 34 0.135814 0.243063 0.5
781 29 0.11419 0.275723 0.5
929 34 0.146475 0.280864 0.5
628 31 0.171881 0.257898 0.5
967 24 0.194346 0.232031 0.5
848 28 0.223099 0.238402 0.5
120 30 0.203667 0.264212 0.5
555 30 0.25586 0.243883 0.5
403 25 0.237987 0.26961 0.5
331 26 0.270178 0.272717 0.5
785 33 0.288521 0.245394 0.5
293 36 0.322866 0.24789 0.5
429 27 0.301 0.276703 0.5
966 24 0.354265 0.25303 0.5
651 24 0.384628 0.248951 0.5
556 29 0.333793 0.278759 0.5
707 46 0.3729 0.284155 0.5
671 25 0.409147 0.233357 0.5
607 38 0.439765 0.251678 0.5
368 33 0.407177 0.268369 0.5
73 31 0.438098 0.286272 0.5
834 31 0.470293 0.233928 0.5
761 29 0.497394 0.253145 0.5
645 33 0.470661 0.269494 0.5
232 27 0.500106 0.284539 0.5
72 25 0.521031 0.234389 0.5
434 24 0.558324 0.256295 0.5
950 32 0.528691 0.264409 0.5
531 26 0.584241 0.241801 0.5
864 24 0.606156 0.259909 0.5
988 18 0.581946 0.272277 0.5
176 33 0.61345 0.228622 0.5
500 42 0.638676 0.254469 0.5
100 33 0.673004 0.269818 0.5
348 27 0.675064 0.237608 0.5
91 24 0.701212 0.25395 0.5
963 26 0.73032 0.245444 0.5
829 24 0.758228 0.234885 0.5
983 32 0.756315 0.264236 0.5
952 34 0.725634 0.278741 0.5
165 22 0.784824 0.250175 0.5
418 34 0.816407 0.262089 0.5
166 30 0.787835 0.279843 0.5
557 38 0.845354 0.239421 0.5
611 37 0.880956 0.247985 0.5
177 24 0.848683 0.272122 0.5
270 32 0.877349 0.284349 0.5
901 37 0.914077 0.232325 0.5
97 22 0.939062 0.251713 0.5
85 22 0.912337 0.265718 0.5
662 32 0.973426 0.245747 0.5
698 20 0.956951 0.270929 0.5
686 30 0.988359 0.275568 0.5
803 31 0.0221951 0.286316 0.5
288 36 0.0560916 0.295426 0.5
962 48 0.0300474 0.324218 0.5
503 38 0.0923562 0.302845 0.5
336 36 0.0697682 0.333364 0.5
26 40 0.10638 0.337052 0.5
792 31 0.131577 0.31147 0.5
2 28 0.162744 0.321518 0.5
786 39 0.181282 0.292466 0.5
162 32 0.217094 0.295046 0.5
951 29 0.19564 0.322581 0.5
812 27 0.226959 0.324884 0.5
902 30 0.249291 0.298103 0.5
720 28 0.26439 0.326874 0.5
965 29 0.281758 0.301503 0.5
427 31 0.314032 0.305911 0.5
885 24 0.293543 0.330424 0.5
815 30 0.329717 0.33369 0.5
690 26 0.346137 0.307539 0.5
794 31 0.372683 0.323381 0.5
728 34 0.406304 0.30293 0.5
36 37 0.434872 0.321266 0.5
740 34 0.40361 0.337664 0.5
665 42 0.470324 0.305657 0.5
333 30 0.502807 0.318584 0.5
112 25 0.526959 0.298292 0.5
309 34 0.555392 0.286526 0.5
674 27 0.530992 0.332285 0.5
549 30 0.559709 0.319546 0.5
21 31 0.586448 0.30122 0.5
626 35 0.61619 0.288698 0.5
424 22 0.618017 0.319842 0.5
265 42 0.651619 0.297344 0.5
476 21 0.643184 0.331149 0.5
529 28 0.670759 0.326302 0.5
679 43 0.694958 0.301135 0.5
267 26 0.70342 0.334528 0.5
217 32 0.731124 0.314385 0.5
521 32 0.759943 0.297822 0.5
980 28 0.763589 0.328878 0.5
264 31 0.790592 0.313205 0.5
606 34 0.821181 0.296404 0.5
289 22 0.815066 0.329559 0.5
574 21 0.85344 0.299538 0.5
353 29 0.881134 0.317521 0.5
652 42 0.847755 0.331214 0.5
661 30 0.933344 0.287675 0.5
363 25 0.905183 0.300113 0.5
973 21 0.941636 0.319168 0.5
533 35 0.912035 0.332221 0.5
345 32 0.994094 0.307756 0.5
428 28 0.962948 0.29949 0.5
41 31 0.970059 0.330528 0.5
480 25 0.0501702 0.363102 0.5
575 33 0.0165188 0.360879 0.5
959 27 0.0317549 0.389898 0.5
631 30 0.0834339 0.365209 0.5
196 31 0.06371 0.392486 0.5
713 37 0.118472 0.371694 0.5
244 29 0.142023 0.344853 0.5
313 33 0.152143 0.377015 0.5
534 34 0.175603 0.351028 0.5
111 28 0.209095 0.35127 0.5
326 44 0.187455 0.386183 0.5
179 31 0.225357 0.377997 0.5
92 27 0.242466 0.351309 0.5
140 30 0.276177 0.356435 0.5
882 36 0.258751 0.386001 0.5
201 34 0.309578 0.35993 0.5
458 37 0.293363 0.393167 0.5
563 36 0.328805 0.391395 0.5
709 30 0.343676 0.360303 0.5
888 28 0.375398 0.354869 0.5
532 28 0.365253 0.385499 0.5
361 33 0.434431 0.355735 0.5
175 44 0.403259 0.377302 0.5
668 22 0.436981 0.385948 0.5
296 30 0.46472 0.341313 0.5
491 29 0.494778 0.35246 0.5
504 40 0.469143 0.376405 0.5
275 32 0.505444 0.383255 0.5
581 23 0.523374 0.359527 0.5
875 34 0.557371 0.352635 0.5
384 43 0.54445 0.387637 0.5
587 36 0.589203 0.337099 0.5
619 32 0.581254 0.376392 0.5
17 27 0.620915 0.349348 0.5
157 32 0.613927 0.381539 0.5
251 32 0.651151 0.363421 0.5
426 22 0.681306 0.35384 0.5
421 34 0.677178 0.383915 0.5
9 27 0.707828 0.36491 0.5
821 26 0.73321 0.347785 0.5
590 24 0.733669 0.379231 0.5
136 38 0.762371 0.363837 0.5
156 24 0.789375 0.344033 0.5
519 23 0.822426 0.356023 0.5
137 33 0.795802 0.373573 0.5
438 27 0.826497 0.385348 0.5
277 26 0.85053 0.366632 0.5
716 30 0.880236 0.349159 0.5
544 28 0.879591 0.379191 0.5
822 35 0.942778 0.35095 0.5
545 39 0.91189 0.368602 0.5
723 28 0.944753 0.383741 0.5
807 22 0.997321 0.338393 0.5
191 37 0.977205 0.363818 0.5
6 13 1.00149 0.384498 0.5
135 29 0.0402675 0.418696 0.5
294 29 0.00889906 0.409736 0.5
187 33 0.0142933 0.441297 0.5
826 30 0.0969143 0.398198 0.5
600 36 0.0749146 0.425293 0.5
524 34 0.109009 0.43007 0.5
60 26 0.129244 0.40322 0.5
971 19 0.159576 0.406308 0.5
447 37 0.144532 0.434023 0.5
154 28 0.180526 0.425903 0.5
586 43 0.219107 0.415745 0.5
22 34 0.203349 0.449872 0.5
541 33 0.256107 0.420515 0.5
687 33 0.238935 0.447962 0.5
616 29 0.28764 0.426782 0.5
620 27 0.318531 0.423461 0.5
45 28 0.350407 0.417174 0.5
506 37 0.384546 0.414343 0.5
306 27 0.37299 0.447202 0.5
126 32 0.420823 0.412655 0.5
77 19 0.439396 0.434566 0.5
357 37 0.407466 0.444382 0.5
303 28 0.453793 0.410655 0.5
128 31 0.486178 0.410659 0.5
692 28 0.467811 0.439153 0.5
105 31 0.500648 0.441108 0.5
65 31 0.519588 0.41296 0.5
893 30 0.533089 0.447986 0.5
431 31 0.553586 0.422457 0.5
228 27 0.581636 0.40765 0.5
771 25 0.591486 0.438132 0.5
133 32 0.612516 0.414927 0.5
383 36 0.646064 0.400023 0.5
478 29 0.655773 0.431075 0.5
1000 36 0.62374 0.447561 0.5
866 28 0.683363 0.416475 0.5
125 30 0.709435 0.397134 0.5
278 33 0.713799 0.429562 0.5
887 33 0.741378 0.410266 0.5
910 30 0.77356 0.39769 0.5
70 27 0.770301 0.428762 0.5
101 27 0.741641 0.443679 0.5
760 26 0.803552 0.403645 0.5
39 26 0.830099 0.41785 0.5
364 33 0.802181 0.435821 0.5
911 29 0.855461 0.39775 0.5
578 29 0.88509 0.409867 0.5
375 30 0.859427 0.42936 0.5
471 24 0.889634 0.43959 0.5
141 33 0.917319 0.405109 0.5
585 32 0.949034 0.416945 0.5
283 37 0.92116 0.441435 0.5
188 31 0.977396 0.39871 0.5
818 25 0.984109 0.431368 0.5
960 41 0.957366 0.452976 0.5
869 32 0.0484197 0.450273 0.5
601 31 0.0237264 0.473909 0.5
764 37 0.0586776 0.482987 0.5
862 24 0.0830883 0.457276 0.5
512 31 0.0936856 0.488368 0.5
972 29 0.113666 0.464467 0.5
472 26 0.145782 0.467668 0.5
748 35 0.12873 0.495008 0.5
234 34 0.16404 0.493088 0.5
450 23 0.171884 0.454882 0.5
344 20 0.188563 0.476185 0.5
151 38 0.203484 0.504431 0.5
465 27 0.223764 0.476503 0.5
783 26 0.255819 0.48258 0.5
51 31 0.270498 0.455185 0.5
985 24 0.284558 0.485988 0.5
410 41 0.305323 0.45721 0.5
40 40 0.326122 0.489227 0.5
702 27 0.34051 0.447777 0.5
412 29 0.357836 0.473951 0.5
593 24 0.359047 0.504356 0.5
765 23 0.38958 0.472455 0.5
693 28 0.418871 0.476115 0.5
349 41 0.391809 0.506431 0.5
406 30 0.445916 0.462102 0.5
958 22 0.459064 0.489278 0.5
62 28 0.481323 0.467684 0.5
595 36 0.488946 0.500188 0.5
814 31 0.512287 0.473342 0.5
688 26 0.543125 0.477949 0.5
730 32 0.564483 0.454692 0.5
23 27 0.596743 0.469255 0.5
281 25 0.571944 0.484798 0.5
691 39 0.598482 0.504559 0.5
404 31 0.65427 0.464464 0.5
206 32 0.62538 0.482017 0.5
727 36 0.656977 0.49798 0.5
118 26 0.685071 0.445715 0.5
43 35 0.685314 0.478332 0.5
47 31 0.714813 0.462301 0.5
392 30 0.716979 0.494905 0.5
772 33 0.744147 0.47596 0.5
553 32 0.77374 0.461992 0.5
282 27 0.772903 0.492383 0.5
381 32 0.805378 0.470119 0.5
999 37 0.834879 0.451633 0.5
269 32 0.83672 0.488897 0.5
625 32 0.868157 0.4613 0.5
343 34 0.873038 0.49559 0.5
784 28 0.899587 0.467961 0.5
271 30 0.930342 0.477648 0.5
633 30 0.909192 0.500859 0.5
916 25 0.940168 0.506439 0.5
793 28 0.991357 0.464632 0.5
632 30 0.96485 0.487667 0.5
725 39 0.998379 0.497894 0.5
109 43 0.0338863 0.514656 0.5
724 41 0.0539619 0.549246 0.5
791 26 0.000320862 0.531207 0.5
514 25 0.0164974 0.554771 0.5
95 32 0.0717521 0.515879 0.5
579 27 0.106138 0.518072 0.5
789 28 0.0895058 0.542936 0.5
359 34 0.123256 0.544572 0.5
696 27 0.145107 0.522035 0.5
854 28 0.156624 0.552296 0.5
422 30 0.177846 0.528847 0.5
8 25 0.206976 0.536822 0.5
680 29 0.188241 0.558555 0.5
925 22 0.236083 0.50321 0.5
641 29 0.265204 0.512885 0.5
833 33 0.23829 0.532758 0.5
116 22 0.276773 0.541802 0.5
948 37 0.298616 0.518291 0.5
594 33 0.312552 0.550695 0.5
543 34 0.334058 0.525404 0.5
956 33 0.367827 0.534771 0.5
7 35 0.345289 0.559239 0.5
928 33 0.429583 0.51031 0.5
423 34 0.403345 0.540286 0.5
11 38 0.437845 0.546618 0.5
117 31 0.463538 0.524189 0.5
266 35 0.496393 0.534076 0.5
479 20 0.472828 0.552807 0.5
767 40 0.524823 0.507327 0.5
79 38 0.531819 0.546677 0.5
347 45 0.561328 0.519628 0.5
820 29 0.591975 0.539367 0.5
470 29 0.565261 0.557617 0.5
805 27 0.630145 0.514846 0.5
870 30 0.661337 0.531878 0.5
42 41 0.629864 0.549446 0.5
83 31 0.689616 0.512253 0.5
584 25 0.717316 0.526473 0.5
522 36 0.692706 0.54624 0.5
46 34 0.745546 0.511167 0.5
654 24 0.740622 0.54417 0.5
311 27 0.768872 0.552836 0.5
981 29 0.778745 0.523304 0.5
110 30 0.80292 0.502265 0.5
974 25 0.826794 0.522298 0.5
35 38 0.802867 0.546897 0.5
338 28 0.856334 0.525236 0.5
711 34 0.838403 0.552335 0.5
341 25 0.87081 0.558841 0.5
968 38 0.888731 0.530129 0.5
119 28 0.921667 0.531168 0.5
861 35 0.969049 0.522546 0.5
318 36 0.948123 0.551689 0.5
777 26 0.982404 0.554241 0.5
398 38 0.0325687 0.582402 0.5
946 30 -0.00265442 0.582628 0.5
913 29 0.0471584 0.614584 0.5
495 33 0.0131588 0.612296 0.5
212 24 0.10294 0.574174 0.5
906 39 0.0706808 0.584145 0.5
684 25 0.115853 0.600348 0.5
617 33 0.133973 0.576602 0.5
790 32 0.166042 0.583454 0.5
970 22 0.14427 0.60649 0.5
399 34 0.199307 0.590649 0.5
475 26 0.219311 0.564865 0.5
804 29 0.177767 0.615662 0.5
576 33 0.23289 0.595841 0.5
872 39 0.2541 0.566583 0.5
714 29 0.266035 0.602914 0.5
129 37 0.288256 0.576584 0.5
722 33 0.321269 0.585267 0.5
550 24 0.297609 0.60951 0.5
883 36 0.380186 0.569201 0.5
486 38 0.355636 0.593917 0.5
449 26 0.388861 0.599766 0.5
526 30 0.413076 0.572366 0.5
235 36 0.422008 0.606333 0.5
796 26 0.444129 0.580232 0.5
20 35 0.476109 0.586408 0.5
732 28 0.453641 0.610013 0.5
446 28 0.502369 0.566084 0.5
371 29 0.510028 0.594689 0.5
432 29 0.539632 0.581432 0.5
246 33 0.547728 0.613296 0.5
840 25 0.569962 0.588523 0.5
324 39 0.598106 0.572742 0.5
560 28 0.604031 0.607084 0.5
899 22 0.663878 0.561271 0.5
454 32 0.631445 0.586511 0.5
185 37 0.664371 0.595444 0.5
816 32 0.694387 0.580087 0.5
908 20 0.720161 0.564074 0.5
496 30 0.724959 0.595631 0.5
573 30 0.748175 0.575616 0.5
904 34 0.756587 0.609919 0.5
599 33 0.780553 0.581944 0.5
997 35 0.81619 0.581511 0.5
678 30 0.797128 0.611147 0.5
322 22 0.830282 0.611917 0.5
64 31 0.850323 0.583964 0.5
546 32 0.882497 0.588264 0.5
254 33 0.861357 0.61572 0.5
867 37 0.907648 0.56137 0.5
853 18 0.93446 0.579121 0.5
778 24 0.912742 0.594726 0.5
295 33 0.96473 0.581722 0.5
918 40 0.942395 0.610645 0.5
489 21 0.975227 0.610532 0.5
827 41 0.0255259 0.647259 0.5
477 31 0.0608622 0.643228 0.5
190 40 0.0874538 0.618582 0.5
624 23 0.103035 0.649855 0.5
865 21 0.0810596 0.664388 0.5
401 24 0.121024 0.62892 0.5
74 35 0.153414 0.63809 0.5
48 25 0.130412 0.660679 0.5
204 34 0.161928 0.670912 0.5
194 31 0.208558 0.622547 0.5
10 29 0.185635 0.647205 0.5
186 32 0.217446 0.655431 0.5
830 29 0.240291 0.629426 0.5
441 30 0.270841 0.634324 0.5
942 25 0.249607 0.657055 0.5
29 29 0.303372 0.644717 0.5
287 36 0.327967 0.619105 0.5
640 37 0.280171 0.668662 0.5
127 22 0.313204 0.673285 0.5
460 35 0.336341 0.653371 0.5
286 31 0.360397 0.629571 0.5
152 34 0.371707 0.662726 0.5
284 35 0.394691 0.631822 0.5
226 31 0.430974 0.6406 0.5
122 30 0.405928 0.662922 0.5
507 29 0.462021 0.641072 0.5
291 27 0.483275 0.617584 0.5
220 30 0.494202 0.647305 0.5
32 21 0.472581 0.667856 0.5
13 31 0.516357 0.625394 0.5
758 21 0.555069 0.643144 0.5
69 35 0.528206 0.658867 0.5
394 29 0.578879 0.626003 0.5
323 30 0.607878 0.639139 0.5
604 21 0.583281 0.657988 0.5
209 26 0.611167 0.669686 0.5
297 30 0.633388 0.619424 0.5
411 31 0.6658 0.631303 0.5
850 23 0.63534 0.649445 0.5
163 25 0.697537 0.61196 0.5
195 37 0.695808 0.648601 0.5
108 33 0.725408 0.628135 0.5
123 17 0.749757 0.643662 0.5
474 28 0.728563 0.660792 0.5
774 34 0.759987 0.671146 0.5
334 33 0.778459 0.641042 0.5
683 34 0.814802 0.63881 0.5
843 35 0.79651 0.671353 0.5
142 31 0.828893 0.66963 0.5
605 24 0.84645 0.643281 0.5
675 27 0.877135 0.644338 0.5
319 29 0.861961 0.669661 0.5
612 27 0.894918 0.618416 0.5
134 34 0.919811 0.639881 0.5
93 43 0.958874 0.64501 0.5
435 23 0.991011 0.632569 0.5
231 32 0.991341 0.664154 0.5
200 35 0.0210801 0.684217 0.5
1 25 0.0522633 0.671809 0.5
969 28 0.0458809 0.706948 0.5
642 31 0.0143555 0.717008 0.5
237 35 0.0770717 0.695447 0.5
610 30 0.1065 0.678897 0.5
342 40 0.109864 0.71442 0.5
19 28 0.135314 0.690732 0.5
207 31 0.149619 0.719586 0.5
747 23 0.174362 0.698956 0.5
145 24 0.194408 0.675676 0.5
351 31 0.205137 0.707568 0.5
300 37 0.233006 0.686451 0.5
739 43 0.266076 0.705204 0.5
352 27 0.234711 0.720977 0.5
909 27 0.301298 0.700409 0.5
222 33 0.326024 0.719552 0.5
386 37 0.345691 0.688186 0.5
559 33 0.383114 0.695425 0.5
634 17 0.360316 0.714169 0.5
391 24 0.380969 0.72985 0.5
657 24 0.414114 0.691959 0.5
547 33 0.441293 0.674016 0.5
863 26 0.437362 0.711364 0.5
417 25 0.410356 0.722218 0.5
198 36 0.467816 0.698812 0.5
362 32 0.499349 0.680679 0.5
388 26 0.499705 0.711619 0.5
327 31 0.529583 0.693902 0.5
890 34 0.558309 0.674547 0.5
99 25 0.561402 0.708956 0.5
602 25 0.587455 0.687137 0.5
321 31 0.590673 0.722352 0.5
25 33 0.61602 0.700974 0.5
481 30 0.641391 0.679063 0.5
978 22 0.64939 0.709297 0.5
800 22 0.665073 0.660904 0.5
184 26 0.670416 0.688583 0.5
276 35 0.702562 0.682379 0.5
337 29 0.679927 0.717696 0.5
915 26 0.711004 0.712277 0.5
49 27 0.738144 0.69878 0.5
570 34 0.754875 0.728403 0.5
810 31 0.775256 0.702218 0.5
354 35 0.809953 0.7045 0.5
759 36 0.84714 0.699397 0.5
695 20 0.881036 0.696053 0.5
50 33 0.867194 0.726984 0.5
880 41 0.900116 0.669906 0.5
643 27 0.934872 0.669385 0.5
726 29 0.923931 0.699102 0.5
876 31 0.899028 0.721195 0.5
285 30 0.98983 0.696736 0.5
238 24 0.96335 0.679989 0.5
868 39 0.956767 0.711583 0.5
757 39 0.0417187 0.740777 0.5
219 27 0.0101663 0.75002 0.5
459 36 0.042538 0.775782 0.5
839 27 0.0769723 0.727338 0.5
248 25 0.100463 0.749442 0.5
240 28 0.0705971 0.759206 0.5
98 35 0.100375 0.780507 0.5
801 26 0.12875 0.743699 0.5
160 29 0.158598 0.751651 0.5
146 24 0.130308 0.772273 0.5
518 30 0.181993 0.729673 0.5
205 27 0.209866 0.738975 0.5
466 44 0.191972 0.768245 0.5
223 18 0.224138 0.770114 0.5
954 23 0.238974 0.748574 0.5
907 27 0.266531 0.739858 0.5
320 33 0.253791 0.776119 0.5
82 34 0.287441 0.765162 0.5
554 29 0.295913 0.731408 0.5
53 35 0.320072 0.75378 0.5
451 33 0.352489 0.742845 0.5
717 30 0.372039 0.76867 0.5
218 22 0.343401 0.776562 0.5
5 34 0.401877 0.75383 0.5
627 33 0.436419 0.745729 0.5
330 27 0.432574 0.778237 0.5
667 26 0.464136 0.731277 0.5
825 37 0.493829 0.744009 0.5
572 34 0.464 0.765945 0.5
59 23 0.495158 0.776286 0.5
937 32 0.526264 0.728893 0.5
370 37 0.523991 0.76251 0.5
268 45 0.559467 0.744734 0.5
3 33 0.600819 0.755346 0.5
494 22 0.575652 0.774626 0.5
437 32 0.627808 0.732987 0.5
304 27 0.657984 0.739445 0.5
638 49 0.638087 0.771723 0.5
932 27 0.67656 0.766286 0.5
76 26 0.697013 0.743511 0.5
755 25 0.725598 0.737069 0.5
314 32 0.716245 0.768716 0.5
221 22 0.74464 0.757828 0.5
153 38 0.776373 0.768363 0.5
335 34 0.789527 0.73416 0.5
635 22 0.807038 0.758645 0.5
669 41 0.831018 0.735004 0.5
630 32 0.834191 0.773884 0.5
878 32 0.890917 0.752445 0.5
975 27 0.861429 0.758045 0.5
463 26 0.929989 0.72929 0.5
88 42 0.926241 0.763303 0.5
613 27 0.956989 0.74602 0.5
842 28 0.985174 0.733752 0.5
436 31 0.980452 0.766665 0.5
894 27 0.033168 0.810833 0.5
697 37 0.00890708 0.784539 0.5
236 42 0.068853 0.799453 0.5
468 27 0.0988808 0.81788 0.5
828 29 0.126298 0.804096 0.5
992 37 0.159315 0.787606 0.5
213 32 0.15789 0.823046 0.5
505 33 0.126137 0.83687 0.5
86 30 0.188089 0.809536 0.5
433 24 0.214865 0.795938 0.5
462 29 0.216165 0.830299 0.5
731 35 0.243873 0.811797 0.5
989 35 0.279189 0.799003 0.5
552 30 0.271861 0.83345 0.5
387 29 0.313489 0.787403 0.5
884 37 0.307324 0.820155 0.5
247 23 0.33714 0.807561 0.5
180 33 0.367885 0.801917 0.5
61 32 0.360902 0.834885 0.5
230 31 0.400955 0.787696 0.5
339 36 0.394279 0.823987 0.5
15 34 0.42806 0.811579 0.5
773 20 0.457196 0.79635 0.5
150 39 0.485998 0.809711 0.5
670 34 0.457173 0.831382 0.5
523 21 0.513219 0.829471 0.5
537 27 0.548051 0.785838 0.5
993 29 0.517995 0.796051 0.5
253 29 0.54315 0.818901 0.5
30 33 0.572104 0.806076 0.5
159 34 0.602749 0.789667 0.5
817 36 0.599431 0.827056 0.5
366 29 0.567488 0.838873 0.5
520 32 0.631112 0.810299 0.5
527 28 0.661479 0.800163 0.5
107 29 0.655656 0.832096 0.5
56 27 0.692182 0.791192 0.5
415 24 0.721222 0.800205 0.5
681 23 0.68354 0.819189 0.5
484 34 0.71227 0.832203 0.5
395 27 0.746401 0.785854 0.5
147 30 0.778163 0.804262 0.5
482 29 0.748196 0.816308 0.5
836 29 0.774598 0.835918 0.5
149 27 0.805962 0.789516 0.5
299 24 0.833694 0.805304 0.5
373 35 0.805772 0.823039 0.5
501 34 0.862849 0.78953 0.5
75 20 0.894513 0.816426 0.5
945 35 0.864392 0.824213 0.5
397 33 0.896473 0.785225 0.5
689 30 0.926782 0.799383 0.5
258 39 0.922606 0.833603 0.5
308 25 0.953471 0.784119 0.5
502 25 0.951596 0.815622 0.5
515 29 0.978326 0.800695 0.5
922 37 0.00221653 0.823329 0.5
131 27 0.0292148 0.842776 0.5
718 19 0.0456246 0.865496 0.5
89 30 0.0243653 0.882358 0.5
38 29 1.00109 0.85889 0.5
539 31 0.0604321 0.835348 0.5
656 20 0.0705087 0.86319 0.5
647 30 0.0959955 0.84965 0.5
873 32 0.0910701 0.884056 0.5
510 35 0.124135 0.871309 0.5
315 28 0.153945 0.857663 0.5
224 30 0.150264 0.890223 0.5
947 34 0.185358 0.842336 0.5
439 28 0.213154 0.861972 0.5
316 39 0.182271 0.879241 0.5
567 29 0.241949 0.848449 0.5
721 27 0.268757 0.864826 0.5
903 31 0.237599 0.882031 0.5
639 21 0.264136 0.891815 0.5
419 33 0.297963 0.854983 0.5
819 30 0.330194 0.845108 0.5
169 20 0.290415 0.886061 0.5
984 32 0.322637 0.878456 0.5
168 37 0.356858 0.869382 0.5
860 30 0.391029 0.858317 0.5
941 29 0.421487 0.845515 0.5
390 32 0.447689 0.863802 0.5
148 34 0.416353 0.879752 0.5
189 11 0.485957 0.84007 0.5
78 19 0.476976 0.860977 0.5
509 26 0.495741 0.885318 0.5
535 24 0.504782 0.855442 0.5
808 26 0.533705 0.850306 0.5
467 32 0.527326 0.882994 0.5
444 34 0.560501 0.870853 0.5
292 28 0.591043 0.859171 0.5
355 31 0.587937 0.891075 0.5
562 37 0.619627 0.876818 0.5
782 27 0.628346 0.844227 0.5
173 30 0.652586 0.863862 0.5
708 25 0.649547 0.895976 0.5
453 25 0.682816 0.848306 0.5
302 26 0.707733 0.866533 0.5
930 25 0.680829 0.880204 0.5
52 38 0.742555 0.850125 0.5
558 32 0.771014 0.871199 0.5
551 30 0.741603 0.885461 0.5
420 34 0.803014 0.85659 0.5
924 25 0.832665 0.8411 0.5
719 23 0.827011 0.875307 0.5
243 33 0.798569 0.894496 0.5
183 28 0.859362 0.858209 0.5
55 28 0.890567 0.846168 0.5
780 29 0.883799 0.878761 0.5
588 26 0.854612 0.888274 0.5
703 30 0.914677 0.868991 0.5
328 22 0.943177 0.859441 0.5
182 33 0.940548 0.890988 0.5
113 36 0.970772 0.843611 0.5
622 28 0.971055 0.878153 0.5
905 30 0.0263674 0.915227 0.5
261 38 0.0570528 0.894596 0.5
143 30 0.0544609 0.934399 0.5
710 37 0.0851187 0.919871 0.5
490 32 0.117288 0.904472 0.5
262 32 0.113785 0.938628 0.5
987 35 0.146436 0.923929 0.5
811 26 0.17962 0.913346 0.5
852 34 0.210956 0.902349 0.5
565 27 0.201814 0.932927 0.5
197 29 0.171511 0.94671 0.5
577 37 0.244324 0.917907 0.5
374 35 0.229967 0.949538 0.5
257 34 0.279837 0.917576 0.5
659 35 0.31189 0.909557 0.5
461 33 0.30288 0.943536 0.5
167 27 0.334402 0.934572 0.5
227 32 0.347329 0.906131 0.5
623 37 0.382573 0.895673 0.5
738 32 0.368914 0.933989 0.5
921 37 0.40116 0.923553 0.5
650 29 0.434665 0.912048 0.5
835 33 0.429723 0.944682 0.5
682 36 0.463877 0.896141 0.5
192 36 0.494361 0.918122 0.5
769 28 0.45933 0.931621 0.5
525 25 0.526323 0.91527 0.5
102 22 0.552957 0.935205 0.5
735 27 0.5174 0.943528 0.5
649 36 0.557006 0.904172 0.5
16 32 0.582217 0.927066 0.5
598 34 0.614882 0.912646 0.5
979 35 0.645759 0.928168 0.5
301 37 0.610414 0.947465 0.5
741 34 0.6775 0.910997 0.5
877 29 0.712486 0.896736 0.5
609 30 0.704934 0.927847 0.5
752 26 0.675246 0.944598 0.5
139 29 0.736025 0.920439 0.5
250 30 0.76709 0.905101 0.5
749 28 0.765011 0.937358 0.5
340 21 0.735881 0.950367 0.5
583 24 0.790316 0.924308 0.5
115 22 0.827186 0.903235 0.5
858 33 0.819701 0.935803 0.5
660 27 0.849497 0.921156 0.5
591 25 0.875895 0.909316 0.5
589 23 0.873378 0.938116 0.5
158 35 0.908992 0.903627 0.5
943 45 0.938259 0.929051 0.5
249 34 0.903824 0.947204 0.5
242 36 0.997718 0.932292 0.5
889 28 0.997072 0.897957 0.5
931 29 0.970293 0.911397 0.5
516 41 0.032748 0.9874 0.5
34 31 0.0276877 0.952382 0.5
215 27 0.0582146 0.965674 0.5
161 27 0.0745279 0.992292 0.5
172 20 0.0819429 0.950527 0.5
891 33 0.109806 0.972626 0.5
455 31 0.138304 0.991589 0.5
279 32 0.140648 0.958465 0.5
239 36 0.199445 0.00147221 0.5
498 29 0.167806 0.977104 0.5
775 33 0.198513 0.96558 0.5
37 28 0.227301 0.982054 0.5
81 27 0.257595 0.982064 0.5
442 35 0.266774 0.950566 0.5
298 39 0.291328 0.977013 0.5
18 42 0.330363 0.968801 0.5
380 39 0.354825 0.999062 0.5
469 37 0.392278 0.989731 0.5
896 29 0.36752 0.966211 0.5
58 27 0.399166 0.956078 0.5
592 24 0.448588 0.996543 0.5
473 31 0.424137 0.977437 0.5
181 32 0.454917 0.965306 0.5
831 29 0.47824 0.988239 0.5
844 33 0.485792 0.951429 0.5
982 32 0.531323 1.00272 0.5
256 33 0.508646 0.976279 0.5
824 32 0.541893 0.964078 0.5
704 35 0.565006 0.993408 0.5
358 28 0.576363 0.958591 0.5
715 22 0.594005 0.983787 0.5
580 27 0.64683 0.992619 0.5
413 26 0.621315 0.978442 0.5
655 29 0.647161 0.960004 0.5
986 28 0.703421 0.993477 0.5
926 34 0.675827 0.975984 0.5
57 33 0.70673 0.960921 0.5
138 31 0.761459 1.00074 0.5
561 32 0.734491 0.981137 0.5
838 22 0.76777 0.966384 0.5
955 28 0.8213 1.00179 0.5
208 32 0.791607 0.98576 0.5
919 23 0.79326 0.951701 0.5
241 33 0.820886 0.969659 0.5
857 40 0.878551 1.00304 0.5
68 32 0.84943 0.985475 0.5
746 24 0.848287 0.953349 0.5
895 29 0.876934 0.967279 0.5
272 37 0.934801 0.99979 0.5
378 32 0.905666 0.98113 0.5
644 30 0.935527 0.964833 0.5
538 34 0.997243 1.00466 0.5
663 33 0.965352 0.984096 0.5
964 33 0.968205 0.950985 0.5
396 31 -0.0029486 0.96908 0.5
