ITEM: TIMESTEP
2500000
ITEM: NUMBER OF ATOMS
1000
ITEM: BOX BOUNDS pp pp pp
-1.4916282000000001e+01 1.4916282000000001e+01
-1.4916282000000001e+01 1.4916282000000001e+01
-5.0000000000000000e-01 5.0000000000000000e-01
ITEM: ATOMS id type xs ys zs
846 33 0.0612042 0.0503833 0.5
513 27 0.0758502 0.0165811 0.5
33 30 0.0433761 0.0243089 0.5
380 38 0.0512097 -0.00698997 0.5
891 33 0.0166663 -0.00558547 0.5
998 31 0.0933 0.0433731 0.5
505 33 0.126319 0.0410119 0.5
124 28 0.109398 0.0123924 0.5
694 31 0.13993 0.00761019 0.5
469 36 0.159547 0.0372086 0.5
809 27 0.192854 0.0317297 0.5
298 38 0.177034 0.00324888 0.5
498 29 0.209354 0.000766845 0.5
172 21 0.228789 0.0221025 0.5
941 29 0.264343 0.0208166 0.5
738 32 0.243811 -0.00442598 0.5
860 30 0.320202 0.0488264 0.5
227 32 0.297738 0.0211799 0.5
903 31 0.278515 -0.00844725 0.5
451 33 0.312401 -0.0107855 0.5
461 32 0.332314 0.0153557 0.5
819 30 0.352068 0.0421664 0.5
682 36 0.385389 0.0394811 0.5
291 27 0.365909 0.0128094 0.5
650 29 0.397974 0.00920196 0.5
536 28 0.420298 0.0337141 0.5
769 29 0.432697 0.00357555 0.5
629 25 0.453623 0.0305375 0.5
824 31 0.485306 0.0294182 0.5
444 33 0.464769 -0.0016289 0.5
993 30 0.498877 -0.00190347 0.5
102 22 0.516946 0.0249577 0.5
982 32 0.536793 0.0544903 0.5
499 19 0.564093 0.0525579 0.5
192 36 0.552599 0.0223078 0.5
253 29 0.531337 -0.00559673 0.5
178 23 0.58803 0.0409461 0.5
551 30 0.592593 0.00956817 0.5
415 24 0.618784 0.0293264 0.5
877 29 0.622237 -0.000929787 0.5
609 30 0.645946 0.0444938 0.5
583 24 0.648072 0.0137556 0.5
214 34 0.676232 0.0307665 0.5
858 33 0.67769 -0.00301097 0.5
704 34 0.706994 0.0484064 0.5
63 29 0.705338 0.0149921 0.5
938 23 0.734269 0.0352914 0.5
955 28 0.76082 0.017158 0.5
561 32 0.73235 0.000196779 0.5
924 26 0.788602 0.0262656 0.5
68 31 0.821501 0.0207849 0.5
669 40 0.796802 -0.00620865 0.5
483 28 0.839285 0.047932 0.5
55 28 0.872934 0.0460203 0.5
76 26 0.855827 0.0201987 0.5
703 30 0.886101 0.0174515 0.5
276 35 0.834663 -0.0116489 0.5
689 30 0.905354 0.0440118 0.5
905 30 0.938409 0.0429013 0.5
242 35 0.918845 0.0122216 0.5
895 29 0.950829 0.00665771 0.5
113 35 0.972822 0.0354364 0.5
510 35 1.00726 0.0272261 0.5
249 34 0.982634 -0.00174043 0.5
215 28 0.0278466 0.0541854 0.5
193 28 0.0473411 0.0803222 0.5
202 38 0.0692605 0.107639 0.5
710 37 0.0160753 0.0864136 0.5
170 33 0.0810815 0.0756516 0.5
596 27 0.113396 0.0736603 0.5
920 29 0.10269 0.103613 0.5
936 25 0.134433 0.0969942 0.5
37 29 0.179503 0.0624844 0.5
996 26 0.145296 0.0686655 0.5
81 27 0.166562 0.0924602 0.5
516 40 0.201028 0.089518 0.5
487 30 0.211154 0.0571916 0.5
511 37 0.246433 0.0530487 0.5
71 34 0.235406 0.0846363 0.5
852 34 0.284209 0.0513161 0.5
374 34 0.270766 0.0816927 0.5
414 34 0.304667 0.0770456 0.5
167 27 0.290279 0.108021 0.5
953 29 0.326153 0.105172 0.5
934 25 0.339582 0.0734607 0.5
559 33 0.373095 0.0710143 0.5
623 36 0.358275 0.101271 0.5
440 39 0.438698 0.0608924 0.5
58 27 0.394778 0.0981352 0.5
831 29 0.404573 0.0668688 0.5
608 29 0.427163 0.095729 0.5
509 27 0.474501 0.0593789 0.5
752 26 0.506458 0.0533371 0.5
844 33 0.459329 0.0897862 0.5
420 34 0.494975 0.0831198 0.5
390 32 0.514639 0.115492 0.5
31 23 0.526769 0.0830542 0.5
211 19 0.552851 0.0792805 0.5
413 26 0.544241 0.10685 0.5
301 36 0.577215 0.106084 0.5
173 30 0.613714 0.0595875 0.5
250 30 0.583819 0.072695 0.5
208 32 0.610761 0.0926046 0.5
445 35 0.640004 0.113865 0.5
425 32 0.641043 0.0785005 0.5
979 35 0.674228 0.0646362 0.5
742 31 0.701385 0.0844753 0.5
107 29 0.670638 0.0982417 0.5
272 36 0.763937 0.0521273 0.5
986 28 0.727237 0.100672 0.5
591 26 0.732938 0.0660166 0.5
569 33 0.757463 0.0868364 0.5
397 32 0.805579 0.0524628 0.5
229 32 0.790248 0.0821725 0.5
990 40 0.829781 0.080653 0.5
328 23 0.862198 0.0744743 0.5
857 39 0.876868 0.103831 0.5
379 27 0.891429 0.0738048 0.5
849 35 0.912556 0.105959 0.5
182 33 0.923781 0.074711 0.5
538 34 0.951749 0.100669 0.5
89 30 0.959816 0.0658987 0.5
155 30 0.997293 0.0597456 0.5
648 25 0.982023 0.0915504 0.5
614 29 0.0361793 0.117835 0.5
712 29 0.0584127 0.139277 0.5
24 29 0.0471264 0.169874 0.5
350 16 0.0318485 0.146099 0.5
976 23 0.0785325 0.166573 0.5
813 30 0.0895645 0.137097 0.5
933 29 0.121396 0.130387 0.5
766 29 0.110147 0.160575 0.5
851 31 0.151604 0.122586 0.5
488 26 0.183669 0.120197 0.5
367 28 0.1414 0.155744 0.5
244 29 0.174009 0.152943 0.5
743 32 0.223157 0.117087 0.5
823 28 0.255053 0.113331 0.5
293 35 0.205729 0.147563 0.5
66 31 0.24225 0.145126 0.5
168 36 0.227766 0.177772 0.5
203 39 0.26435 0.172658 0.5
577 36 0.276673 0.139626 0.5
673 27 0.310454 0.135868 0.5
473 31 0.299226 0.167452 0.5
847 37 0.334302 0.16559 0.5
957 36 0.343783 0.134011 0.5
274 27 0.378394 0.127527 0.5
325 32 0.369779 0.158449 0.5
385 32 0.446375 0.121526 0.5
795 35 0.41002 0.127886 0.5
169 21 0.403029 0.156984 0.5
592 25 0.432067 0.153015 0.5
492 39 0.480796 0.119241 0.5
430 33 0.467205 0.15186 0.5
845 27 0.501527 0.145804 0.5
871 28 0.489403 0.181548 0.5
457 37 0.521495 0.171704 0.5
649 35 0.539738 0.140143 0.5
358 28 0.572733 0.139026 0.5
305 30 0.559784 0.169853 0.5
90 39 0.600914 0.161968 0.5
16 32 0.606589 0.127581 0.5
715 23 0.631831 0.144498 0.5
799 27 0.632619 0.172561 0.5
57 32 0.696917 0.117607 0.5
930 26 0.668186 0.12894 0.5
788 33 0.661962 0.160109 0.5
749 28 0.694083 0.149537 0.5
106 20 0.750736 0.118414 0.5
994 28 0.717224 0.17138 0.5
677 38 0.727286 0.137399 0.5
139 29 0.764481 0.142341 0.5
838 23 0.745317 0.16413 0.5
580 27 0.779735 0.112775 0.5
241 33 0.810708 0.109256 0.5
310 33 0.797726 0.14149 0.5
744 33 0.814534 0.173737 0.5
676 31 0.84341 0.111798 0.5
797 31 0.832998 0.145916 0.5
165 22 0.84654 0.173652 0.5
115 23 0.894151 0.133612 0.5
700 26 0.86254 0.134374 0.5
164 33 0.876981 0.163918 0.5
393 38 0.911047 0.161661 0.5
940 27 0.932342 0.134111 0.5
382 37 0.947801 0.165151 0.5
964 33 1.00273 0.116891 0.5
943 44 0.970544 0.133168 0.5
97 23 1.00575 0.146108 0.5
622 28 1.017 0.172776 0.5
762 32 0.981764 0.169151 0.5
736 26 0.0671637 0.194107 0.5
54 29 0.0504328 0.225551 0.5
28 27 0.0308019 0.201447 0.5
923 33 0.0162355 0.230832 0.5
245 22 0.128257 0.183457 0.5
672 31 0.0818279 0.220363 0.5
80 29 0.0970542 0.191993 0.5
171 34 0.115041 0.220276 0.5
407 26 0.15965 0.18189 0.5
290 31 0.194221 0.177664 0.5
260 28 0.145654 0.211138 0.5
848 29 0.177075 0.206591 0.5
756 28 0.196866 0.236819 0.5
405 29 0.209724 0.206451 0.5
429 27 0.247305 0.206591 0.5
18 41 0.269859 0.235153 0.5
280 38 0.282822 0.201164 0.5
701 37 0.318334 0.197999 0.5
389 39 0.306597 0.232153 0.5
763 34 0.34283 0.222997 0.5
181 32 0.355881 0.19093 0.5
646 28 0.376205 0.21608 0.5
263 29 0.420617 0.181657 0.5
409 30 0.388264 0.186452 0.5
950 32 0.408449 0.215591 0.5
961 30 0.44011 0.211965 0.5
144 34 0.454178 0.181647 0.5
900 25 0.474703 0.210705 0.5
699 23 0.506882 0.203535 0.5
464 30 0.496348 0.23398 0.5
103 33 0.530737 0.232398 0.5
912 38 0.544272 0.199979 0.5
874 37 0.566294 0.228043 0.5
779 37 0.585071 0.1956 0.5
637 28 0.599339 0.22821 0.5
603 29 0.618074 0.201426 0.5
307 32 0.642845 0.224561 0.5
768 31 0.685305 0.184915 0.5
898 28 0.655453 0.193582 0.5
737 34 0.676365 0.222362 0.5
332 27 0.713196 0.200783 0.5
416 34 0.709703 0.23196 0.5
963 27 0.743866 0.192183 0.5
312 38 0.746142 0.227568 0.5
571 42 0.777078 0.174354 0.5
360 18 0.770612 0.204694 0.5
521 32 0.780627 0.233055 0.5
745 35 0.801582 0.207423 0.5
655 29 0.812231 0.239661 0.5
365 27 0.832738 0.202242 0.5
329 34 0.846546 0.229997 0.5
270 31 0.865138 0.197877 0.5
859 39 0.883053 0.228845 0.5
733 37 0.898829 0.195204 0.5
644 30 0.934081 0.193665 0.5
27 33 0.919187 0.223557 0.5
653 24 0.951968 0.228047 0.5
886 28 0.963351 0.201067 0.5
939 37 0.997463 0.200531 0.5
448 32 0.984116 0.230756 0.5
611 36 0.0654158 0.255383 0.5
542 32 0.0548561 0.287295 0.5
995 25 0.0335801 0.258243 0.5
751 24 0.017644 0.28446 0.5
130 28 0.0970673 0.246527 0.5
376 40 0.0936668 0.281819 0.5
199 36 0.130221 0.255826 0.5
729 23 0.126323 0.29123 0.5
770 41 0.163005 0.238924 0.5
962 46 0.160545 0.285853 0.5
705 29 0.18954 0.265945 0.5
967 24 0.195644 0.294533 0.5
216 41 0.23175 0.237117 0.5
597 24 0.220574 0.269649 0.5
935 25 0.22706 0.296412 0.5
239 35 0.255115 0.269032 0.5
403 25 0.256179 0.300632 0.5
927 32 0.293878 0.265818 0.5
84 27 0.28498 0.295723 0.5
802 35 0.317808 0.290479 0.5
966 25 0.332698 0.25556 0.5
671 25 0.347744 0.280652 0.5
400 34 0.36522 0.249984 0.5
834 31 0.379485 0.280604 0.5
944 29 0.396983 0.2469 0.5
991 33 0.431161 0.244232 0.5
175 43 0.416594 0.278438 0.5
493 25 0.461744 0.238899 0.5
104 25 0.45367 0.268718 0.5
949 34 0.466243 0.298149 0.5
114 26 0.480802 0.264653 0.5
452 33 0.500848 0.292798 0.5
582 28 0.515837 0.261069 0.5
372 27 0.537598 0.291013 0.5
4 33 0.548836 0.259676 0.5
508 28 0.570228 0.286658 0.5
761 29 0.583718 0.259553 0.5
485 34 0.603505 0.285447 0.5
832 41 0.622181 0.254583 0.5
121 32 0.641722 0.286012 0.5
225 34 0.659322 0.254609 0.5
666 32 0.691766 0.259315 0.5
568 31 0.676906 0.287883 0.5
217 32 0.711618 0.288348 0.5
91 25 0.728587 0.259646 0.5
408 28 0.75978 0.259122 0.5
138 31 0.7456 0.287186 0.5
363 25 0.775917 0.288365 0.5
829 25 0.788528 0.262135 0.5
136 37 0.813193 0.283774 0.5
356 25 0.834807 0.258804 0.5
377 27 0.847408 0.286153 0.5
44 33 0.866136 0.259722 0.5
530 29 0.88455 0.285079 0.5
544 28 0.903075 0.256859 0.5
264 31 0.917784 0.28665 0.5
615 28 0.934479 0.254899 0.5
589 24 0.94912 0.284526 0.5
662 32 0.967284 0.259994 0.5
803 31 1.00251 0.259206 0.5
806 27 0.985906 0.284989 0.5
345 32 0.0746991 0.312894 0.5
776 31 0.0346961 0.311763 0.5
897 31 0.0544644 0.339488 0.5
132 31 0.0208011 0.3406 0.5
881 27 0.107988 0.314166 0.5
252 35 0.090401 0.342812 0.5
87 28 0.122734 0.344243 0.5
120 30 0.142061 0.317753 0.5
917 39 0.15502 0.349843 0.5
196 31 0.173386 0.318687 0.5
179 31 0.191517 0.35042 0.5
140 30 0.209224 0.322086 0.5
786 38 0.225334 0.353648 0.5
550 25 0.239449 0.32336 0.5
532 28 0.258549 0.355554 0.5
856 28 0.270184 0.326301 0.5
564 27 0.291648 0.351592 0.5
651 24 0.301741 0.321958 0.5
556 29 0.322698 0.349092 0.5
607 37 0.363048 0.312194 0.5
690 27 0.330406 0.319909 0.5
728 34 0.355599 0.346729 0.5
621 27 0.387623 0.338854 0.5
753 32 0.399379 0.309864 0.5
914 25 0.434201 0.307787 0.5
658 35 0.420359 0.336533 0.5
96 30 0.439515 0.364073 0.5
794 31 0.453213 0.331641 0.5
841 31 0.487638 0.327038 0.5
734 32 0.47643 0.358639 0.5
73 31 0.510953 0.353617 0.5
368 33 0.523089 0.322402 0.5
674 28 0.555766 0.317872 0.5
174 31 0.543712 0.346961 0.5
581 23 0.575601 0.345519 0.5
21 31 0.588105 0.316547 0.5
443 28 0.621272 0.312791 0.5
500 41 0.610399 0.344252 0.5
426 23 0.641742 0.351107 0.5
265 41 0.657359 0.317834 0.5
176 33 0.693167 0.320854 0.5
309 34 0.673325 0.351747 0.5
557 37 0.708016 0.352225 0.5
317 37 0.726734 0.319069 0.5
540 35 0.763205 0.318251 0.5
679 42 0.747353 0.351838 0.5
381 32 0.783552 0.345992 0.5
529 28 0.797591 0.316673 0.5
578 29 0.816214 0.348663 0.5
952 34 0.830233 0.316764 0.5
12 34 0.850222 0.347594 0.5
364 32 0.864961 0.314941 0.5
177 24 0.882115 0.345654 0.5
210 28 0.935728 0.314681 0.5
901 37 0.901457 0.31543 0.5
855 31 0.917946 0.344112 0.5
661 30 0.949871 0.344026 0.5
346 29 0.965939 0.309735 0.5
574 22 1.00252 0.311337 0.5
326 43 0.98471 0.339256 0.5
618 35 0.0372469 0.370728 0.5
259 20 0.0524167 0.39636 0.5
188 31 0.0197368 0.401459 0.5
792 31 0.109459 0.372494 0.5
369 35 0.0724204 0.373727 0.5
686 30 0.0722408 0.421653 0.5
555 30 0.0951653 0.400612 0.5
428 28 0.140792 0.381177 0.5
233 27 0.124487 0.408761 0.5
815 30 0.156616 0.409836 0.5
812 27 0.176687 0.383094 0.5
902 30 0.191468 0.41317 0.5
787 27 0.209288 0.384662 0.5
162 32 0.226964 0.416116 0.5
427 31 0.241257 0.38378 0.5
720 28 0.2599 0.408168 0.5
273 28 0.277396 0.379958 0.5
965 29 0.310484 0.381107 0.5
754 31 0.292575 0.406627 0.5
303 29 0.342702 0.376959 0.5
331 26 0.375335 0.371706 0.5
888 28 0.32725 0.40802 0.5
333 30 0.360039 0.40361 0.5
645 33 0.40525 0.368351 0.5
201 34 0.392857 0.400946 0.5
977 35 0.428952 0.397882 0.5
105 31 0.450238 0.424744 0.5
664 32 0.462633 0.390185 0.5
626 35 0.49819 0.384356 0.5
421 34 0.48316 0.415361 0.5
434 24 0.560765 0.372194 0.5
491 30 0.519039 0.409922 0.5
72 26 0.530141 0.379848 0.5
988 20 0.574287 0.398144 0.5
424 23 0.548792 0.402759 0.5
566 31 0.567743 0.426377 0.5
497 32 0.592081 0.374479 0.5
821 26 0.623993 0.376584 0.5
402 37 0.605202 0.408657 0.5
94 25 0.640512 0.411322 0.5
740 34 0.65561 0.384163 0.5
730 31 0.688188 0.381289 0.5
112 25 0.672514 0.411544 0.5
100 33 0.70345 0.409701 0.5
383 35 0.728871 0.383615 0.5
6 15 0.756431 0.399496 0.5
156 25 0.733454 0.415794 0.5
375 30 0.77278 0.37735 0.5
278 33 0.783115 0.41008 0.5
39 27 0.80202 0.378529 0.5
141 32 0.815384 0.409424 0.5
879 33 0.866261 0.376506 0.5
353 29 0.833633 0.37846 0.5
652 41 0.852275 0.410044 0.5
698 21 0.885697 0.40192 0.5
283 36 0.902835 0.3727 0.5
41 31 0.935399 0.37339 0.5
85 23 0.919843 0.400797 0.5
2 28 0.948998 0.402828 0.5
456 31 0.968829 0.372684 0.5
606 34 1.00252 0.372477 0.5
336 35 0.985884 0.402346 0.5
191 36 0.0401698 0.426368 0.5
929 33 0.0643948 0.452903 0.5
951 29 0.0561571 0.484453 0.5
288 35 0.0312727 0.461439 0.5
26 39 0.0922223 0.471234 0.5
764 37 0.103171 0.434416 0.5
95 32 0.129193 0.469421 0.5
8 25 0.137322 0.436195 0.5
885 25 0.163247 0.472987 0.5
357 36 0.17076 0.440437 0.5
793 29 0.195826 0.470435 0.5
620 28 0.206858 0.44026 0.5
636 22 0.243406 0.444735 0.5
837 33 0.227446 0.470944 0.5
92 28 0.258614 0.470537 0.5
232 27 0.312579 0.438246 0.5
707 45 0.277003 0.439644 0.5
65 31 0.297988 0.469986 0.5
275 32 0.382823 0.432569 0.5
36 37 0.346245 0.435288 0.5
228 27 0.332119 0.464624 0.5
361 33 0.365061 0.465599 0.5
875 34 0.415135 0.430985 0.5
616 30 0.40016 0.463368 0.5
692 28 0.433278 0.456583 0.5
384 41 0.42268 0.492486 0.5
587 36 0.459596 0.477391 0.5
296 30 0.473732 0.445763 0.5
101 27 0.507239 0.438066 0.5
504 39 0.498057 0.47168 0.5
814 31 0.537954 0.436722 0.5
665 41 0.53621 0.473168 0.5
251 32 0.567469 0.458683 0.5
157 32 0.570261 0.491218 0.5
476 22 0.593587 0.440416 0.5
478 29 0.624952 0.438506 0.5
1000 35 0.600812 0.474177 0.5
727 36 0.639615 0.469912 0.5
83 31 0.656686 0.439633 0.5
531 26 0.687041 0.439687 0.5
892 23 0.674438 0.466741 0.5
519 24 0.705115 0.465643 0.5
471 25 0.717145 0.440003 0.5
166 30 0.740001 0.460006 0.5
887 32 0.759067 0.433299 0.5
289 22 0.771549 0.464603 0.5
343 33 0.792969 0.489745 0.5
625 32 0.795242 0.441343 0.5
341 25 0.814911 0.466606 0.5
980 28 0.830372 0.439257 0.5
723 29 0.845972 0.472752 0.5
822 35 0.864214 0.445802 0.5
713 37 0.882907 0.475723 0.5
548 36 0.896037 0.429522 0.5
313 33 0.932102 0.42998 0.5
545 38 0.915212 0.461033 0.5
716 30 0.950821 0.458028 0.5
781 29 0.96624 0.429316 0.5
586 42 1.00363 0.434194 0.5
480 26 0.972868 0.483837 0.5
973 22 0.979102 0.455939 0.5
807 23 1.00174 0.474598 0.5
959 27 0.0239386 0.495629 0.5
748 35 0.0480392 0.518602 0.5
234 34 0.0744812 0.542722 0.5
946 30 0.0415735 0.55183 0.5
534 33 0.0150406 0.529679 0.5
631 30 0.0807291 0.50477 0.5
212 25 0.101331 0.526146 0.5
628 31 0.113834 0.498858 0.5
687 33 0.133888 0.526455 0.5
709 30 0.179772 0.498522 0.5
783 26 0.146268 0.498472 0.5
60 27 0.165414 0.527419 0.5
111 28 0.197254 0.524493 0.5
942 26 0.211985 0.498021 0.5
765 24 0.245441 0.49677 0.5
51 31 0.228707 0.522705 0.5
154 28 0.262248 0.526114 0.5
785 33 0.313908 0.498998 0.5
524 33 0.279637 0.498999 0.5
925 23 0.296969 0.526955 0.5
563 35 0.346876 0.497577 0.5
300 36 0.384499 0.495506 0.5
541 33 0.330531 0.529733 0.5
458 36 0.367567 0.527632 0.5
306 27 0.400563 0.52418 0.5
20 35 0.434052 0.529273 0.5
77 20 0.455558 0.508251 0.5
549 30 0.471794 0.534728 0.5
593 25 0.483554 0.503961 0.5
42 40 0.507831 0.533218 0.5
771 26 0.515357 0.500429 0.5
348 27 0.543031 0.508808 0.5
411 31 0.541648 0.540427 0.5
347 44 0.576884 0.529538 0.5
958 23 0.598367 0.504243 0.5
125 30 0.627916 0.5017 0.5
893 30 0.612874 0.534129 0.5
206 32 0.659821 0.499186 0.5
110 30 0.691269 0.494564 0.5
866 29 0.645159 0.531992 0.5
9 28 0.674578 0.528406 0.5
17 27 0.724008 0.492337 0.5
418 34 0.756779 0.49105 0.5
904 34 0.708872 0.523143 0.5
760 26 0.741219 0.52021 0.5
282 27 0.763794 0.547039 0.5
277 26 0.774001 0.517728 0.5
974 26 0.803701 0.519575 0.5
590 25 0.795858 0.548242 0.5
983 32 0.828354 0.541057 0.5
553 32 0.831315 0.503211 0.5
438 27 0.864303 0.501424 0.5
135 29 0.860602 0.535234 0.5
818 25 0.910592 0.495346 0.5
632 30 0.940699 0.489881 0.5
725 38 0.894311 0.523094 0.5
579 28 0.930423 0.520676 0.5
575 32 0.952477 0.550214 0.5
512 31 0.961253 0.514203 0.5
465 27 0.993387 0.506585 0.5
790 32 0.984081 0.538828 0.5
971 20 0.0621186 0.572895 0.5
109 42 0.0680262 0.604221 0.5
684 25 0.0351297 0.585114 0.5
791 27 0.115316 0.552085 0.5
22 34 0.0931252 0.576726 0.5
594 33 0.128349 0.586581 0.5
830 29 0.10373 0.607398 0.5
422 30 0.147542 0.559184 0.5
913 29 0.159458 0.5899 0.5
882 36 0.184968 0.565684 0.5
750 32 0.190769 0.598556 0.5
116 23 0.213397 0.54966 0.5
423 34 0.243771 0.553274 0.5
82 33 0.220468 0.579654 0.5
714 29 0.225689 0.611293 0.5
410 40 0.25444 0.587952 0.5
833 33 0.278965 0.552607 0.5
702 28 0.310951 0.556145 0.5
722 33 0.292355 0.582955 0.5
506 37 0.347164 0.559544 0.5
693 29 0.380355 0.557427 0.5
40 39 0.328135 0.592756 0.5
412 29 0.362615 0.591072 0.5
349 40 0.415299 0.557972 0.5
117 31 0.451197 0.56002 0.5
956 33 0.394864 0.587902 0.5
266 35 0.431991 0.589516 0.5
406 30 0.485591 0.56336 0.5
126 32 0.469345 0.591797 0.5
371 29 0.503683 0.591409 0.5
62 28 0.52192 0.566252 0.5
543 33 0.519791 0.617923 0.5
432 29 0.563446 0.563426 0.5
767 39 0.543909 0.593961 0.5
133 32 0.579483 0.592754 0.5
688 27 0.596201 0.562913 0.5
805 27 0.629704 0.561099 0.5
928 33 0.612353 0.591721 0.5
70 28 0.661368 0.557667 0.5
431 31 0.693299 0.555375 0.5
619 32 0.645667 0.589273 0.5
772 32 0.680766 0.585203 0.5
394 29 0.669235 0.615225 0.5
43 35 0.729481 0.553361 0.5
267 27 0.704926 0.613426 0.5
910 30 0.715785 0.584654 0.5
711 34 0.7513 0.577961 0.5
46 34 0.737356 0.610326 0.5
118 26 0.770932 0.607105 0.5
47 31 0.782813 0.576244 0.5
916 25 0.814535 0.573552 0.5
999 36 0.802662 0.602989 0.5
294 29 0.882049 0.558326 0.5
338 29 0.849242 0.564693 0.5
633 30 0.835565 0.596805 0.5
35 37 0.871608 0.59119 0.5
533 35 0.91541 0.551283 0.5
911 29 0.905973 0.586051 0.5
585 32 0.93849 0.580957 0.5
495 33 0.97611 0.57696 0.5
869 32 0.960159 0.605376 0.5
600 35 1.0094 0.565624 0.5
503 37 0.997704 0.604784 0.5
726 29 0.0329559 0.616005 0.5
401 25 0.0564845 0.636583 0.5
359 34 0.0625722 0.668741 0.5
205 27 0.0321112 0.656832 0.5
680 29 0.134872 0.617196 0.5
344 21 0.0870372 0.631791 0.5
624 24 0.0927902 0.66197 0.5
641 29 0.113758 0.641066 0.5
399 34 0.143256 0.653843 0.5
352 27 0.163951 0.624139 0.5
447 36 0.176777 0.661674 0.5
127 23 0.254608 0.620715 0.5
342 39 0.197635 0.632997 0.5
7 35 0.211092 0.666346 0.5
10 29 0.234616 0.641982 0.5
151 37 0.284931 0.616178 0.5
129 36 0.267943 0.651946 0.5
668 23 0.315835 0.623597 0.5
48 25 0.298838 0.647644 0.5
948 36 0.349803 0.623668 0.5
475 26 0.383843 0.616236 0.5
883 35 0.32899 0.653078 0.5
226 31 0.361959 0.654949 0.5
446 28 0.414991 0.617233 0.5
45 28 0.449284 0.620122 0.5
128 31 0.393796 0.645587 0.5
634 18 0.40857 0.668637 0.5
576 33 0.43091 0.645538 0.5
25 33 0.484771 0.620564 0.5
246 33 0.467237 0.650732 0.5
470 29 0.502718 0.645627 0.5
321 31 0.493391 0.673911 0.5
79 37 0.561092 0.626967 0.5
758 22 0.534161 0.64356 0.5
108 33 0.527307 0.674257 0.5
23 28 0.558208 0.66507 0.5
281 25 0.596972 0.621889 0.5
870 30 0.631255 0.620895 0.5
595 35 0.586722 0.653556 0.5
560 29 0.621292 0.648776 0.5
163 26 0.606235 0.679957 0.5
691 38 0.654509 0.647926 0.5
318 35 0.689887 0.643493 0.5
573 30 0.675126 0.675622 0.5
810 31 0.709873 0.669631 0.5
850 23 0.723543 0.639692 0.5
678 30 0.755378 0.639476 0.5
474 28 0.74259 0.667534 0.5
311 28 0.787185 0.633459 0.5
324 38 0.778217 0.664445 0.5
968 37 0.821363 0.634849 0.5
853 20 0.811424 0.662149 0.5
137 33 0.85472 0.625693 0.5
784 28 0.843496 0.657283 0.5
187 33 0.880059 0.652475 0.5
271 30 0.92531 0.61431 0.5
867 37 0.892769 0.620311 0.5
489 22 0.912016 0.64792 0.5
696 27 0.94052 0.641942 0.5
675 27 0.960074 0.666909 0.5
906 38 0.97364 0.637593 0.5
240 29 1.00945 0.635506 0.5
190 39 0.996836 0.667431 0.5
213 32 0.0286637 0.689266 0.5
450 24 0.0576776 0.700367 0.5
261 38 0.067298 0.730275 0.5
146 25 0.0328611 0.720199 0.5
186 31 0.118806 0.677522 0.5
789 28 0.0900302 0.692923 0.5
207 31 0.101186 0.720833 0.5
468 27 0.129191 0.709633 0.5
204 34 0.153897 0.686779 0.5
351 31 0.159628 0.718114 0.5
441 30 0.186884 0.696361 0.5
739 42 0.195361 0.732608 0.5
284 35 0.244872 0.67821 0.5
286 31 0.219252 0.701715 0.5
29 29 0.257076 0.710143 0.5
547 33 0.232808 0.73389 0.5
11 37 0.311282 0.683686 0.5
985 25 0.277607 0.68393 0.5
640 37 0.291715 0.714841 0.5
507 29 0.326529 0.719494 0.5
804 29 0.381445 0.681489 0.5
152 34 0.344782 0.686874 0.5
32 22 0.356934 0.716194 0.5
800 23 0.383117 0.712257 0.5
572 34 0.438274 0.677231 0.5
486 37 0.409821 0.697675 0.5
638 47 0.413266 0.735287 0.5
370 37 0.445375 0.712842 0.5
479 21 0.467509 0.686397 0.5
604 22 0.474294 0.741159 0.5
826 30 0.481501 0.711402 0.5
732 28 0.505024 0.73506 0.5
323 30 0.513587 0.704933 0.5
481 30 0.545521 0.699919 0.5
454 32 0.537402 0.729801 0.5
49 27 0.570826 0.722901 0.5
915 27 0.576985 0.68809 0.5
864 25 0.597337 0.710226 0.5
899 23 0.623817 0.70502 0.5
404 31 0.614241 0.735606 0.5
297 30 0.636183 0.678072 0.5
816 32 0.657317 0.706025 0.5
997 34 0.69101 0.702309 0.5
484 34 0.680085 0.735623 0.5
759 36 0.714829 0.729534 0.5
683 34 0.761458 0.695083 0.5
322 23 0.729364 0.69804 0.5
64 31 0.750056 0.726103 0.5
584 25 0.781778 0.719373 0.5
295 33 0.797594 0.691475 0.5
601 31 0.817706 0.716577 0.5
119 29 0.83202 0.686577 0.5
546 32 0.865908 0.681648 0.5
496 30 0.885642 0.707275 0.5
862 25 0.85229 0.710453 0.5
778 24 0.897818 0.678876 0.5
231 32 0.927636 0.675188 0.5
777 27 0.917331 0.704699 0.5
134 34 0.938834 0.733769 0.5
960 40 0.954837 0.700751 0.5
237 35 0.973652 0.732451 0.5
918 39 0.995677 0.705334 0.5
970 22 1.0088 0.735313 0.5
248 26 0.0648399 0.765231 0.5
19 28 0.0500139 0.789929 0.5
827 40 0.0324085 0.757772 0.5
801 26 0.0102541 0.789404 0.5
972 29 0.128541 0.742202 0.5
854 28 0.0833421 0.788828 0.5
992 37 0.0942154 0.755584 0.5
74 35 0.116947 0.781434 0.5
1 26 0.159698 0.748226 0.5
160 29 0.147886 0.775215 0.5
472 27 0.181058 0.769164 0.5
320 33 0.202636 0.79378 0.5
907 27 0.213099 0.762376 0.5
145 25 0.243434 0.762294 0.5
419 33 0.236217 0.794352 0.5
386 36 0.273447 0.747378 0.5
460 34 0.309604 0.751727 0.5
872 39 0.268792 0.784743 0.5
954 24 0.299718 0.783064 0.5
13 31 0.344262 0.746249 0.5
796 26 0.376272 0.73968 0.5
99 25 0.331517 0.777213 0.5
15 33 0.363691 0.773931 0.5
388 26 0.44607 0.747485 0.5
890 33 0.397573 0.769837 0.5
840 26 0.428977 0.77278 0.5
523 22 0.413126 0.796793 0.5
304 28 0.443903 0.802445 0.5
198 35 0.463308 0.776008 0.5
602 25 0.491354 0.760897 0.5
209 26 0.496896 0.788058 0.5
825 36 0.526156 0.761749 0.5
908 21 0.523247 0.792374 0.5
334 33 0.559625 0.754742 0.5
184 27 0.554359 0.786152 0.5
123 18 0.589366 0.748924 0.5
932 27 0.583626 0.775662 0.5
820 29 0.613681 0.767277 0.5
755 25 0.610343 0.797578 0.5
570 34 0.645242 0.742894 0.5
56 27 0.640358 0.782073 0.5
522 35 0.670947 0.768779 0.5
436 31 0.696184 0.791981 0.5
635 23 0.702466 0.759389 0.5
605 24 0.737231 0.754911 0.5
435 23 0.750598 0.78113 0.5
695 21 0.723422 0.777548 0.5
195 37 0.802974 0.746927 0.5
681 24 0.769337 0.749969 0.5
269 32 0.784862 0.778128 0.5
880 40 0.825561 0.776469 0.5
599 33 0.839467 0.743512 0.5
981 30 0.87271 0.738553 0.5
612 27 0.860013 0.768879 0.5
93 42 0.87558 0.800327 0.5
878 32 0.904219 0.737401 0.5
842 28 0.890882 0.768094 0.5
861 35 0.924322 0.765297 0.5
630 32 0.947521 0.791743 0.5
308 26 0.956292 0.760653 0.5
868 38 0.992408 0.762311 0.5
613 27 0.979655 0.793891 0.5
876 31 0.0683982 0.817577 0.5
539 31 0.05142 0.846815 0.5
477 31 0.0355047 0.819352 0.5
149 27 0.0175396 0.852532 0.5
433 25 0.137052 0.807515 0.5
610 30 0.0850044 0.845643 0.5
947 33 0.10246 0.816485 0.5
731 35 0.129907 0.838219 0.5
627 33 0.168315 0.80052 0.5
865 22 0.159487 0.831225 0.5
721 27 0.188392 0.833053 0.5
984 32 0.171446 0.858738 0.5
639 22 0.20885 0.855642 0.5
316 38 0.220751 0.824629 0.5
417 25 0.254532 0.821987 0.5
909 28 0.240528 0.850809 0.5
235 35 0.319626 0.808789 0.5
554 29 0.273864 0.845018 0.5
220 30 0.285665 0.813883 0.5
449 26 0.306169 0.841193 0.5
808 26 0.351447 0.805888 0.5
437 32 0.383171 0.803524 0.5
717 30 0.337304 0.836891 0.5
391 25 0.365889 0.830563 0.5
921 37 0.360722 0.862233 0.5
78 20 0.392578 0.835545 0.5
667 27 0.39488 0.863119 0.5
526 30 0.419679 0.824708 0.5
150 38 0.428065 0.856489 0.5
937 32 0.476248 0.809817 0.5
59 23 0.509209 0.816205 0.5
230 31 0.453946 0.831657 0.5
189 13 0.460108 0.861538 0.5
256 33 0.48603 0.846235 0.5
159 34 0.580074 0.807536 0.5
362 32 0.519263 0.845062 0.5
3 33 0.542067 0.817375 0.5
782 28 0.56603 0.838969 0.5
708 26 0.578417 0.865916 0.5
774 33 0.632648 0.820032 0.5
185 36 0.60228 0.837893 0.5
327 31 0.635175 0.853313 0.5
335 33 0.664742 0.802614 0.5
158 35 0.697976 0.826756 0.5
354 34 0.662877 0.835993 0.5
520 31 0.68864 0.858511 0.5
254 33 0.728161 0.807593 0.5
292 28 0.719292 0.849958 0.5
654 25 0.744618 0.836207 0.5
88 41 0.769374 0.811841 0.5
319 29 0.805366 0.804597 0.5
221 23 0.769697 0.851674 0.5
50 32 0.796095 0.834515 0.5
463 26 0.826926 0.838058 0.5
392 30 0.839837 0.808796 0.5
200 34 0.863155 0.833596 0.5
98 35 0.911495 0.796825 0.5
285 30 0.897312 0.82961 0.5
459 36 0.93226 0.825507 0.5
502 25 0.917259 0.854264 0.5
514 25 0.950648 0.85621 0.5
643 28 0.964845 0.822983 0.5
724 40 0.99951 0.823082 0.5
398 37 0.982542 0.853605 0.5
747 24 0.0679096 0.875357 0.5
224 30 0.0349917 0.877638 0.5
462 29 0.0545964 0.902303 0.5
873 32 0.0211963 0.907926 0.5
387 29 0.109837 0.865133 0.5
466 42 0.0918356 0.898591 0.5
131 28 0.126848 0.894275 0.5
987 35 0.113263 0.927065 0.5
247 24 0.141462 0.868016 0.5
617 33 0.145521 0.920179 0.5
567 29 0.160643 0.888855 0.5
315 28 0.193029 0.88281 0.5
565 27 0.182255 0.91205 0.5
287 35 0.226734 0.88064 0.5
552 30 0.21337 0.908713 0.5
811 26 0.263414 0.878056 0.5
194 31 0.247424 0.908184 0.5
775 33 0.294367 0.871142 0.5
255 29 0.281393 0.903237 0.5
989 34 0.31586 0.897272 0.5
657 25 0.327212 0.867274 0.5
86 30 0.349096 0.895772 0.5
222 33 0.382092 0.892311 0.5
330 27 0.371111 0.922369 0.5
863 26 0.403177 0.920082 0.5
339 36 0.416401 0.889947 0.5
884 36 0.451757 0.887278 0.5
366 29 0.436182 0.917614 0.5
525 26 0.513458 0.877048 0.5
735 28 0.483365 0.878587 0.5
494 23 0.469407 0.916315 0.5
741 34 0.500775 0.907541 0.5
598 34 0.545315 0.865123 0.5
69 35 0.534985 0.900576 0.5
302 26 0.564946 0.89403 0.5
268 43 0.558005 0.927582 0.5
482 29 0.609869 0.871198 0.5
30 32 0.597457 0.900262 0.5
337 29 0.634812 0.888865 0.5
373 35 0.625421 0.921807 0.5
978 23 0.660737 0.873444 0.5
919 24 0.658477 0.912118 0.5
926 34 0.685086 0.893072 0.5
340 22 0.74667 0.865313 0.5
588 26 0.712264 0.911607 0.5
183 28 0.71723 0.881099 0.5
836 29 0.743161 0.897748 0.5
719 23 0.736744 0.928704 0.5
258 38 0.808128 0.867515 0.5
945 34 0.769958 0.916007 0.5
501 34 0.775588 0.88128 0.5
396 31 0.802549 0.903831 0.5
843 34 0.846201 0.864395 0.5
236 41 0.887303 0.865331 0.5
142 31 0.833489 0.897723 0.5
515 29 0.864444 0.89221 0.5
969 29 0.898619 0.898713 0.5
697 36 0.930978 0.888001 0.5
889 28 0.921624 0.923863 0.5
647 30 0.952898 0.917472 0.5
931 30 0.964769 0.885252 0.5
238 25 1.00336 0.880654 0.5
262 32 0.98602 0.909113 0.5
894 27 0.0399128 0.933441 0.5
279 32 0.0632353 0.958431 0.5
685 30 0.0304415 0.965794 0.5
518 30 0.0758199 0.930445 0.5
706 32 0.0878195 0.988047 0.5
161 27 0.0969164 0.955493 0.5
67 30 0.134959 0.951053 0.5
490 32 0.119493 0.981214 0.5
455 31 0.155703 0.973928 0.5
257 33 0.167779 0.941416 0.5
180 33 0.190451 0.969256 0.5
197 29 0.202828 0.938755 0.5
659 35 0.223341 0.965381 0.5
718 20 0.237736 0.937096 0.5
439 28 0.25494 0.966732 0.5
218 23 0.265538 0.932976 0.5
670 34 0.302515 0.930958 0.5
53 35 0.287073 0.959839 0.5
442 35 0.324919 0.958819 0.5
535 25 0.335539 0.925338 0.5
14 29 0.345662 0.985725 0.5
517 36 0.357273 0.950622 0.5
61 32 0.376736 0.980537 0.5
5 33 0.391938 0.948748 0.5
148 34 0.410265 0.978922 0.5
835 33 0.424599 0.947162 0.5
453 25 0.44394 0.973834 0.5
537 27 0.489383 0.938595 0.5
122 30 0.458929 0.945287 0.5
896 29 0.478314 0.969286 0.5
355 31 0.509137 0.966752 0.5
395 28 0.520394 0.93271 0.5
817 35 0.540623 0.963312 0.5
773 21 0.571944 0.960321 0.5
798 34 0.566109 0.989932 0.5
153 37 0.593637 0.937332 0.5
467 31 0.598494 0.975446 0.5
746 24 0.623801 0.955407 0.5
527 28 0.683986 0.926338 0.5
147 30 0.652916 0.942244 0.5
562 37 0.647732 0.976278 0.5
558 31 0.679644 0.961497 0.5
52 37 0.710532 0.946195 0.5
243 33 0.706196 0.980216 0.5
314 31 0.762054 0.948592 0.5
975 27 0.736772 0.969558 0.5
528 33 0.763953 0.9837 0.5
780 29 0.822147 0.931999 0.5
299 25 0.789001 0.962652 0.5
656 21 0.793199 0.933412 0.5
839 27 0.817664 0.96067 0.5
757 38 0.85564 0.927358 0.5
75 21 0.847272 0.958355 0.5
38 29 0.876589 0.959169 0.5
660 28 0.868474 0.990081 0.5
143 30 0.89111 0.930469 0.5
34 31 0.899952 0.985306 0.5
219 28 0.911719 0.955544 0.5
663 33 0.942693 0.948291 0.5
378 31 0.932912 0.980351 0.5
642 31 1.00996 0.939325 0.5
223 19 0.960408 0.976099 0.5
922 36 0.975747 0.942543 0.5
828 29 0.999107 0.968659 0.5
