ITEM: TIMESTEP
1510000
ITEM: NUMBER OF ATOMS
1000
ITEM: BOX BOUNDS pp pp pp
-1.6508578000000000e+01 1.6508578000000000e+01
-1.6508578000000000e+01 1.6508578000000000e+01
-5.0000000000000000e-01 5.0000000000000000e-01
ITEM: ATOMS id type xs ys zs
155 30 0.0146632 0.043832 0.536434
242 33 0.046813 0.0257727 0.536971
976 27 0.043137 0.0570257 0.422668
663 31 0.0249629 0.000897438 0.576353
685 30 0.0722191 0.0438721 0.527616
448 31 0.10362 0.0317986 0.555849
298 34 0.0762003 0.0110912 0.485957
754 31 0.133897 0.0257465 0.3541
290 31 0.159723 0.0473226 0.461424
694 31 0.169286 0.0157008 0.517485
498 30 0.10876 0.000286334 0.453946
813 30 0.191037 0.0377125 0.413286
37 30 0.202848 0.00206251 0.49448
903 31 0.220709 0.0286974 0.341736
247 28 0.249891 0.0173236 0.519842
81 29 0.252969 0.0496909 0.527385
442 32 0.220171 0.0599062 0.477933
193 29 0.280261 0.0322506 0.39714
996 29 0.319601 0.0224464 0.518272
487 30 0.308779 0.0560824 0.601068
227 31 0.350313 0.016923 0.504385
325 31 0.341936 0.0487186 0.802864
927 31 0.378295 0.0326818 0.605808
673 29 0.382995 0.00175413 0.320393
559 31 0.409678 0.0217683 0.554744
493 28 0.435972 0.0474151 0.51503
203 34 0.446392 0.0124301 0.532293
871 30 0.469055 0.0351027 0.579847
14 30 0.495719 0.0592678 0.371127
896 30 0.496951 0.0234255 0.400505
961 30 0.527296 0.0116607 0.679089
607 33 0.523794 0.0432656 0.481415
104 28 0.560706 0.0276994 0.690826
551 30 0.593584 0.0196311 0.521523
795 33 0.582151 0.0500857 0.260884
16 31 0.612646 0.0438967 0.541632
425 31 0.64674 0.033025 0.321472
699 27 0.624066 0.0103251 0.520804
737 32 0.675896 0.0165709 0.526988
317 33 0.705727 0.0435643 0.381695
307 31 0.674091 0.0481764 0.356532
312 34 0.72381 0.0105089 0.500125
779 33 0.748211 0.0349013 0.412544
986 30 0.788589 0.00916108 0.481786
408 29 0.779762 0.0412243 0.478442
158 32 0.817068 0.0264128 0.407922
270 31 0.835053 0.0530166 0.458841
138 31 0.846696 0.0150864 0.538509
561 31 0.866871 0.0392081 0.581063
63 30 0.87923 0.00604223 0.411359
356 28 0.902514 0.0271456 0.406457
208 31 0.929574 0.0170513 0.697765
365 29 0.924138 0.0476618 0.599088
68 31 0.896723 0.0608241 0.338246
676 31 0.981802 0.0528031 0.536712
589 28 0.959642 0.0297511 0.529843
379 29 0.993973 0.0162947 0.430836
712 30 0.0332649 0.0908608 0.613039
964 32 0.00631167 0.0736087 0.48134
170 32 0.0083124 0.110436 0.433191
513 29 0.0962006 0.0678007 0.335541
766 30 0.0628699 0.0809475 0.583734
97 27 0.0898505 0.100085 0.520157
614 30 0.0634854 0.112831 0.588267
770 35 0.127629 0.0579236 0.471029
18 35 0.123565 0.102739 0.502574
216 35 0.155588 0.079293 0.623757
517 33 0.189606 0.0690737 0.546148
367 29 0.218354 0.0915786 0.353461
245 27 0.187949 0.102733 0.476214
706 31 0.247789 0.0827343 0.458859
564 29 0.244855 0.11404 0.496636
389 34 0.276458 0.0991311 0.488479
511 33 0.280298 0.0646834 0.291417
280 34 0.307781 0.0879623 0.389002
809 29 0.333726 0.113026 0.446845
847 33 0.340339 0.0802079 0.454852
802 32 0.369422 0.0635232 0.422991
239 32 0.370009 0.097982 0.332999
991 31 0.404974 0.0546164 0.647824
274 29 0.403004 0.0875601 0.695976
181 31 0.432066 0.0798898 0.501552
464 30 0.426153 0.110831 0.482851
372 29 0.458236 0.1003 0.419636
763 32 0.461114 0.0683027 0.609959
845 29 0.489318 0.0913303 0.502609
492 34 0.550076 0.0628277 0.408356
900 28 0.518635 0.0785925 0.509965
174 31 0.547147 0.094254 0.592139
769 30 0.513051 0.110284 0.500377
799 29 0.576531 0.0848226 0.411487
568 31 0.597465 0.107038 0.507918
413 29 0.60637 0.0751465 0.637572
358 29 0.631127 0.0932017 0.450564
57 31 0.637918 0.0636061 0.608462
761 30 0.66574 0.0814938 0.486397
103 31 0.700888 0.0759759 0.406445
100 32 0.727167 0.10097 0.411277
603 30 0.687595 0.103457 0.691991
499 26 0.763773 0.0697529 0.631137
677 34 0.73225 0.0646848 0.487134
211 26 0.758325 0.0980581 0.270653
994 30 0.804451 0.0583893 0.600319
644 30 0.789297 0.0860072 0.62921
653 28 0.813662 0.109068 0.438161
574 27 0.826511 0.0823684 0.517613
838 27 0.861618 0.0736007 0.360447
933 30 0.852114 0.10154 0.556798
382 33 0.888185 0.0919497 0.481288
249 32 0.91993 0.0826813 0.547793
569 31 0.950739 0.0652415 0.59654
939 33 0.97617 0.0840828 0.527533
700 29 0.945485 0.099545 0.489236
705 30 0.034568 0.127669 0.401546
849 32 0.0014286 0.145548 0.629655
648 28 0.0283058 0.164693 0.499917
662 31 0.090182 0.131086 0.5711
143 30 0.0622444 0.144266 0.562719
936 28 0.085981 0.162 0.439389
252 32 0.156347 0.11198 0.431186
199 33 0.121263 0.140206 0.460489
787 29 0.154632 0.143309 0.399758
488 29 0.183226 0.136727 0.577218
385 31 0.214023 0.125135 0.425149
596 29 0.20472 0.160644 0.434027
815 30 0.239217 0.147862 0.584708
54 30 0.270266 0.131731 0.556208
597 28 0.2616 0.169765 0.286157
403 28 0.294415 0.151429 0.489513
469 33 0.30478 0.120506 0.744225
169 27 0.331767 0.144045 0.540529
132 31 0.318761 0.170929 0.334373
608 30 0.360917 0.128559 0.47678
995 28 0.355278 0.162503 0.605272
856 29 0.382434 0.150626 0.388838
414 32 0.395597 0.117973 0.511884
671 28 0.416559 0.143369 0.590486
753 31 0.440256 0.1635 0.597677
73 31 0.447494 0.132084 0.337629
957 33 0.480727 0.122592 0.59943
440 34 0.471441 0.154041 0.504253
646 29 0.507507 0.14099 0.437471
402 33 0.537822 0.131677 0.581438
114 28 0.533465 0.162403 0.633164
944 30 0.567236 0.11967 0.316581
457 33 0.565287 0.149896 0.606245
834 31 0.59493 0.137898 0.612945
950 31 0.626873 0.127283 0.393975
225 32 0.653459 0.14743 0.658009
91 28 0.620498 0.157065 0.524406
582 30 0.656776 0.117405 0.394047
121 31 0.687665 0.135182 0.345166
508 29 0.718383 0.133422 0.578139
580 29 0.699738 0.167105 0.527233
530 30 0.747143 0.124709 0.604927
393 34 0.770795 0.148657 0.55197
768 31 0.783037 0.116275 0.5046
912 34 0.803575 0.141353 0.534558
571 36 0.83738 0.129452 0.266065
855 31 0.886127 0.124041 0.608113
456 31 0.884957 0.165414 0.408315
938 27 0.918077 0.113381 0.768481
529 30 0.911051 0.144131 0.458279
106 26 0.934851 0.16552 0.440894
733 33 0.942653 0.133138 0.573883
272 33 0.97453 0.119183 0.453211
115 27 0.990814 0.179639 0.593329
661 30 0.968927 0.154075 0.444541
2 30 0.0179829 0.198868 0.456816
346 30 0.0510891 0.202034 0.346325
886 29 0.00345249 0.226377 0.595107
350 25 0.0565862 0.173162 0.427277
210 29 0.0776461 0.192782 0.663461
202 34 0.102818 0.214369 0.338483
429 29 0.110853 0.180834 0.609295
24 30 0.139711 0.171291 0.500993
120 30 0.135465 0.211089 0.669157
66 31 0.174508 0.17002 0.47818
130 30 0.200016 0.190886 0.301811
124 29 0.171599 0.20479 0.680394
260 30 0.226739 0.212172 0.555653
837 31 0.233894 0.18157 0.519885
823 30 0.259771 0.201163 0.481626
902 30 0.283851 0.223326 0.556405
171 32 0.288368 0.183003 0.600117
966 28 0.318412 0.200778 0.466559
427 31 0.348572 0.197358 0.562305
273 29 0.381849 0.182104 0.550355
96 30 0.376931 0.222041 0.579248
621 29 0.411032 0.17311 0.546552
664 31 0.403235 0.206208 0.693085
701 33 0.43974 0.197514 0.389192
90 34 0.470328 0.18662 0.597677
728 32 0.501305 0.174641 0.409999
232 29 0.495097 0.207924 0.390082
434 28 0.524428 0.196225 0.414442
888 29 0.551934 0.22017 0.505342
497 31 0.590315 0.172549 0.380326
914 28 0.55807 0.187582 0.711384
263 30 0.58635 0.204791 0.426775
645 31 0.613411 0.220282 0.260434
424 27 0.613809 0.18987 0.642594
112 28 0.642411 0.181789 0.450474
368 31 0.642782 0.214537 0.532798
988 26 0.673152 0.184975 0.461989
666 31 0.690552 0.207847 0.6695
94 28 0.719989 0.188847 0.501574
217 31 0.73736 0.157588 0.519375
742 31 0.749933 0.187357 0.666102
887 31 0.77483 0.206154 0.613355
329 32 0.823686 0.168497 0.59066
832 35 0.791336 0.176145 0.713481
797 31 0.811743 0.201115 0.567805
521 31 0.855279 0.15724 0.524371
615 29 0.847018 0.186736 0.33574
611 33 0.875765 0.195724 0.567521
377 29 0.911585 0.184429 0.548367
803 31 0.933776 0.205434 0.578759
353 30 0.899619 0.217192 0.538474
310 32 0.958993 0.18631 0.479018
776 31 0.971963 0.215711 0.675843
729 27 0.0367854 0.233737 0.443536
545 34 0.0101606 0.260897 0.480734
557 33 0.0533354 0.262997 0.524151
618 33 0.0681363 0.22914 0.550943
751 28 0.0963173 0.244975 0.54197
542 31 0.087673 0.2743 0.523482
407 29 0.118699 0.279548 0.521607
652 35 0.128055 0.246719 0.550189
369 32 0.152711 0.268801 0.597431
736 28 0.196881 0.226145 0.365259
140 30 0.158051 0.232036 0.653136
881 29 0.181604 0.257718 0.45544
196 31 0.213771 0.279735 0.583622
967 28 0.252966 0.231415 0.431181
720 30 0.216875 0.249293 0.443527
897 31 0.248357 0.26208 0.589709
756 30 0.314471 0.235727 0.506222
794 31 0.280655 0.254789 0.53343
935 28 0.306602 0.27236 0.259973
376 34 0.336426 0.263988 0.394791
28 29 0.347728 0.232789 0.715144
668 27 0.371119 0.253374 0.506654
400 32 0.391009 0.276533 0.54449
651 28 0.399618 0.241776 0.436425
144 32 0.429891 0.227731 0.554671
707 37 0.423746 0.264003 0.602413
841 31 0.463571 0.221149 0.542545
357 33 0.455564 0.252004 0.493485
581 27 0.484109 0.265221 0.350205
77 26 0.524664 0.230325 0.545761
296 30 0.49517 0.237215 0.617682
452 32 0.549258 0.251016 0.493519
949 32 0.516781 0.25894 0.351056
348 29 0.578946 0.265387 0.381717
278 32 0.581021 0.235015 0.609171
500 35 0.613871 0.269036 0.526221
587 33 0.640601 0.249529 0.422483
637 29 0.722054 0.220088 0.691439
309 32 0.671967 0.263148 0.475732
251 31 0.669858 0.229844 0.384042
72 28 0.696603 0.242166 0.524655
874 33 0.70139 0.27301 0.714518
963 29 0.754094 0.228683 0.743034
384 35 0.727226 0.253007 0.502623
44 32 0.761684 0.256886 0.37751
265 35 0.793714 0.236344 0.48607
745 32 0.795047 0.271821 0.561369
12 32 0.826691 0.271344 0.483779
806 29 0.82551 0.240061 0.605154
606 32 0.846367 0.218015 0.468688
363 28 0.853096 0.254605 0.533428
859 34 0.880031 0.269034 0.337618
27 32 0.946386 0.234169 0.351972
6 24 0.871642 0.232625 0.582916
418 32 0.90808 0.249393 0.438542
762 31 0.980362 0.246257 0.446121
345 31 0.938517 0.265254 0.493087
283 33 0.0297488 0.287742 0.463029
548 33 0.0359596 0.319574 0.562027
259 26 0.0626149 0.29457 0.639142
686 30 0.103881 0.30999 0.445969
233 29 0.0669034 0.323567 0.430982
326 36 0.143645 0.304556 0.589679
405 30 0.169424 0.324134 0.480543
84 29 0.204473 0.312164 0.508371
851 31 0.177355 0.290058 0.449548
293 33 0.195913 0.341427 0.561311
672 31 0.230799 0.332431 0.541996
631 30 0.242644 0.294139 0.592728
167 29 0.268154 0.316251 0.476072
785 32 0.27189 0.284962 0.460412
532 30 0.299013 0.303567 0.572766
885 28 0.328956 0.294824 0.428103
87 30 0.359145 0.290302 0.651067
563 33 0.357197 0.321144 0.380689
333 30 0.390037 0.313014 0.513553
36 33 0.421502 0.302093 0.466021
162 31 0.405352 0.341126 0.483848
458 33 0.451008 0.283886 0.460653
201 32 0.461805 0.31834 0.568541
658 33 0.49182 0.33192 0.485052
491 30 0.487072 0.296704 0.43954
977 33 0.520817 0.296523 0.605652
4 31 0.551235 0.283942 0.597775
692 29 0.524062 0.335274 0.457142
893 30 0.545751 0.314906 0.334052
626 32 0.590142 0.293968 0.462161
549 30 0.590184 0.326648 0.443271
593 28 0.641616 0.28252 0.303587
125 30 0.619397 0.305422 0.599228
866 30 0.647608 0.318451 0.424595
206 31 0.670079 0.295837 0.47929
404 31 0.67937 0.3296 0.423681
531 29 0.704381 0.304797 0.499708
674 29 0.76727 0.288494 0.398737
21 31 0.731028 0.285866 0.479426
892 27 0.732399 0.317065 0.43019
426 27 0.760215 0.319735 0.582761
980 29 0.825169 0.307116 0.604866
360 25 0.78845 0.304655 0.688716
443 29 0.800279 0.33422 0.528099
416 32 0.853626 0.324245 0.491837
166 30 0.85233 0.288292 0.69174
901 33 0.880179 0.305599 0.629374
923 32 0.911334 0.281443 0.464299
879 32 0.912582 0.315767 0.529587
85 27 0.937082 0.296851 0.547247
544 29 0.966742 0.28474 0.334574
141 31 1.00059 0.32565 0.520876
244 30 0.994856 0.294011 0.433194
177 28 0.971126 0.316359 0.312603
911 30 0.022278 0.381921 0.475966
698 27 0.0187599 0.351137 0.449131
962 37 0.0508359 0.356104 0.484517
781 30 0.0909181 0.34709 0.505214
512 31 0.0792103 0.376741 0.523888
336 33 0.124206 0.33962 0.47194
428 29 0.109757 0.37054 0.475612
917 34 0.150253 0.359907 0.393058
8 28 0.180538 0.367896 0.521669
586 35 0.219507 0.366329 0.509566
687 31 0.252003 0.378404 0.352652
234 32 0.261738 0.346698 0.544426
882 33 0.29277 0.336414 0.641124
331 29 0.316214 0.358806 0.577942
616 30 0.282485 0.370735 0.396832
786 34 0.324643 0.325792 0.510267
965 30 0.377072 0.355106 0.573223
783 29 0.346757 0.350129 0.567798
620 29 0.37996 0.385103 0.388715
848 30 0.343869 0.381399 0.510936
690 29 0.413244 0.371061 0.4654
228 29 0.437258 0.339492 0.652012
875 32 0.44416 0.373253 0.533857
734 31 0.465827 0.34961 0.529229
665 35 0.476475 0.382424 0.459754
133 31 0.503539 0.361481 0.702689
421 32 0.533115 0.366598 0.374809
504 34 0.559848 0.342909 0.547622
730 31 0.589778 0.360526 0.52621
306 29 0.562377 0.376361 0.599212
23 29 0.592258 0.390506 0.632076
870 30 0.621999 0.337264 0.537691
899 27 0.621779 0.367309 0.625782
727 33 0.649438 0.35269 0.680673
17 29 0.654704 0.384978 0.3393
157 31 0.678853 0.363972 0.422606
176 31 0.712792 0.371219 0.564222
431 31 0.709126 0.340286 0.316341
821 29 0.737564 0.34814 0.569544
383 32 0.743614 0.381015 0.512214
952 32 0.774636 0.351489 0.521468
165 27 0.802047 0.367267 0.604854
540 32 0.829604 0.346698 0.456748
829 28 0.83185 0.376953 0.350789
156 28 0.882054 0.337922 0.526178
566 31 0.858948 0.35838 0.263284
343 32 0.890765 0.366825 0.527659
438 29 0.916502 0.34969 0.34361
519 28 0.917342 0.381902 0.279978
375 30 0.94072 0.330452 0.549287
288 33 0.967252 0.347394 0.540293
973 27 0.947802 0.373308 0.597578
553 31 0.992354 0.365827 0.442507
191 33 0.026431 0.416803 0.498602
723 30 -0.00399691 0.398906 0.689931
713 33 0.0513823 0.393869 0.629367
791 29 0.0599578 0.424784 0.69669
555 30 0.0904912 0.405472 0.57358
959 29 0.106761 0.430659 0.473297
179 31 0.162017 0.396852 0.517135
792 31 0.125627 0.401471 0.598932
764 33 0.145199 0.427772 0.393957
750 31 0.197864 0.394305 0.48606
22 32 0.180471 0.428008 0.480462
872 34 0.21551 0.436182 0.486462
111 30 0.22792 0.402565 0.531745
929 32 0.248647 0.427269 0.71309
541 31 0.274299 0.405375 0.473569
7 32 0.294796 0.431381 0.57194
534 32 0.307676 0.398913 0.471528
51 31 0.329385 0.42139 0.478457
550 28 0.316089 0.4535 0.468502
556 30 0.358512 0.409037 0.478679
636 27 0.360886 0.439739 0.528442
709 30 0.424163 0.399118 0.451332
105 31 0.394866 0.412102 0.316746
412 30 0.429922 0.430548 0.498381
740 32 0.453913 0.405112 0.698397
476 27 0.482371 0.416067 0.44996
423 32 0.459038 0.437803 0.31783
175 36 0.508397 0.393898 0.501957
394 30 0.541442 0.397572 0.42228
446 30 0.511985 0.426303 0.379197
349 35 0.544133 0.430764 0.480788
65 31 0.569342 0.410482 0.460564
688 29 0.601588 0.423658 0.472005
1000 33 0.622247 0.39983 0.519119
324 34 0.634292 0.430643 0.43688
83 31 0.666027 0.41362 0.48917
101 29 0.689591 0.393963 0.445954
590 28 0.696209 0.422167 0.657774
478 30 0.718443 0.401876 0.677352
136 33 0.724809 0.437432 0.44109
70 29 0.753605 0.409354 0.696269
110 30 0.760951 0.445244 0.44546
277 29 0.778075 0.385576 0.434503
999 33 0.784539 0.424335 0.473703
679 35 0.809094 0.39896 0.471833
364 31 0.812952 0.440068 0.44437
47 31 0.859404 0.389875 0.393019
968 33 0.836588 0.416922 0.434255
822 32 0.87037 0.42112 0.492706
39 29 0.896168 0.402392 0.593127
533 32 0.929866 0.411754 0.631794
633 30 0.902411 0.43496 0.613789
313 32 0.996455 0.431013 0.525155
983 31 0.965891 0.398045 0.416212
471 28 0.962191 0.428574 0.485216
575 31 0.0300203 0.456383 0.592498
918 34 0.0509268 0.485445 0.477738
716 30 0.0608543 0.454526 0.543908
600 33 0.0923821 0.459269 0.518428
807 27 0.0831963 0.488144 0.423271
503 33 0.113438 0.486728 0.637838
812 29 0.12668 0.453891 0.66594
971 26 0.145221 0.4859 0.616577
793 30 0.17725 0.49177 0.515992
748 32 0.159876 0.455897 0.624486
985 28 0.191529 0.459054 0.362804
628 31 0.212366 0.482849 0.503752
60 29 0.238189 0.463621 0.717449
26 34 0.268567 0.45179 0.438856
826 30 0.261846 0.485198 0.4006
154 30 0.291175 0.477603 0.604289
594 32 0.320769 0.488872 0.575487
693 30 0.344241 0.468653 0.407319
702 29 0.35008 0.499194 0.466311
506 33 0.376428 0.47077 0.509577
361 31 0.393244 0.442488 0.535257
92 29 0.435136 0.465008 0.552398
486 33 0.411384 0.485639 0.396718
266 32 0.441779 0.495383 0.416014
126 31 0.489585 0.446476 0.679042
765 28 0.465394 0.47046 0.632104
303 30 0.497114 0.480375 0.555431
11 33 0.519821 0.45663 0.470027
40 34 0.528927 0.48854 0.559906
595 32 0.551386 0.462827 0.506097
771 28 0.577189 0.442485 0.532159
864 28 0.583183 0.472445 0.43413
691 34 0.610873 0.45574 0.548035
560 30 0.562421 0.49753 0.566587
347 36 0.640415 0.471468 0.62664
128 31 0.613248 0.490809 0.654603
805 29 0.655061 0.502649 0.253827
9 29 0.670679 0.444229 0.47564
267 29 0.698849 0.455935 0.476554
760 29 0.675225 0.476823 0.321457
772 31 0.704689 0.491057 0.348917
289 27 0.725226 0.467611 0.635629
578 30 0.761087 0.475856 0.501328
264 31 0.790509 0.461703 0.626325
974 29 0.796065 0.493578 0.619801
282 29 0.822962 0.469885 0.619121
867 33 0.845849 0.449197 0.545162
906 34 0.851173 0.48334 0.498686
632 30 0.880526 0.457732 0.530885
135 30 0.883239 0.489145 0.556305
41 31 0.934145 0.445264 0.385216
784 29 0.913058 0.474849 0.38236
579 29 0.945317 0.487519 0.47321
188 31 0.999307 0.464696 0.568951
480 29 0.967474 0.462147 0.482273
960 34 0.979214 0.499062 0.537623
725 34 0.0173833 0.500537 0.624346
212 28 0.043214 0.52552 0.497861
916 28 0.0144502 0.53587 0.373042
868 34 0.0649059 0.552789 0.275029
190 34 0.112192 0.519437 0.26251
951 30 0.0803047 0.521371 0.660395
95 31 0.095582 0.548642 0.623249
422 30 0.144704 0.519584 0.57882
641 30 0.13211 0.54739 0.563748
472 29 0.175659 0.526195 0.553356
524 32 0.206367 0.515852 0.491229
450 28 0.19116 0.551776 0.607992
925 27 0.221593 0.541839 0.643348
972 30 0.235384 0.503197 0.397236
129 33 0.249954 0.530911 0.483617
410 34 0.279092 0.51542 0.270975
948 33 0.30106 0.537966 0.546819
29 30 0.329195 0.5236 0.467756
722 32 0.330243 0.557728 0.452885
956 32 0.383339 0.507043 0.310754
287 33 0.359756 0.530989 0.587131
928 31 0.390297 0.545518 0.446417
25 31 0.413104 0.517474 0.607396
62 30 0.420845 0.548155 0.632178
300 33 0.474196 0.502946 0.56153
732 30 0.444359 0.526689 0.495751
20 32 0.479067 0.534546 0.564372
814 31 0.51094 0.545317 0.35072
619 31 0.505285 0.511832 0.468998
411 31 0.539313 0.519134 0.511734
209 29 0.540997 0.551422 0.704497
767 34 0.569698 0.532423 0.604438
908 27 0.592374 0.511538 0.464554
432 30 0.599279 0.543539 0.490791
281 28 0.62726 0.517371 0.524623
195 33 0.654368 0.533459 0.452395
321 31 0.629637 0.553669 0.555244
981 30 0.682476 0.512175 0.560931
904 32 0.68507 0.544278 0.470841
137 32 0.712956 0.521336 0.52367
42 35 0.716896 0.554316 0.554124
910 30 0.735882 0.496178 0.625716
118 29 0.743939 0.530253 0.524193
35 33 0.76708 0.506414 0.600116
338 30 0.775054 0.53918 0.819584
625 31 0.824819 0.505797 0.497995
341 28 0.798971 0.522675 0.464334
853 26 0.800569 0.553397 0.629129
381 31 0.840378 0.5361 0.66505
584 28 0.860711 0.513792 0.51579
295 32 0.868438 0.547204 0.405766
601 31 0.894271 0.528521 0.534213
585 31 0.918403 0.507951 0.588266
862 28 0.929243 0.541395 0.449452
294 30 0.954598 0.521353 0.398844
187 32 0.982922 0.538711 0.593725
818 28 0.956887 0.554899 0.355533
495 31 0.037448 0.567743 0.536092
231 31 0.0208071 0.596925 0.577821
546 31 0.0555914 0.599149 0.616685
109 35 0.084379 0.582911 0.535494
401 28 0.0810335 0.618292 0.647289
789 29 0.161321 0.552626 0.357016
854 29 0.11493 0.573005 0.409431
441 30 0.109409 0.60813 0.41582
145 28 0.145421 0.586649 0.410356
680 30 0.175341 0.585736 0.437547
1 29 0.210976 0.576911 0.519961
830 30 0.198887 0.607186 0.495528
833 31 0.240944 0.565926 0.424799
465 29 0.230013 0.601961 0.416772
204 32 0.2613 0.589778 0.454554
942 28 0.278494 0.56028 0.501694
804 30 0.306139 0.579391 0.610524
634 25 0.319519 0.604629 0.337438
954 28 0.345107 0.591629 0.483511
275 31 0.361518 0.56554 0.620209
13 31 0.373624 0.601184 0.438943
796 29 0.396983 0.578412 0.504815
406 30 0.410488 0.605384 0.415766
371 30 0.436928 0.578202 0.412892
958 27 0.455927 0.554889 0.582465
246 32 0.486219 0.565904 0.493299
370 33 0.470275 0.594196 0.561418
572 32 0.501156 0.610673 0.538859
79 33 0.516122 0.577958 0.592853
840 29 0.548559 0.581738 0.622073
470 30 0.575548 0.564225 0.505295
800 27 0.579834 0.594012 0.378395
311 29 0.603409 0.575779 0.466071
820 30 0.613795 0.607086 0.729534
915 29 0.636423 0.585415 0.495602
297 30 0.659194 0.565907 0.598001
816 31 0.6657 0.60015 0.474172
323 30 0.691284 0.574429 0.612187
454 31 0.695442 0.608939 0.647938
43 32 0.719421 0.586719 0.446358
711 32 0.750603 0.561731 0.524845
997 32 0.754554 0.600494 0.433334
119 30 0.78078 0.575744 0.378621
46 32 0.809929 0.589918 0.620913
163 28 0.784678 0.605273 0.273668
778 28 0.827227 0.565137 0.407006
392 30 0.845739 0.589049 0.515422
322 27 0.827621 0.614748 0.376593
276 32 0.881915 0.593889 0.4916
134 32 0.908338 0.566314 0.46166
861 32 0.939364 0.581393 0.459183
675 29 0.913868 0.602341 0.564255
271 30 1.00041 0.56723 0.364888
946 30 0.970691 0.583868 0.609118
684 28 0.991768 0.61132 0.182076
398 33 0.0510939 0.629911 0.480464
237 32 0.0140515 0.6296 0.567129
969 30 0.038742 0.660297 0.520664
876 31 0.00784966 0.660661 0.52391
777 29 0.0754266 0.650436 0.487222
790 31 0.105083 0.638694 0.396159
447 33 0.139279 0.629594 0.393536
359 32 0.163478 0.650749 0.447572
696 29 0.129715 0.659054 0.510255
869 31 0.167251 0.616812 0.635877
151 33 0.196505 0.642674 0.40997
475 29 0.220088 0.663098 0.568729
205 29 0.226011 0.631548 0.527463
714 30 0.257099 0.620746 0.608336
86 30 0.250148 0.653548 0.555015
284 32 0.279755 0.642155 0.381326
624 28 0.290927 0.606844 0.422904
48 28 0.311976 0.633358 0.616826
909 29 0.303906 0.667802 0.242636
117 31 0.332715 0.658164 0.469599
152 32 0.349348 0.623131 0.455377
32 27 0.362132 0.650599 0.530439
543 32 0.389352 0.635998 0.467082
388 29 0.387848 0.666487 0.501188
45 30 0.416611 0.650428 0.586105
186 31 0.439985 0.613021 0.577884
758 27 0.448847 0.644639 0.433052
226 31 0.475415 0.6613 0.417262
526 30 0.470696 0.625983 0.724136
825 33 0.529334 0.630423 0.378958
604 27 0.503306 0.647555 0.592866
69 32 0.53699 0.662831 0.645229
481 30 0.556121 0.611513 0.494686
755 28 0.589387 0.627391 0.544619
773 26 0.560731 0.641874 0.504418
979 32 0.587274 0.65836 0.388163
638 37 0.617834 0.644449 0.508846
437 31 0.642369 0.622478 0.606196
850 28 0.650208 0.654893 0.546238
932 29 0.674273 0.630174 0.393087
49 29 0.707934 0.640151 0.559773
978 27 0.683218 0.65782 0.568684
573 30 0.727263 0.617341 0.763092
635 27 0.765061 0.62899 0.487983
184 29 0.740861 0.64529 0.589892
654 28 0.800893 0.629205 0.579367
683 32 0.783794 0.65444 0.537963
318 32 0.861665 0.619604 0.423333
599 32 0.839155 0.64219 0.478268
678 30 0.870073 0.649719 0.484975
514 28 0.893956 0.624197 0.469837
605 28 0.924002 0.631119 0.51809
695 27 0.907004 0.656757 0.359669
630 31 0.957797 0.612359 0.628465
489 27 0.948555 0.647288 0.468395
757 34 0.979264 0.637835 0.694419
308 29 0.0286905 0.690445 0.274384
913 30 0.0992976 0.669433 0.449454
477 31 0.0651544 0.679538 0.450603
146 28 0.0579019 0.711188 0.519282
726 30 0.0894134 0.698548 0.493786
344 27 0.151139 0.685685 0.361506
19 30 0.121374 0.692626 0.39917
116 27 0.146964 0.720208 0.497027
718 26 0.180587 0.675714 0.567547
989 32 0.204848 0.696219 0.603538
970 27 0.17156 0.704309 0.672054
15 32 0.275127 0.672914 0.699891
10 30 0.234554 0.719039 0.583811
74 32 0.243793 0.683977 0.557045
552 30 0.266443 0.70803 0.590002
399 32 0.296271 0.700543 0.517515
576 31 0.320671 0.720038 0.463966
352 29 0.326608 0.688244 0.441139
883 33 0.357381 0.680633 0.467451
717 30 0.354695 0.713701 0.428399
602 28 0.386305 0.695118 0.71578
286 31 0.41707 0.685425 0.612469
99 28 0.411312 0.716878 0.322131
479 26 0.438909 0.70709 0.41036
667 29 0.445708 0.675604 0.508224
386 33 0.471641 0.697169 0.566914
547 32 0.507768 0.679457 0.376078
304 29 0.530613 0.698363 0.664272
863 29 0.499431 0.713368 0.571317
292 30 0.563476 0.683591 0.432811
993 30 0.597446 0.695132 0.448505
189 23 0.592208 0.723387 0.492091
268 36 0.560834 0.714543 0.750894
3 32 0.627291 0.678143 0.500794
562 33 0.638117 0.711416 0.526055
520 31 0.659111 0.685952 0.574084
522 33 0.693742 0.693001 0.463428
335 32 0.670425 0.715182 0.513651
50 31 0.722287 0.671185 0.434213
108 32 0.751791 0.682455 0.711643
354 32 0.724869 0.704381 0.54801
463 29 0.75975 0.710653 0.386827
64 31 0.814116 0.662319 0.448981
142 31 0.783965 0.689841 0.540452
697 33 0.803979 0.714151 0.407628
123 25 0.826536 0.689763 0.312602
496 30 0.846897 0.672212 0.697758
93 35 0.862399 0.703096 0.505171
878 31 0.884005 0.679087 0.515128
319 30 0.915843 0.686434 0.437249
474 29 0.934666 0.711083 0.364275
612 29 0.89611 0.70987 0.591462
643 29 0.975143 0.669228 0.520284
98 32 0.998844 0.695458 0.392081
200 32 0.94571 0.677933 0.636166
269 31 0.964954 0.70271 0.478805
240 30 0.0297882 0.721318 0.492589
839 29 0.0172443 0.752992 0.513467
539 31 0.0503013 0.743934 0.699683
223 26 0.0439939 0.777506 0.680347
827 35 0.0804817 0.73243 0.394954
224 30 0.073837 0.765171 0.463245
435 28 0.104627 0.759744 0.371815
724 34 0.11192 0.722908 0.546637
468 29 0.135126 0.752856 0.598996
342 34 0.160949 0.774267 0.530231
160 30 0.165558 0.743531 0.305308
460 32 0.197602 0.728505 0.479243
82 32 0.191557 0.764128 0.441255
617 32 0.222062 0.747893 0.464929
320 32 0.258126 0.739804 0.580675
439 29 0.247491 0.770143 0.622865
639 27 0.288622 0.72968 0.640042
739 35 0.278614 0.765658 0.577957
53 32 0.309726 0.754946 0.551515
417 28 0.380244 0.728909 0.592359
640 33 0.346038 0.744315 0.709686
220 30 0.335542 0.77536 0.409232
235 32 0.374105 0.760711 0.519562
222 31 0.440888 0.741447 0.476213
627 31 0.405355 0.746891 0.679929
507 30 0.430378 0.771048 0.452541
735 29 0.469069 0.727883 0.401601
391 28 0.467602 0.759598 0.469139
535 28 0.494538 0.747034 0.49875
198 32 0.52627 0.730485 0.589789
59 28 0.521329 0.762514 0.229276
390 31 0.549923 0.757819 0.581957
337 30 0.580759 0.755344 0.536491
139 30 0.606899 0.77477 0.466629
877 30 0.567698 0.782818 0.356969
153 33 0.617497 0.737627 0.542737
482 30 0.677979 0.746637 0.521903
774 32 0.638263 0.76809 0.361002
373 32 0.702377 0.726503 0.530897
327 31 0.693899 0.772798 0.346584
669 34 0.721371 0.792731 0.517789
782 29 0.720197 0.754589 0.557377
570 32 0.747165 0.740534 0.422908
302 29 0.748181 0.771512 0.637558
221 27 0.779032 0.732568 0.559633
185 33 0.814854 0.747141 0.447265
843 32 0.782468 0.768272 0.560034
759 33 0.848755 0.753823 0.581618
955 29 0.835414 0.722282 0.47376
285 30 0.874837 0.734419 0.435123
810 31 0.888761 0.762731 0.528833
254 31 0.915333 0.747166 0.42648
56 29 0.92227 0.7775 0.419521
149 29 1.0002 0.727123 0.595472
889 29 0.987053 0.756746 0.446745
236 35 0.954483 0.768866 0.558496
88 35 0.963542 0.736057 0.528028
515 30 0.0134939 0.784563 0.514244
161 29 0.0316239 0.808496 0.588346
396 31 -0.000190448 0.816587 0.513064
518 30 0.0627832 0.838357 0.568394
801 29 0.0939374 0.790888 0.523822
194 31 0.0631006 0.80209 0.463089
433 28 0.0882472 0.82281 0.401827
351 31 0.128052 0.784916 0.608611
747 28 0.124484 0.816322 0.530054
992 33 0.154767 0.808247 0.556227
554 30 0.219583 0.778793 0.37065
610 30 0.188319 0.793821 0.794389
647 30 0.185881 0.82646 0.512127
315 30 0.213996 0.813557 0.388805
567 30 0.24738 0.805584 0.563382
387 30 0.265783 0.830375 0.427913
127 27 0.276434 0.79664 0.402255
419 32 0.30579 0.788026 0.346756
257 32 0.297738 0.819879 0.383975
5 32 0.331487 0.807382 0.511172
449 29 0.360375 0.792416 0.412189
860 30 0.358941 0.825329 0.43268
731 32 0.388536 0.810956 0.61125
670 32 0.400048 0.780197 0.506173
657 28 0.421452 0.801452 0.470509
150 34 0.414582 0.832365 0.527629
291 29 0.491902 0.781875 0.369704
525 29 0.445715 0.829973 0.513259
941 30 0.454421 0.78963 0.338815
937 31 0.474233 0.813981 0.477505
817 33 0.537296 0.788287 0.576269
362 31 0.506231 0.808029 0.582032
537 29 0.537194 0.825145 0.588341
523 27 0.494163 0.837397 0.632677
192 33 0.568303 0.814892 0.438598
366 30 0.59843 0.804797 0.586091
102 27 0.592769 0.83491 0.662171
30 31 0.665003 0.783824 0.554755
609 30 0.63394 0.806518 0.802547
395 29 0.622983 0.83047 0.297044
708 29 0.658602 0.819466 0.431777
741 32 0.690736 0.805038 0.431058
746 28 0.714729 0.826033 0.462484
147 30 0.744501 0.815147 0.398561
681 28 0.767692 0.79492 0.425336
558 31 0.817827 0.781555 0.396577
334 32 0.830803 0.834023 0.312051
314 31 0.798483 0.804979 0.562174
299 28 0.8354 0.804825 0.651042
880 34 0.8635 0.784118 0.458245
219 29 0.868211 0.815668 0.439558
501 32 0.896714 0.793652 0.611409
689 30 0.914069 0.818814 0.587071
613 29 0.944685 0.799052 0.412444
510 32 0.980804 0.789402 0.574003
238 28 0.968846 0.818218 0.351599
873 31 0.0271644 0.842098 0.347119
943 36 0.0116436 0.877574 0.508795
248 28 0.0496913 0.868734 0.518053
894 29 0.0844072 0.860553 0.600996
642 31 0.107991 0.879036 0.50064
207 31 0.115071 0.847269 0.439026
865 27 0.145079 0.837509 0.536106
828 30 0.139363 0.867234 0.478964
261 33 0.171845 0.859478 0.319618
213 31 0.204447 0.855378 0.50213
61 31 0.202233 0.887529 0.425404
459 33 0.23162 0.875229 0.577817
775 32 0.233679 0.838445 0.540081
131 29 0.258366 0.859402 0.574833
462 30 0.257799 0.894347 0.366569
907 29 0.286285 0.882753 0.43939
330 29 0.324881 0.8385 0.329157
316 34 0.290056 0.850583 0.560761
659 32 0.31818 0.868433 0.568479
984 31 0.346891 0.8559 0.739314
623 33 0.373915 0.876379 0.506998
230 31 0.385391 0.847132 0.6789
148 32 0.408085 0.870419 0.592286
831 30 0.438696 0.864136 0.643211
650 30 0.425503 0.895599 0.547986
890 32 0.467501 0.85154 0.444568
494 27 0.461927 0.881395 0.417986
798 32 0.496276 0.870469 0.493422
78 26 0.533457 0.860811 0.361475
982 31 0.519994 0.891302 0.543728
444 32 0.561978 0.847042 0.459975
598 32 0.558706 0.880939 0.635097
355 31 0.587601 0.869659 0.421147
159 32 0.62173 0.86158 0.377842
253 30 0.659051 0.849518 0.572605
509 29 0.645512 0.881392 0.739026
453 28 0.687647 0.838446 0.444413
340 27 0.679277 0.872752 0.592832
836 30 0.709832 0.858917 0.514187
583 28 0.707012 0.889101 0.682807
945 32 0.771299 0.830852 0.532474
415 28 0.741221 0.849944 0.448819
858 31 0.735823 0.879109 0.614668
527 30 0.768902 0.861576 0.39763
55 29 0.79921 0.846015 0.629298
975 29 0.823162 0.86522 0.499369
719 27 0.793135 0.881619 0.485301
931 30 0.888635 0.837737 0.5652
842 29 0.850542 0.876927 0.678755
183 29 0.858967 0.846277 0.481067
780 30 0.881435 0.868757 0.602874
436 31 0.918423 0.849717 0.3984
922 33 0.93872 0.874058 0.512513
113 32 0.950089 0.843529 0.367986
905 30 0.995773 0.848039 0.499761
34 31 0.971466 0.868638 0.606487
262 31 0.0397734 0.897393 0.525174
987 32 0.0353505 0.932059 0.573844
164 32 0.0106222 0.911427 0.593049
38 30 0.07324 0.892415 0.575002
328 27 0.0688469 0.923268 0.541734
172 26 0.100948 0.908798 0.37596
710 33 0.168443 0.891807 0.399014
538 32 0.136229 0.898935 0.471432
505 31 0.121628 0.93039 0.522928
565 29 0.153528 0.926038 0.544021
947 32 0.186534 0.918923 0.453305
279 31 0.210218 0.941606 0.395114
339 33 0.223475 0.911475 0.372539
490 31 0.250815 0.928837 0.567903
380 34 0.281536 0.917258 0.501196
743 31 0.311818 0.903537 0.352501
577 33 0.306733 0.938532 0.435917
884 33 0.34069 0.892188 0.651617
218 27 0.336879 0.926581 0.525952
122 30 0.364967 0.910803 0.432329
536 29 0.39425 0.900009 0.453185
921 33 0.430351 0.926625 0.534349
835 31 0.397158 0.932501 0.521272
808 29 0.459868 0.911757 0.431379
256 32 0.488414 0.900987 0.59513
934 28 0.483834 0.934802 0.500072
451 31 0.51686 0.924571 0.532807
824 31 0.548248 0.913214 0.534106
629 28 0.583219 0.907782 0.620769
752 29 0.575754 0.933159 0.176962
445 32 0.612115 0.925497 0.439069
214 32 0.612496 0.893626 0.541007
655 30 0.642846 0.917284 0.529273
75 27 0.670798 0.942277 0.614907
173 30 0.671103 0.905843 0.578501
420 32 0.69948 0.928191 0.601891
76 29 0.729524 0.909784 0.640975
924 28 0.761064 0.897689 0.563367
926 32 0.759435 0.935426 0.41403
250 30 0.725912 0.945525 0.488499
588 29 0.819087 0.896964 0.466534
243 31 0.793227 0.913872 0.40986
591 29 0.820351 0.929465 0.605327
483 29 0.789684 0.944159 0.583033
919 28 0.847587 0.91135 0.593202
258 34 0.878907 0.900917 0.548755
182 31 0.889914 0.932768 0.475748
52 33 0.853791 0.942025 0.638848
622 30 0.908751 0.885789 0.539176
397 31 0.921761 0.914274 0.541452
502 28 0.951086 0.904983 0.463707
895 30 0.937841 0.941605 0.556302
89 30 0.980657 0.902495 0.543771
656 27 0.966422 0.93048 0.522864
846 32 0.0254714 0.964963 0.569791
461 31 0.0910074 0.942343 0.272141
920 30 0.053621 0.979758 0.316898
998 31 0.0612612 0.952085 0.70742
67 30 0.0840392 0.976583 0.419517
197 30 0.115031 0.960336 0.525683
891 32 0.141671 0.992593 0.450844
466 35 0.148364 0.960332 0.537527
721 29 0.178021 0.948905 0.305488
516 34 0.173875 0.980349 0.364652
215 29 0.208358 0.972332 0.563955
455 31 0.23235 0.992186 0.336062
80 30 0.243968 0.962768 0.406632
819 30 0.266605 0.990954 0.617011
255 30 0.277004 0.950121 0.477507
811 29 0.294897 1.00553 0.54459
180 31 0.303445 0.976539 0.419069
738 31 0.330714 0.992218 0.559732
168 33 0.334133 0.96012 0.548421
852 32 0.364457 0.942335 0.510896
374 32 0.362152 0.977976 0.546159
592 28 0.391064 0.965027 0.396477
71 32 0.411579 0.990256 0.453847
58 29 0.421565 0.961153 0.412297
473 31 0.444336 0.98033 0.702283
953 30 0.475014 0.999007 0.485125
409 30 0.454802 0.946816 0.534219
844 31 0.477073 0.968065 0.408388
31 27 0.541712 0.946716 0.500477
649 33 0.507055 0.988474 0.343077
682 33 0.506356 0.956163 0.45548
467 31 0.540281 0.978902 0.593354
788 32 0.567301 0.997799 0.609489
178 27 0.602154 0.991141 0.610317
430 32 0.568493 0.964152 0.655239
898 29 0.60354 0.956006 0.353335
704 32 0.638378 0.949263 0.482625
930 29 0.650356 0.999771 0.23984
107 30 0.628745 0.978795 0.446565
301 33 0.667414 0.971786 0.340078
305 30 0.69515 0.991512 0.537375
749 29 0.696515 0.96066 0.45011
744 32 0.722829 0.976904 0.484476
485 32 0.756265 1.0041 0.53669
715 27 0.753663 0.965944 0.524477
484 32 0.78209 0.977727 0.467447
241 32 0.816631 0.993756 0.515977
703 30 0.817096 0.959824 0.405392
528 32 0.844643 0.978282 0.509821
990 34 0.877691 0.962291 0.371762
857 34 0.911115 0.992219 0.408208
660 29 0.91015 0.956801 0.450201
940 29 0.937403 0.975966 0.682933
33 30 0.99729 0.944794 0.516097
229 31 0.963238 0.999525 0.332891
378 31 0.990612 0.98082 0.544418
332 29 0.96415 0.960453 0.540455
