ITEM: TIMESTEP
1500000
ITEM: NUMBER OF ATOMS
1000
ITEM: BOX BOUNDS pp pp pp
-1.6508578000000000e+01 1.6508578000000000e+01
-1.6508578000000000e+01 1.6508578000000000e+01
-5.0000000000000000e-01 5.0000000000000000e-01
ITEM: ATOMS id type xs ys zs
155 30 0.0170277 0.0332017 0.546897
242 33 0.0488101 0.0226934 0.514567
976 27 0.0456753 0.0586362 0.410584
685 30 0.0755852 0.0389489 0.541862
448 31 0.10634 0.025042 0.53667
298 34 0.0736142 0.000604786 0.488454
754 31 0.137678 0.02482 0.354368
770 35 0.13273 0.0589927 0.46629
290 31 0.161945 0.0453289 0.44452
694 31 0.166873 0.0134124 0.512281
813 30 0.190758 0.0332285 0.414442
442 32 0.221176 0.0540199 0.536505
903 31 0.226238 0.0234036 0.335899
247 28 0.255239 0.0121733 0.513156
81 29 0.255162 0.0416314 0.552427
193 29 0.284396 0.0299388 0.373408
996 29 0.320507 0.0225241 0.511949
811 29 0.291584 -0.00226669 0.558787
487 30 0.30884 0.0515855 0.580943
227 31 0.348945 0.0116408 0.507142
325 31 0.345053 0.0492869 0.800814
927 31 0.371752 0.0332694 0.644384
559 31 0.405465 0.0192586 0.558069
493 28 0.431134 0.0400335 0.501665
203 34 0.437707 0.00428422 0.527985
871 30 0.463318 0.03032 0.560838
14 30 0.482867 0.0527832 0.336354
896 30 0.497135 0.0152612 0.426575
961 30 0.535009 0.00656937 0.706187
607 33 0.523707 0.037701 0.491134
104 28 0.555887 0.027589 0.692837
551 30 0.58349 0.0154245 0.570243
795 33 0.585826 0.0469274 0.260173
788 32 0.563131 -0.00920451 0.625245
16 31 0.618849 0.0437204 0.533991
425 31 0.650602 0.0239865 0.317686
699 27 0.619864 0.00914095 0.527923
930 29 0.658505 -0.00793706 0.297002
737 32 0.68612 0.0211504 0.527938
312 34 0.717569 0.01173 0.505871
317 33 0.71338 0.044448 0.359849
779 33 0.748428 0.0340825 0.426124
986 30 0.77886 0.0161027 0.480757
408 29 0.781541 0.0533115 0.489861
158 32 0.806201 0.0324813 0.418629
270 31 0.838373 0.0505835 0.455126
138 31 0.842199 0.0178396 0.531075
561 31 0.867318 0.0385641 0.533027
63 30 0.879196 0.00979153 0.444249
356 28 0.899695 0.0317587 0.430245
208 31 0.936847 0.0102747 0.700894
365 29 0.933259 0.0437602 0.625266
676 31 0.984518 0.0509948 0.529159
589 28 0.963645 0.0277942 0.550394
379 29 0.994178 0.0130936 0.45668
712 30 0.0476144 0.0889368 0.639733
964 32 0.0162733 0.0643661 0.493249
513 29 0.101034 0.0563112 0.366204
766 30 0.0740792 0.0719067 0.56348
97 27 0.0983248 0.0884862 0.543202
614 30 0.0742278 0.106363 0.566677
18 35 0.131755 0.0976877 0.49511
216 35 0.159858 0.0801521 0.609425
517 33 0.189644 0.0648426 0.570782
367 29 0.215856 0.08827 0.388273
245 27 0.187437 0.100034 0.500038
706 31 0.247855 0.0711375 0.464902
389 34 0.270916 0.0942953 0.509565
564 29 0.242714 0.111205 0.510222
511 33 0.279602 0.0607024 0.280997
280 34 0.302824 0.0843808 0.384779
809 29 0.334156 0.108821 0.431787
847 33 0.334768 0.0775173 0.455266
802 32 0.370233 0.064249 0.429756
239 32 0.363555 0.0957758 0.365093
991 31 0.403454 0.0527599 0.640495
274 29 0.39159 0.0854373 0.693503
181 31 0.421167 0.0808402 0.527898
464 30 0.424171 0.114194 0.454744
372 29 0.451185 0.0972665 0.440311
763 32 0.453708 0.0625744 0.608583
845 29 0.485385 0.0827159 0.4737
492 34 0.552378 0.0575988 0.417352
900 28 0.51905 0.0679465 0.524797
174 31 0.54562 0.0917637 0.577076
769 30 0.511712 0.0996295 0.510895
799 29 0.580048 0.0780354 0.434703
568 31 0.598172 0.10278 0.487053
413 29 0.609095 0.0741496 0.590061
358 29 0.635656 0.0879346 0.44556
57 31 0.648691 0.0587262 0.579851
761 30 0.666394 0.0898721 0.466543
307 31 0.678494 0.0513804 0.365996
103 31 0.695461 0.0772035 0.391549
100 32 0.714754 0.107249 0.445371
499 26 0.754373 0.0632577 0.623426
677 34 0.727286 0.0768762 0.499012
211 26 0.75329 0.0926094 0.273502
994 30 0.810551 0.0635964 0.622374
644 30 0.786314 0.0841034 0.588892
574 27 0.83295 0.0827748 0.482901
653 28 0.810544 0.106213 0.471531
838 27 0.861606 0.0709801 0.358487
933 30 0.857894 0.0997293 0.573842
68 31 0.891563 0.0627607 0.32752
382 33 0.896645 0.0944422 0.471968
249 32 0.922262 0.0725946 0.519393
938 27 0.926085 0.103129 0.76338
569 31 0.953419 0.0664979 0.591056
939 33 0.990562 0.084007 0.514191
700 29 0.954992 0.097299 0.534176
170 32 0.0184301 0.101885 0.412081
705 30 0.0441074 0.124791 0.408685
849 32 0.0121503 0.136145 0.607114
662 31 0.10346 0.118004 0.558587
143 30 0.0735024 0.137359 0.550208
350 25 0.0639102 0.16855 0.417978
936 28 0.0958123 0.159132 0.44037
252 32 0.159357 0.115309 0.439028
199 33 0.122157 0.143315 0.452708
787 29 0.152913 0.149074 0.407521
488 29 0.182575 0.136703 0.552499
385 31 0.213407 0.119813 0.421675
596 29 0.207128 0.153637 0.452447
66 31 0.175772 0.168953 0.481631
815 30 0.239178 0.145012 0.604487
54 30 0.267384 0.129876 0.546809
597 28 0.269174 0.162424 0.298588
403 28 0.296201 0.150363 0.526357
469 33 0.304287 0.11628 0.752872
169 27 0.329371 0.137303 0.564295
608 30 0.359255 0.126589 0.474748
995 28 0.353987 0.157233 0.567995
856 29 0.381739 0.146145 0.427466
414 32 0.389783 0.116406 0.50972
671 28 0.41941 0.143928 0.587458
73 31 0.448743 0.133446 0.344454
957 33 0.480032 0.113885 0.608116
440 34 0.478021 0.149519 0.514112
646 29 0.504975 0.132617 0.444878
402 33 0.540917 0.124308 0.595166
114 28 0.528291 0.155938 0.604616
944 30 0.568177 0.111841 0.294825
457 33 0.559531 0.153301 0.575483
834 31 0.590041 0.134502 0.641371
950 31 0.620112 0.126951 0.397371
225 32 0.654471 0.150899 0.662029
91 28 0.623774 0.157578 0.478402
582 30 0.652027 0.119116 0.415338
603 30 0.68322 0.114341 0.691716
121 31 0.686685 0.144467 0.364066
508 29 0.717754 0.140106 0.589721
530 30 0.74191 0.121517 0.606394
217 31 0.738856 0.162071 0.553867
393 34 0.769452 0.14988 0.550608
768 31 0.784573 0.121713 0.493848
912 34 0.812147 0.138459 0.506531
329 32 0.825234 0.171 0.611563
571 36 0.843308 0.126913 0.25351
855 31 0.878142 0.124388 0.59168
521 31 0.855845 0.155561 0.551658
456 31 0.89097 0.152516 0.399096
529 30 0.909056 0.127838 0.444288
106 26 0.926548 0.152045 0.471224
733 33 0.951333 0.13109 0.563366
272 33 0.985206 0.115466 0.436344
115 27 0.991141 0.157642 0.574043
648 28 0.0346166 0.16359 0.530057
2 30 0.0101863 0.181783 0.457473
729 27 0.0302838 0.224724 0.465395
886 29 -0.000336814 0.225475 0.593457
346 30 0.0420542 0.196809 0.342015
210 29 0.0851726 0.187436 0.638912
202 34 0.110489 0.215119 0.352896
429 29 0.117239 0.18124 0.608901
24 30 0.14743 0.181355 0.507822
120 30 0.142208 0.2126 0.656582
130 30 0.200364 0.187618 0.347402
124 29 0.173881 0.204351 0.701929
736 28 0.198915 0.220702 0.37687
260 30 0.225181 0.207161 0.546672
837 31 0.230665 0.175231 0.528711
823 30 0.261682 0.190392 0.478916
902 30 0.281687 0.214324 0.554624
132 31 0.321513 0.168655 0.348893
171 32 0.291809 0.181459 0.579264
966 28 0.314522 0.202232 0.4639
427 31 0.347131 0.186753 0.542064
273 29 0.377638 0.178883 0.550306
96 30 0.368317 0.210185 0.56775
621 29 0.407187 0.172889 0.586648
753 31 0.442525 0.1656 0.600745
664 31 0.397474 0.201865 0.698536
701 33 0.442721 0.205328 0.405932
90 34 0.47052 0.183903 0.601579
728 32 0.502108 0.175159 0.398022
232 29 0.504758 0.207333 0.391552
434 28 0.532789 0.184442 0.43273
77 26 0.532914 0.214881 0.525781
497 31 0.592192 0.167329 0.400043
914 28 0.563114 0.189151 0.708908
263 30 0.592837 0.200932 0.431498
645 31 0.622603 0.215404 0.270964
424 27 0.619895 0.185959 0.669512
112 28 0.647948 0.180107 0.415589
368 31 0.653497 0.212714 0.533271
580 29 0.71013 0.171505 0.557679
988 26 0.679489 0.173044 0.46102
666 31 0.699189 0.201277 0.692461
94 28 0.729951 0.194542 0.505986
963 29 0.747563 0.22001 0.718338
742 31 0.761659 0.183792 0.64644
887 31 0.78381 0.210236 0.60167
832 35 0.792213 0.17353 0.706821
797 31 0.815595 0.202798 0.565281
615 29 0.844725 0.19575 0.359529
611 33 0.875987 0.180081 0.544395
606 32 0.871598 0.211766 0.453721
377 29 0.907292 0.181889 0.551354
803 31 0.937782 0.196337 0.565987
353 30 0.902748 0.214647 0.507789
661 30 0.954433 0.164433 0.441537
310 32 0.979759 0.191109 0.479952
776 31 0.963092 0.220776 0.65609
545 34 0.0246857 0.25559 0.511118
557 33 0.0604087 0.248039 0.537356
283 33 0.00796678 0.286882 0.456428
618 33 0.0682515 0.214962 0.548018
751 28 0.0921895 0.242524 0.546759
542 31 0.0792128 0.278288 0.506038
407 29 0.116889 0.27624 0.512495
652 35 0.132022 0.246814 0.569242
140 30 0.164466 0.238288 0.646091
369 32 0.159401 0.270272 0.571833
881 29 0.193957 0.254734 0.425663
720 30 0.22279 0.238689 0.424533
967 28 0.251197 0.22103 0.39291
897 31 0.250806 0.250965 0.560037
196 31 0.226857 0.271377 0.585512
756 30 0.303905 0.237704 0.481018
794 31 0.282569 0.261445 0.547521
28 29 0.33816 0.222702 0.741166
376 34 0.332007 0.254549 0.412378
668 27 0.359772 0.242296 0.523603
400 32 0.378861 0.265848 0.551594
651 28 0.388074 0.23559 0.431882
144 32 0.418586 0.226291 0.571412
707 37 0.422515 0.265196 0.605083
841 31 0.476893 0.222039 0.537951
357 33 0.447004 0.24206 0.521705
581 27 0.477166 0.2517 0.363219
296 30 0.502986 0.237431 0.629898
452 32 0.542503 0.251214 0.508335
949 32 0.516881 0.270231 0.363022
888 29 0.563066 0.227378 0.516865
348 29 0.571873 0.258703 0.403371
278 32 0.596135 0.234692 0.584817
500 35 0.612734 0.264079 0.516927
587 33 0.64158 0.243779 0.441192
637 29 0.717048 0.225983 0.666814
309 32 0.666167 0.266462 0.510267
251 31 0.683184 0.233715 0.384157
72 28 0.705245 0.254902 0.5448
384 35 0.741474 0.253538 0.526953
44 32 0.775013 0.242657 0.375828
674 29 0.766568 0.276582 0.382625
265 35 0.807611 0.234678 0.442715
745 32 0.79631 0.269229 0.511582
12 32 0.828006 0.260345 0.493243
806 29 0.842225 0.226997 0.569943
363 28 0.858452 0.252248 0.548388
859 34 0.88844 0.271602 0.318017
6 24 0.883069 0.238756 0.561156
418 32 0.915188 0.252559 0.433175
27 32 0.933999 0.227361 0.335762
544 29 0.935204 0.275767 0.34516
762 31 0.990311 0.256851 0.433437
345 31 0.953838 0.250518 0.503619
244 30 0.966188 0.281023 0.41304
259 26 0.0485444 0.275677 0.663437
548 33 0.04085 0.306539 0.5297
686 30 0.103404 0.303899 0.507617
233 29 0.0735733 0.309781 0.404445
781 30 0.0952109 0.33359 0.496845
326 36 0.137925 0.303975 0.597752
336 33 0.126734 0.335381 0.490348
405 30 0.157867 0.332807 0.448446
84 29 0.197108 0.28429 0.501607
851 31 0.172371 0.30179 0.445041
293 33 0.193739 0.326227 0.577384
672 31 0.22189 0.309644 0.579331
631 30 0.254604 0.284414 0.621344
167 29 0.26196 0.314151 0.477944
935 28 0.310598 0.277916 0.277403
785 32 0.284248 0.292778 0.445541
885 28 0.324279 0.305909 0.420218
87 30 0.34676 0.282231 0.627909
563 33 0.368514 0.304757 0.394801
333 30 0.397383 0.292136 0.483551
36 33 0.428222 0.304156 0.483475
162 31 0.403769 0.327233 0.519645
458 33 0.45564 0.273852 0.474261
201 32 0.459088 0.313303 0.578309
658 33 0.493595 0.320285 0.477775
491 30 0.487905 0.283386 0.425151
977 33 0.520034 0.30146 0.569423
4 31 0.547064 0.282131 0.604134
893 30 0.549464 0.311765 0.300428
626 32 0.58434 0.287513 0.481963
549 30 0.580545 0.319443 0.385407
125 30 0.616902 0.298641 0.621483
593 28 0.638781 0.280795 0.310746
866 30 0.645111 0.31095 0.423483
870 30 0.617506 0.331676 0.509081
874 33 0.701841 0.285719 0.710524
206 31 0.677591 0.306895 0.490863
404 31 0.695405 0.334103 0.407874
531 29 0.718174 0.313272 0.495443
21 31 0.735695 0.287229 0.430526
892 27 0.760477 0.305546 0.424196
426 27 0.782195 0.328076 0.567528
980 29 0.81984 0.291133 0.592556
360 25 0.788838 0.298275 0.692448
443 29 0.81106 0.320344 0.499312
416 32 0.845871 0.311961 0.444179
166 30 0.850686 0.281954 0.677443
901 33 0.877073 0.300784 0.631559
923 32 0.910834 0.296434 0.449337
85 27 0.94616 0.305171 0.568791
879 32 0.901857 0.32828 0.538654
141 31 1.00572 0.320708 0.534093
177 28 0.977118 0.31151 0.327888
375 30 0.952758 0.336708 0.56642
911 30 0.025589 0.381522 0.471951
698 27 0.013972 0.351747 0.462096
962 37 0.0562756 0.338392 0.519406
713 33 0.0566495 0.394779 0.618515
512 31 0.0729382 0.366783 0.550616
428 29 0.110076 0.36228 0.478406
917 34 0.141437 0.365991 0.420374
8 28 0.1785 0.354287 0.508968
750 31 0.193552 0.380655 0.477536
586 35 0.212429 0.353673 0.514284
179 31 0.164374 0.390134 0.492448
687 31 0.23961 0.37389 0.381179
234 32 0.244523 0.34182 0.548893
882 33 0.275572 0.354922 0.631699
532 30 0.297008 0.326765 0.553698
331 29 0.320315 0.354833 0.572621
616 30 0.295837 0.377964 0.378588
786 34 0.34418 0.33052 0.510622
965 30 0.379813 0.347568 0.600263
783 29 0.354387 0.371298 0.571882
620 29 0.387918 0.384993 0.425395
690 29 0.409432 0.362309 0.445764
228 29 0.434403 0.340704 0.628342
875 32 0.443396 0.370595 0.556798
734 31 0.470768 0.343737 0.519176
665 35 0.476575 0.375392 0.490519
692 29 0.529098 0.33474 0.413432
133 31 0.501513 0.350369 0.701943
421 32 0.532925 0.366372 0.395414
504 34 0.558599 0.343928 0.528338
730 31 0.590588 0.348664 0.501154
306 29 0.568018 0.373896 0.555021
23 29 0.596603 0.382805 0.666024
899 27 0.62282 0.364183 0.62236
727 33 0.663564 0.33938 0.668344
17 29 0.651977 0.367943 0.366557
157 31 0.686053 0.367737 0.421038
176 31 0.717285 0.378627 0.600943
431 31 0.722961 0.349146 0.331993
821 29 0.752669 0.335438 0.584611
383 32 0.74883 0.373309 0.534001
952 32 0.780708 0.35991 0.507885
165 27 0.811488 0.355412 0.542126
540 32 0.839424 0.343732 0.49219
156 28 0.872832 0.337315 0.516023
829 28 0.832223 0.378751 0.34792
566 31 0.863412 0.367564 0.257332
47 31 0.874721 0.397858 0.417669
343 32 0.894047 0.365545 0.523919
438 29 0.925556 0.346797 0.296578
519 28 0.930314 0.378846 0.272684
288 33 0.984217 0.344616 0.577937
973 27 0.957794 0.366036 0.560149
553 31 0.988345 0.376486 0.441316
191 33 0.0311551 0.418605 0.493812
313 32 0.000669238 0.436172 0.550261
791 29 0.0799127 0.416923 0.673979
555 30 0.0967911 0.389607 0.576172
959 29 0.112824 0.42059 0.492991
792 31 0.133212 0.398065 0.567188
764 33 0.164377 0.425894 0.435418
812 29 0.136385 0.438901 0.687471
985 28 0.188607 0.446817 0.390681
22 32 0.193753 0.412091 0.468858
872 34 0.221156 0.436763 0.490644
111 30 0.224348 0.400241 0.530603
929 32 0.251377 0.419491 0.716646
541 31 0.267633 0.390212 0.471014
7 32 0.282656 0.440169 0.56504
534 32 0.30567 0.416351 0.458864
848 30 0.327875 0.387002 0.494082
51 31 0.339626 0.424568 0.516739
556 30 0.362282 0.401971 0.471315
636 27 0.367874 0.439212 0.516758
709 30 0.4197 0.390618 0.479623
105 31 0.393686 0.414921 0.301355
412 30 0.422667 0.425554 0.475081
361 31 0.399322 0.447658 0.56257
740 32 0.451153 0.402798 0.688919
476 27 0.48055 0.406428 0.506339
423 32 0.454948 0.432782 0.34279
175 36 0.507881 0.389162 0.524139
394 30 0.541498 0.397005 0.401581
446 30 0.512457 0.421525 0.367167
349 35 0.545548 0.42911 0.480962
65 31 0.572925 0.407443 0.465766
688 29 0.602945 0.414855 0.448633
771 28 0.576072 0.44256 0.515376
1000 33 0.629132 0.394179 0.537193
324 34 0.63266 0.430126 0.427208
83 31 0.66035 0.413086 0.502449
101 29 0.687243 0.39909 0.429659
590 28 0.692174 0.4288 0.677188
478 30 0.715575 0.410497 0.677365
136 33 0.723728 0.442268 0.493831
70 29 0.747061 0.405669 0.667518
277 29 0.774847 0.39114 0.41028
999 33 0.779593 0.425909 0.470279
679 35 0.805897 0.399084 0.484273
364 31 0.812513 0.430978 0.478999
968 33 0.840493 0.41194 0.45321
822 32 0.872009 0.429978 0.504695
867 33 0.843787 0.447235 0.51948
39 29 0.90546 0.395187 0.607732
533 32 0.933037 0.409298 0.643257
633 30 0.907565 0.42764 0.607989
723 30 1.00387 0.403859 0.66649
983 31 0.963296 0.395309 0.451378
471 28 0.971091 0.426383 0.502492
575 31 0.0280997 0.454173 0.610664
918 34 0.033866 0.486616 0.510608
725 34 0.00562474 0.50344 0.619074
600 33 0.093825 0.449477 0.521005
716 30 0.0620695 0.454189 0.517627
807 27 0.0644965 0.484389 0.421759
503 33 0.0957052 0.48501 0.637565
971 26 0.128435 0.467366 0.622753
422 30 0.131469 0.500882 0.606981
793 30 0.161105 0.492418 0.527722
748 32 0.160778 0.458641 0.584058
628 31 0.187409 0.476746 0.486439
60 29 0.223309 0.471717 0.72052
26 34 0.249554 0.456474 0.448625
826 30 0.2594 0.487796 0.382538
550 28 0.312389 0.447557 0.466693
154 30 0.289909 0.473679 0.624884
594 32 0.320313 0.479932 0.56938
693 30 0.340645 0.455984 0.403733
702 29 0.347951 0.497326 0.474828
506 33 0.373741 0.471597 0.516347
956 32 0.381582 0.508757 0.341831
92 29 0.435459 0.462043 0.54609
486 33 0.404391 0.484775 0.399007
266 32 0.435163 0.4946 0.439991
126 31 0.488861 0.438682 0.672467
765 28 0.4682 0.462974 0.628564
303 30 0.496314 0.47705 0.513598
11 33 0.52021 0.452707 0.453569
40 34 0.529309 0.486494 0.584641
595 32 0.550965 0.462117 0.517789
864 28 0.584946 0.476735 0.442511
691 34 0.605982 0.450339 0.534811
347 36 0.63979 0.468295 0.651766
128 31 0.614984 0.490956 0.631147
805 29 0.645388 0.498219 0.271806
9 29 0.661421 0.44352 0.471218
267 29 0.694379 0.45821 0.460577
760 29 0.670509 0.48061 0.310397
772 31 0.704833 0.48666 0.342535
110 30 0.757102 0.447723 0.431332
289 27 0.732468 0.47882 0.665953
578 30 0.765859 0.482674 0.514344
910 30 0.741043 0.507762 0.606462
264 31 0.78845 0.457187 0.628368
974 29 0.799097 0.489193 0.626431
282 29 0.81825 0.464866 0.61182
906 34 0.853167 0.478522 0.490516
632 30 0.879693 0.460058 0.514188
135 30 0.885674 0.491184 0.529099
784 29 0.911689 0.460456 0.400576
41 31 0.93556 0.440344 0.383035
579 29 0.940986 0.473631 0.463423
188 31 0.998108 0.470931 0.602573
480 29 0.967348 0.458308 0.49542
960 34 0.971496 0.491035 0.574426
212 28 0.0412154 0.517406 0.538704
916 28 0.0115225 0.538741 0.341032
190 34 0.105065 0.522099 0.24304
868 34 0.0501455 0.549645 0.338147
951 30 0.0728552 0.512454 0.682863
95 31 0.0806587 0.541745 0.602872
641 30 0.134459 0.53367 0.526457
472 29 0.162571 0.522422 0.586861
524 32 0.198629 0.510015 0.514356
450 28 0.182283 0.547715 0.626836
925 27 0.223328 0.529885 0.617586
972 30 0.228698 0.50146 0.353924
129 33 0.25908 0.522214 0.50364
410 34 0.286879 0.503316 0.265719
948 33 0.296501 0.534116 0.55769
29 30 0.318416 0.510623 0.473274
722 32 0.327953 0.545614 0.427291
287 33 0.357493 0.529536 0.584611
275 31 0.358729 0.56445 0.64581
928 31 0.388647 0.540332 0.450813
25 31 0.410805 0.518143 0.604777
62 30 0.417774 0.549103 0.589878
732 30 0.4429 0.524832 0.466976
300 33 0.467857 0.494355 0.522998
20 32 0.474317 0.52777 0.56206
814 31 0.505004 0.542668 0.339367
619 31 0.508013 0.510758 0.44725
411 31 0.533252 0.529201 0.521757
560 30 0.558932 0.498172 0.553809
767 34 0.570133 0.533839 0.596525
908 27 0.587535 0.507512 0.458196
432 30 0.600958 0.541294 0.456349
281 28 0.625626 0.519367 0.517777
195 33 0.656483 0.530242 0.424509
321 31 0.630282 0.550738 0.549363
981 30 0.68087 0.510742 0.587327
904 32 0.686412 0.543961 0.4617
137 32 0.710575 0.521066 0.532938
42 35 0.722237 0.551434 0.579465
118 29 0.752469 0.536319 0.524731
35 33 0.774243 0.513014 0.609819
338 30 0.786229 0.542101 0.820768
625 31 0.830903 0.501628 0.510126
341 28 0.808149 0.521471 0.465467
381 31 0.841745 0.53522 0.672086
584 28 0.861466 0.513 0.495044
295 32 0.87048 0.544703 0.403654
601 31 0.898349 0.521095 0.555765
585 31 0.917671 0.4951 0.576452
862 28 0.926756 0.53569 0.500232
294 30 0.944608 0.509837 0.41344
187 32 0.980717 0.525233 0.58544
818 28 0.958212 0.547015 0.371957
495 31 0.0245793 0.572583 0.549947
231 31 -0.00365215 0.586552 0.560512
546 31 0.0606825 0.578766 0.615591
109 35 0.0950199 0.574383 0.520655
401 28 0.0911896 0.606065 0.650057
789 29 0.155096 0.557218 0.392931
854 29 0.125264 0.565786 0.417221
441 30 0.11856 0.597995 0.405063
145 28 0.147313 0.58752 0.414593
680 30 0.178086 0.57855 0.429617
1 29 0.211263 0.567716 0.508454
830 30 0.206529 0.599884 0.486261
833 31 0.242613 0.555534 0.408446
465 29 0.241078 0.590704 0.397912
204 32 0.273108 0.585077 0.4512
942 28 0.272684 0.553568 0.488576
624 28 0.303415 0.59829 0.419134
804 30 0.302499 0.565689 0.588642
634 25 0.331017 0.608793 0.364888
954 28 0.329946 0.58089 0.474519
13 31 0.364535 0.596095 0.437923
796 29 0.388724 0.573587 0.474442
543 32 0.395769 0.61071 0.459198
406 30 0.422213 0.588606 0.448159
958 27 0.459558 0.55559 0.606539
246 32 0.487368 0.569576 0.489251
371 30 0.455807 0.58852 0.429075
370 33 0.483715 0.601815 0.571582
209 29 0.54724 0.556157 0.690924
79 33 0.519697 0.573599 0.570472
572 32 0.521518 0.60754 0.512438
840 29 0.549974 0.587956 0.615644
470 30 0.575469 0.56507 0.498491
800 27 0.586465 0.594285 0.384388
311 29 0.606457 0.571541 0.441344
915 29 0.636324 0.582581 0.473053
297 30 0.660704 0.561849 0.604485
820 30 0.61852 0.605935 0.707063
816 31 0.666067 0.59417 0.500225
323 30 0.698828 0.577821 0.635512
454 31 0.705089 0.607731 0.644508
43 32 0.728933 0.586506 0.42309
711 32 0.764446 0.569043 0.54224
997 32 0.758776 0.600171 0.463164
853 26 0.815673 0.552247 0.603049
119 30 0.794205 0.570881 0.386485
46 32 0.821117 0.593148 0.605036
778 28 0.842281 0.571258 0.436719
392 30 0.87531 0.577093 0.516644
322 27 0.850117 0.601887 0.354557
318 32 0.879552 0.608836 0.412729
134 32 0.903079 0.554355 0.478065
861 32 0.931943 0.56757 0.453398
276 32 0.907056 0.591235 0.486007
675 29 0.939212 0.597317 0.579867
271 30 0.987343 0.556778 0.400811
946 30 0.965032 0.5806 0.642078
684 28 0.975625 0.607069 0.217815
237 32 0.0159814 0.617038 0.572002
969 30 0.0431124 0.642029 0.499329
398 33 0.0469739 0.607226 0.503183
876 31 0.012508 0.649012 0.498644
790 31 0.114264 0.6318 0.388481
777 29 0.0715724 0.63076 0.503951
913 30 0.107799 0.662663 0.464031
447 33 0.144868 0.618386 0.385376
359 32 0.166502 0.646013 0.443089
696 29 0.136654 0.652287 0.568147
869 31 0.175287 0.610161 0.632491
151 33 0.200594 0.637464 0.432186
475 29 0.222319 0.660803 0.564263
205 29 0.229199 0.620622 0.536297
714 30 0.262949 0.614164 0.584041
86 30 0.251018 0.648277 0.540093
284 32 0.281455 0.641706 0.396081
48 28 0.308835 0.628165 0.603652
909 29 0.306192 0.662565 0.227597
117 31 0.333259 0.650477 0.477958
152 32 0.35643 0.626553 0.439867
883 33 0.372043 0.667971 0.494586
32 27 0.384723 0.639856 0.50267
388 29 0.415437 0.636445 0.526172
286 31 0.403237 0.664016 0.596006
45 30 0.442615 0.654073 0.584071
186 31 0.443137 0.616582 0.568171
758 27 0.469978 0.631016 0.4474
226 31 0.473874 0.662942 0.4289
526 30 0.500123 0.62893 0.755275
825 33 0.53587 0.636403 0.387556
604 27 0.503405 0.659682 0.600299
481 30 0.560174 0.617533 0.511479
755 28 0.591566 0.629223 0.570176
773 26 0.567588 0.647679 0.511733
979 32 0.595734 0.65994 0.415116
638 37 0.621628 0.638448 0.461239
437 31 0.64944 0.620317 0.623056
850 28 0.651104 0.65482 0.559211
932 29 0.680019 0.623896 0.384263
49 29 0.710163 0.638196 0.538754
978 27 0.684411 0.655805 0.571384
573 30 0.734011 0.618524 0.77654
635 27 0.771688 0.627729 0.51851
184 29 0.750479 0.649918 0.588917
163 28 0.789968 0.604802 0.271688
654 28 0.816211 0.631343 0.584381
683 32 0.791142 0.650804 0.53095
64 31 0.824718 0.661089 0.418919
599 32 0.846664 0.634039 0.456702
678 30 0.884007 0.6508 0.465783
514 28 0.913432 0.621735 0.495631
605 28 0.930097 0.646492 0.572729
695 27 0.91056 0.668271 0.365649
630 31 0.954198 0.62483 0.612322
489 27 0.963863 0.654956 0.494345
757 34 0.984932 0.633619 0.713637
308 29 0.0265271 0.677428 0.250665
240 30 0.0315159 0.708056 0.487127
146 28 0.0638452 0.691394 0.516019
477 31 0.0726226 0.661893 0.458801
726 30 0.0941443 0.691071 0.510696
724 34 0.117858 0.711619 0.540951
344 27 0.162932 0.680329 0.347572
19 30 0.13069 0.682872 0.373178
116 27 0.149826 0.713159 0.494243
718 26 0.18983 0.668374 0.52425
989 32 0.209643 0.69296 0.597429
970 27 0.179701 0.704229 0.692229
15 32 0.27245 0.6724 0.670164
10 30 0.233466 0.715584 0.589325
74 32 0.241079 0.684967 0.565144
552 30 0.265146 0.704724 0.573874
352 29 0.33595 0.68151 0.464242
399 32 0.298046 0.692439 0.485587
576 31 0.324077 0.709981 0.483224
639 27 0.291702 0.723971 0.597372
717 30 0.359006 0.700761 0.438819
417 28 0.380001 0.721426 0.567907
602 28 0.395972 0.693442 0.690458
99 28 0.418533 0.709048 0.344162
479 26 0.450415 0.701865 0.405707
667 29 0.429856 0.681325 0.488192
386 33 0.479011 0.693564 0.575214
547 32 0.512199 0.688749 0.359064
69 32 0.536483 0.667316 0.652648
304 29 0.539916 0.697942 0.636107
292 30 0.564792 0.679007 0.437531
993 30 0.592886 0.692685 0.471127
189 23 0.609544 0.717659 0.492616
3 32 0.62638 0.673711 0.503535
562 33 0.639807 0.715616 0.527475
520 31 0.6588 0.686292 0.521553
522 33 0.690471 0.685779 0.464294
335 32 0.674251 0.713618 0.507376
373 32 0.705385 0.713609 0.542937
108 32 0.760844 0.681654 0.719674
50 31 0.720736 0.675008 0.431208
354 32 0.73962 0.706003 0.525299
463 29 0.775698 0.707176 0.395955
142 31 0.794926 0.682468 0.551278
697 33 0.807152 0.714424 0.421592
123 25 0.826796 0.690268 0.29537
878 31 0.884495 0.688437 0.51022
496 30 0.8572 0.668575 0.674407
93 35 0.858322 0.707223 0.498639
319 30 0.909227 0.711285 0.445951
200 32 0.938868 0.677179 0.659021
474 29 0.941198 0.708759 0.378428
98 32 1.00185 0.697757 0.408294
643 29 0.989862 0.668661 0.540946
269 31 0.970449 0.692005 0.476613
839 29 0.0233883 0.741233 0.509411
539 31 0.0527571 0.732495 0.711395
223 26 0.0446022 0.766943 0.677327
827 35 0.0856099 0.724847 0.390805
224 30 0.0712894 0.755727 0.441015
435 28 0.107392 0.749869 0.35276
468 29 0.140916 0.740706 0.587734
342 34 0.156736 0.769192 0.515531
160 30 0.170875 0.733437 0.309962
351 31 0.122715 0.775549 0.615229
460 32 0.202521 0.724203 0.516536
82 32 0.18938 0.759556 0.451458
617 32 0.22259 0.750293 0.476111
320 32 0.260904 0.738581 0.578876
439 29 0.245719 0.770762 0.603063
739 35 0.289025 0.756563 0.553372
53 32 0.323324 0.748097 0.552604
419 32 0.307802 0.782492 0.352886
640 33 0.350095 0.729963 0.71325
220 30 0.342074 0.772196 0.398242
235 32 0.376233 0.751644 0.520761
222 31 0.438118 0.732835 0.486737
627 31 0.407188 0.743538 0.672185
507 30 0.430402 0.765282 0.44423
863 29 0.502627 0.719367 0.569205
735 29 0.472694 0.723918 0.399818
391 28 0.462885 0.754749 0.436404
535 28 0.492663 0.747034 0.476086
198 32 0.531675 0.730449 0.584798
59 28 0.525567 0.761679 0.273559
390 31 0.557218 0.753704 0.570492
268 36 0.567023 0.719075 0.728721
877 30 0.573669 0.782234 0.380027
337 30 0.590643 0.744974 0.518818
139 30 0.602541 0.773848 0.489552
153 33 0.622562 0.743975 0.509394
482 30 0.658932 0.743998 0.532319
774 32 0.636243 0.771668 0.35315
327 31 0.691197 0.74962 0.424931
30 31 0.667979 0.773367 0.550587
669 34 0.718863 0.775367 0.507051
782 29 0.720781 0.741673 0.539989
570 32 0.751616 0.75693 0.413362
221 27 0.775904 0.738123 0.554448
185 33 0.808551 0.747939 0.44955
843 32 0.793804 0.776499 0.546814
759 33 0.836047 0.766462 0.604959
955 29 0.83586 0.730178 0.442213
285 30 0.865036 0.752573 0.415977
612 29 0.883896 0.727471 0.576382
810 31 0.895028 0.760791 0.545014
254 31 0.922634 0.740318 0.441724
149 29 0.996112 0.727838 0.576407
889 29 0.990379 0.756945 0.461686
236 35 0.956014 0.764071 0.564222
88 35 0.964573 0.730366 0.502847
515 30 0.0156276 0.776096 0.523156
161 29 0.0323061 0.801514 0.578019
396 31 0.00236292 0.813638 0.491981
518 30 0.0557916 0.822846 0.563892
801 29 0.0912647 0.778512 0.520182
194 31 0.0627635 0.792986 0.503819
433 28 0.0871536 0.810948 0.425189
747 28 0.116789 0.809103 0.540199
992 33 0.148384 0.810501 0.549302
865 27 0.133342 0.839924 0.520406
554 30 0.214472 0.780998 0.355439
610 30 0.180962 0.790715 0.78891
647 30 0.181027 0.823595 0.530366
315 30 0.210434 0.813867 0.368254
567 30 0.239441 0.801337 0.532784
387 30 0.266143 0.819504 0.425625
775 32 0.235969 0.83278 0.521451
127 27 0.277531 0.786817 0.431067
257 32 0.297763 0.815138 0.381448
5 32 0.331746 0.803601 0.523169
449 29 0.370626 0.789539 0.432083
860 30 0.357998 0.820932 0.457103
670 32 0.399006 0.773674 0.486978
731 32 0.389201 0.815143 0.596245
657 28 0.425058 0.794607 0.494149
525 29 0.448213 0.814985 0.525358
941 30 0.454806 0.785686 0.316816
291 29 0.484006 0.778072 0.400451
937 31 0.477778 0.8085 0.486695
817 33 0.542534 0.788387 0.600248
362 31 0.509091 0.798594 0.57595
537 29 0.531456 0.818672 0.554416
523 27 0.50081 0.83179 0.587386
192 33 0.56834 0.815732 0.45122
366 30 0.598578 0.805904 0.592883
609 30 0.632052 0.801001 0.775922
395 29 0.620305 0.825446 0.283987
708 29 0.658741 0.811755 0.410558
741 32 0.688459 0.796462 0.463739
302 29 0.747296 0.787185 0.644644
147 30 0.743394 0.81879 0.405343
681 28 0.781737 0.805866 0.424169
558 31 0.816908 0.805342 0.397329
314 31 0.805471 0.837191 0.57167
334 32 0.835642 0.830996 0.35522
299 28 0.845394 0.796803 0.621366
219 29 0.870915 0.833984 0.436478
880 34 0.877084 0.788405 0.420071
56 29 0.922158 0.77525 0.420172
501 32 0.905792 0.801622 0.586015
613 29 0.95038 0.796799 0.408147
510 32 0.980893 0.787091 0.552649
238 28 0.970543 0.819743 0.384376
873 31 0.0268829 0.832287 0.344404
943 36 0.0111284 0.873731 0.518731
248 28 0.0411871 0.860745 0.532749
38 30 0.063626 0.885862 0.575067
894 29 0.068341 0.849883 0.596063
642 31 0.0936701 0.868391 0.513147
207 31 0.102792 0.838427 0.421973
828 30 0.126176 0.869254 0.524913
710 33 0.15448 0.883953 0.405818
261 33 0.166671 0.852473 0.313597
213 31 0.205904 0.845403 0.493347
61 31 0.189035 0.879737 0.409903
459 33 0.221369 0.873291 0.56474
131 29 0.25101 0.861 0.553213
330 29 0.320925 0.838605 0.32623
316 34 0.287151 0.845321 0.542156
659 32 0.312354 0.874491 0.593017
907 29 0.277265 0.876318 0.441271
984 31 0.345957 0.851987 0.743784
623 33 0.378364 0.880932 0.514438
230 31 0.37732 0.845285 0.656392
884 33 0.345144 0.884578 0.623571
150 34 0.418749 0.828903 0.5388
148 32 0.410027 0.865064 0.637854
831 30 0.439409 0.854536 0.621445
890 32 0.472328 0.847361 0.449817
494 27 0.467562 0.881434 0.371009
798 32 0.499437 0.87018 0.493167
78 26 0.521776 0.849799 0.339988
598 32 0.557117 0.873984 0.634426
982 31 0.527667 0.88915 0.521618
102 27 0.591646 0.835776 0.612694
444 32 0.550912 0.84266 0.481787
355 31 0.589528 0.865055 0.44044
159 32 0.621616 0.857645 0.395
253 30 0.647881 0.84113 0.566335
509 29 0.642884 0.879491 0.739379
214 32 0.613725 0.888804 0.551745
746 28 0.712183 0.820087 0.472877
453 28 0.680744 0.834796 0.463892
340 27 0.677251 0.867675 0.558429
836 30 0.706722 0.850894 0.498624
945 32 0.772065 0.835226 0.554173
415 28 0.736677 0.849781 0.480511
858 31 0.730433 0.879796 0.613868
527 30 0.76235 0.868311 0.374468
55 29 0.791274 0.863839 0.62176
719 27 0.794756 0.895759 0.49675
975 29 0.824002 0.867776 0.515318
842 29 0.853666 0.888172 0.629103
183 29 0.853089 0.858536 0.493957
780 30 0.884449 0.864677 0.568828
931 30 0.902184 0.833692 0.544163
689 30 0.931832 0.821153 0.615566
436 31 0.924558 0.856802 0.415011
922 33 0.948254 0.881329 0.522316
905 30 0.997039 0.843572 0.516741
113 32 0.953853 0.846374 0.381149
34 31 0.977892 0.867542 0.617256
262 31 0.0319042 0.899821 0.526033
987 32 0.0307402 0.936299 0.5754
328 27 0.058498 0.915252 0.566647
172 26 0.0882999 0.907411 0.384422
461 31 0.0929659 0.9366 0.306884
538 32 0.125409 0.900448 0.474777
505 31 0.125925 0.932114 0.520405
565 29 0.152746 0.915482 0.558286
947 32 0.184034 0.912029 0.439597
279 31 0.215374 0.939454 0.39112
339 33 0.21816 0.90515 0.381526
721 29 0.183574 0.943821 0.32194
462 30 0.248444 0.892224 0.378518
490 31 0.248744 0.925791 0.564574
380 34 0.282845 0.907788 0.48547
743 31 0.320064 0.906653 0.342147
577 33 0.305884 0.935067 0.416048
218 27 0.340008 0.928914 0.51945
122 30 0.363985 0.910996 0.425061
650 30 0.4372 0.885351 0.548438
536 29 0.403672 0.898836 0.438938
921 33 0.428228 0.917882 0.54956
835 31 0.391107 0.926504 0.541547
808 29 0.46038 0.909616 0.431894
256 32 0.497056 0.902576 0.624054
934 28 0.480956 0.930771 0.473066
409 30 0.448734 0.942169 0.571347
451 31 0.522752 0.923038 0.547273
824 31 0.553064 0.907037 0.517979
31 27 0.550862 0.939677 0.499565
629 28 0.581404 0.894926 0.627985
445 32 0.606808 0.921095 0.437424
752 29 0.576383 0.928626 0.191232
655 30 0.637515 0.912721 0.539704
704 32 0.637999 0.944327 0.499102
75 27 0.665489 0.928518 0.586491
173 30 0.673489 0.899817 0.583804
583 28 0.700189 0.886356 0.699315
420 32 0.700119 0.922531 0.57119
76 29 0.730113 0.909817 0.64062
924 28 0.761617 0.8992 0.58181
926 32 0.754734 0.931491 0.433963
588 29 0.824533 0.900248 0.499752
243 31 0.785898 0.924305 0.430599
591 29 0.820064 0.930691 0.590996
919 28 0.850333 0.918296 0.589873
258 34 0.883278 0.898123 0.548994
182 31 0.879702 0.937795 0.456941
622 30 0.916152 0.885857 0.590363
397 31 0.908612 0.922984 0.5544
502 28 0.945516 0.913913 0.434661
895 30 0.935612 0.944419 0.539345
164 32 1.00519 0.91791 0.557074
89 30 0.975882 0.901602 0.551411
656 27 0.970245 0.934945 0.528415
663 31 0.0235409 1.00181 0.565533
846 32 0.023536 0.97044 0.55436
920 30 0.0547089 0.975184 0.350459
498 30 0.107457 0.992941 0.459412
998 31 0.0620162 0.945954 0.728059
67 30 0.0863746 0.968383 0.400845
197 30 0.118721 0.96219 0.516101
891 32 0.143771 0.987942 0.4274
466 35 0.151303 0.951817 0.53836
37 30 0.201484 1.00215 0.518347
516 34 0.177489 0.975394 0.376942
215 29 0.208433 0.970539 0.56857
455 31 0.234933 0.990521 0.342552
80 30 0.241341 0.957825 0.437979
819 30 0.267398 0.97905 0.587247
255 30 0.274514 0.946993 0.46472
180 31 0.298384 0.966583 0.41343
738 31 0.321098 0.989533 0.555086
673 29 0.380923 0.994433 0.288994
168 33 0.329213 0.957965 0.549117
852 32 0.361989 0.949493 0.506901
374 32 0.354539 0.98086 0.555939
592 28 0.3914 0.959379 0.430243
71 32 0.411698 0.985322 0.42064
58 29 0.42038 0.95147 0.373917
473 31 0.44698 0.972618 0.69248
953 30 0.469716 0.99692 0.451584
844 31 0.48247 0.965447 0.386474
649 33 0.513027 0.986766 0.32433
682 33 0.512273 0.954189 0.448659
467 31 0.540209 0.968386 0.602859
178 27 0.599742 0.983491 0.576702
430 32 0.576454 0.958149 0.632294
898 29 0.605283 0.951435 0.342334
107 30 0.630866 0.976776 0.461079
301 33 0.664366 0.961608 0.342559
305 30 0.692028 0.985926 0.505244
749 29 0.695535 0.953499 0.451952
744 32 0.722187 0.97493 0.478132
250 30 0.724641 0.942688 0.482727
485 32 0.748562 0.996031 0.55158
715 27 0.753914 0.965925 0.539764
484 32 0.783178 0.981599 0.479896
241 32 0.811191 0.999364 0.552168
483 29 0.796684 0.954261 0.624173
703 30 0.822586 0.969684 0.441625
52 33 0.848779 0.949638 0.592044
528 32 0.849307 0.986031 0.541654
990 34 0.881516 0.975496 0.338843
857 34 0.910909 0.993665 0.409981
660 29 0.909482 0.959243 0.472796
940 29 0.937115 0.975211 0.695186
33 30 0.997295 0.949563 0.52051
229 31 0.963321 0.996288 0.337136
378 31 0.993249 0.979873 0.546176
332 29 0.965686 0.966219 0.541992
