ITEM: TIMESTEP
250000
ITEM: NUMBER OF ATOMS
1000
ITEM: BOX BOUNDS pp pp pp
-1.5570957999999999e+01 1.5570957999999999e+01
-1.5570957999999999e+01 1.5570957999999999e+01
-5.0000000000000000e-01 5.0000000000000000e-01
ITEM: ATOMS id type xs ys zs
787 27 0.042146 0.0447997 0.5
259 20 0.0701929 0.0251137 0.5
28 27 0.0678994 0.0614276 0.5
628 31 0.0444875 0.00953946 0.5
770 41 0.0135646 0.0272297 0.5
923 33 0.0122822 0.0592938 0.5
132 31 0.100921 0.0106023 0.5
199 36 0.0973131 0.0461456 0.5
18 41 0.130392 0.0329425 0.5
429 27 0.16111 0.0144093 0.5
171 34 0.157006 0.0577053 0.5
837 33 0.187088 0.0354042 0.5
84 27 0.188485 0.0681886 0.5
690 26 0.218952 0.0207496 0.5
935 25 0.215697 0.0531839 0.5
728 34 0.247392 0.0381324 0.5
834 31 0.281229 0.0226217 0.5
841 31 0.276389 0.0562719 0.5
400 34 0.306563 0.0438206 0.5
961 30 0.310739 0.00859715 0.5
368 33 0.338012 0.0292676 0.5
73 31 0.335865 0.0635257 0.5
491 29 0.366125 0.0514942 0.5
607 37 0.371461 0.0178602 0.5
175 43 0.402105 0.0404525 0.5
871 28 0.432001 0.0215804 0.5
174 31 0.456773 0.0408121 0.5
529 28 0.484313 0.0326774 0.5
734 32 0.498036 0.0633123 0.5
424 23 0.461593 0.0103578 0.5
90 39 0.516989 0.0312296 0.5
508 28 0.531772 0.0623568 0.5
666 32 0.551807 0.0223178 0.5
176 33 0.562331 0.0568092 0.5
360 17 0.57977 0.0331328 0.5
443 28 0.606925 0.024966 0.5
91 25 0.596254 0.0562894 0.5
540 35 0.629281 0.0509917 0.5
329 34 0.641667 0.019509 0.5
100 33 0.663348 0.0467057 0.5
416 34 0.677016 0.0143867 0.5
307 32 0.697678 0.0435988 0.5
375 30 0.730982 0.0429664 0.5
12 35 0.747555 0.0147722 0.5
6 14 0.747889 0.0643595 0.5
901 37 0.71266 0.0111832 0.5
557 37 0.769965 0.0433223 0.5
270 31 0.805825 0.03033 0.5
698 21 0.798943 0.0596372 0.5
353 29 0.780492 0.00958729 0.5
27 33 0.8303 0.0528004 0.5
661 30 0.835706 0.0166083 0.5
611 36 0.862024 0.0361119 0.5
762 33 0.895224 0.0200648 0.5
618 35 0.894281 0.0550712 0.5
881 27 0.924571 0.0398279 0.5
751 24 0.92505 0.00917343 0.5
233 27 0.953529 0.0243492 0.5
196 31 0.95209 0.0577039 0.5
24 29 0.98022 0.0400849 0.5
939 37 0.98411 0.00366164 0.5
87 28 0.0385779 0.0761043 0.5
641 29 0.0367018 0.109934 0.5
405 29 0.0651261 0.095284 0.5
428 28 0.0640586 0.128464 0.5
672 31 0.00845924 0.090881 0.5
621 27 0.123557 0.0679224 0.5
897 31 0.0950716 0.0825622 0.5
783 26 0.0941858 0.115125 0.5
720 28 0.12249 0.100919 0.5
54 29 0.119138 0.13263 0.5
967 24 0.148913 0.0869006 0.5
636 22 0.148899 0.117523 0.5
458 37 0.17834 0.101614 0.5
875 34 0.243801 0.0714939 0.5
785 33 0.213447 0.0874799 0.5
201 34 0.208803 0.119489 0.5
651 24 0.242194 0.105857 0.5
228 27 0.267517 0.122845 0.5
888 28 0.270394 0.0900402 0.5
965 29 0.29643 0.110155 0.5
105 31 0.302903 0.07687 0.5
333 30 0.329064 0.0974855 0.5
664 32 0.322825 0.13129 0.5
133 32 0.36071 0.0867968 0.5
72 25 0.353339 0.119625 0.5
476 22 0.386053 0.104344 0.5
658 36 0.430271 0.0635471 0.5
94 25 0.390431 0.074252 0.5
497 32 0.417128 0.0932283 0.5
988 19 0.4068 0.12251 0.5
730 32 0.433984 0.12541 0.5
434 24 0.447581 0.0947022 0.5
372 27 0.464947 0.0700238 0.5
581 23 0.485824 0.0937374 0.5
421 34 0.46696 0.120906 0.5
4 33 0.502091 0.121701 0.5
963 27 0.515155 0.090469 0.5
566 31 0.549456 0.0894984 0.5
952 34 0.535103 0.12074 0.5
402 37 0.568707 0.117858 0.5
887 33 0.582551 0.0870008 0.5
21 31 0.602691 0.117704 0.5
225 34 0.614486 0.0845071 0.5
383 35 0.63422 0.114267 0.5
136 37 0.652249 0.0795065 0.5
426 23 0.666737 0.107519 0.5
17 27 0.688921 0.12611 0.5
679 42 0.688186 0.0782677 0.5
363 25 0.720312 0.0715361 0.5
879 33 0.713345 0.105147 0.5
418 34 0.741185 0.124635 0.5
829 25 0.744302 0.0922465 0.5
9 28 0.77319 0.0755957 0.5
544 28 0.772106 0.108681 0.5
283 36 0.804008 0.0919694 0.5
545 38 0.801869 0.128966 0.5
803 31 0.863996 0.0696831 0.5
141 32 0.832943 0.115366 0.5
729 23 0.835474 0.0837526 0.5
2 28 0.861414 0.103228 0.5
313 33 0.89145 0.120721 0.5
776 31 0.892076 0.0887616 0.5
614 29 0.922678 0.0738888 0.5
345 32 0.921632 0.10643 0.5
781 29 0.94848 0.121151 0.5
85 23 0.949549 0.0888815 0.5
80 29 0.980842 0.0717927 0.5
929 33 1.00508 0.126423 0.5
542 32 0.977583 0.10492 0.5
792 31 0.0318427 0.144322 0.5
326 43 0.0328534 0.183875 0.5
802 35 0.061725 0.162833 0.5
848 28 0.0906344 0.146431 0.5
534 33 0.0875554 0.184871 0.5
162 32 0.116178 0.166624 0.5
140 30 0.175724 0.134631 0.5
96 30 0.146913 0.149989 0.5
786 38 0.146946 0.183372 0.5
826 30 0.175654 0.169188 0.5
709 30 0.205959 0.187449 0.5
794 31 0.205007 0.15234 0.5
273 28 0.232499 0.168741 0.5
532 28 0.237204 0.136919 0.5
885 25 0.264829 0.153638 0.5
995 25 0.261094 0.184158 0.5
668 23 0.292373 0.141588 0.5
815 30 0.290404 0.171886 0.5
693 29 0.322077 0.165633 0.5
36 37 0.350091 0.152943 0.5
645 33 0.345581 0.189511 0.5
977 35 0.380021 0.137749 0.5
587 36 0.381614 0.176121 0.5
949 34 0.41286 0.15503 0.5
740 34 0.412676 0.190378 0.5
665 41 0.449065 0.158588 0.5
619 32 0.475643 0.187927 0.5
500 41 0.484318 0.1541 0.5
531 26 0.506914 0.183668 0.5
296 30 0.520233 0.152187 0.5
593 25 0.539003 0.18036 0.5
309 34 0.554972 0.150856 0.5
626 35 0.573503 0.176305 0.5
674 28 0.589651 0.147284 0.5
112 25 0.607848 0.172879 0.5
821 26 0.619776 0.144991 0.5
727 36 0.64584 0.166556 0.5
277 26 0.655576 0.135315 0.5
278 33 0.681606 0.158268 0.5
101 27 0.681582 0.188972 0.5
217 32 0.713861 0.143352 0.5
478 29 0.710558 0.175148 0.5
177 24 0.741858 0.159704 0.5
364 32 0.771356 0.146063 0.5
264 31 0.769056 0.179524 0.5
553 32 0.799498 0.163043 0.5
381 32 0.830913 0.149548 0.5
39 26 0.82824 0.182654 0.5
822 35 0.861191 0.135714 0.5
519 24 0.857121 0.170861 0.5
188 31 0.882146 0.191502 0.5
606 34 0.887453 0.157156 0.5
130 28 0.918744 0.140582 0.5
723 29 0.912439 0.176119 0.5
480 26 0.942748 0.158883 0.5
288 35 0.94033 0.193324 0.5
962 46 1.0045 0.163787 0.5
713 37 0.972591 0.141986 0.5
750 32 0.970316 0.178887 0.5
600 35 0.0292496 0.222324 0.5
26 39 0.0305474 0.262072 0.5
555 30 0.060349 0.207162 0.5
812 27 0.0576592 0.238838 0.5
407 26 0.0890952 0.21799 0.5
902 30 0.0870244 0.250505 0.5
120 30 0.117043 0.200854 0.5
917 39 0.117001 0.236102 0.5
594 33 0.148058 0.220226 0.5
541 33 0.177691 0.204092 0.5
275 32 0.179306 0.239014 0.5
563 36 0.147294 0.256764 0.5
154 28 0.206456 0.22185 0.5
620 28 0.234477 0.237032 0.5
65 31 0.236185 0.201797 0.5
556 29 0.26407 0.222134 0.5
303 28 0.313963 0.19751 0.5
412 29 0.284387 0.203518 0.5
92 27 0.26846 0.252289 0.5
349 40 0.301485 0.234283 0.5
300 36 0.336041 0.226661 0.5
232 27 0.366219 0.210148 0.5
384 42 0.368164 0.247747 0.5
348 27 0.443921 0.193586 0.5
357 36 0.394045 0.220221 0.5
692 28 0.411904 0.249755 0.5
549 30 0.42851 0.220705 0.5
394 29 0.446622 0.247659 0.5
771 25 0.461387 0.219563 0.5
1000 35 0.481093 0.248868 0.5
125 30 0.494481 0.216744 0.5
23 28 0.514257 0.243917 0.5
206 32 0.527446 0.208874 0.5
404 31 0.546496 0.237992 0.5
251 32 0.561645 0.206505 0.5
893 30 0.582237 0.233554 0.5
431 31 0.626998 0.197402 0.5
866 29 0.59612 0.202785 0.5
157 32 0.615022 0.231016 0.5
289 22 0.64651 0.224893 0.5
805 27 0.656401 0.198136 0.5
267 27 0.661804 0.248297 0.5
980 28 0.676987 0.22038 0.5
578 29 0.737563 0.19239 0.5
471 24 0.700854 0.238283 0.5
47 31 0.708825 0.207393 0.5
35 37 0.736549 0.232223 0.5
438 27 0.797506 0.193552 0.5
892 23 0.763266 0.211965 0.5
166 30 0.769133 0.243123 0.5
974 26 0.790125 0.223112 0.5
716 30 0.804847 0.24854 0.5
533 35 0.823448 0.21723 0.5
973 22 0.852282 0.201245 0.5
960 40 0.841435 0.247886 0.5
343 33 0.872268 0.223705 0.5
41 31 0.909483 0.212087 0.5
971 20 0.898029 0.241277 0.5
959 27 0.927302 0.250034 0.5
807 23 0.939216 0.224796 0.5
686 30 0.998919 0.202062 0.5
764 37 0.997278 0.239356 0.5
336 35 0.968717 0.214917 0.5
447 37 0.962049 0.251893 0.5
586 42 0.050533 0.303279 0.5
8 25 0.0614784 0.269956 0.5
422 30 0.0177421 0.294163 0.5
951 29 0.0852652 0.290488 0.5
882 36 0.115668 0.272729 0.5
687 33 0.115356 0.30829 0.5
524 33 0.143919 0.291573 0.5
450 24 0.169673 0.305425 0.5
631 30 0.175808 0.273563 0.5
475 26 0.197776 0.299526 0.5
40 39 0.207759 0.261262 0.5
361 33 0.23121 0.293182 0.5
77 20 0.241848 0.263859 0.5
306 27 0.251925 0.317107 0.5
928 33 0.263435 0.284946 0.5
814 31 0.295888 0.273379 0.5
126 32 0.289902 0.30713 0.5
51 31 0.319908 0.297658 0.5
406 30 0.329196 0.262586 0.5
767 40 0.354097 0.287222 0.5
504 39 0.379738 0.316861 0.5
324 38 0.391429 0.278986 0.5
79 38 0.416138 0.310123 0.5
128 31 0.428945 0.278018 0.5
470 29 0.450069 0.304231 0.5
864 25 0.462534 0.274577 0.5
347 44 0.485158 0.300605 0.5
323 30 0.503315 0.274059 0.5
850 23 0.533971 0.269297 0.5
560 29 0.521555 0.298915 0.5
118 26 0.555475 0.294289 0.5
42 40 0.567435 0.264947 0.5
688 26 0.632574 0.259384 0.5
311 28 0.603262 0.26288 0.5
281 25 0.589684 0.291922 0.5
910 30 0.622595 0.292039 0.5
904 34 0.64798 0.319581 0.5
981 30 0.656477 0.282747 0.5
625 32 0.678101 0.303277 0.5
70 28 0.685896 0.265181 0.5
156 25 0.705217 0.28706 0.5
338 29 0.721818 0.262387 0.5
341 25 0.73538 0.290661 0.5
853 19 0.752938 0.269179 0.5
294 29 0.766107 0.296876 0.5
911 29 0.783494 0.272701 0.5
359 34 0.796597 0.304216 0.5
632 30 0.818519 0.278794 0.5
135 29 0.827702 0.312448 0.5
784 28 0.875874 0.259631 0.5
906 38 0.85098 0.285682 0.5
212 25 0.882706 0.296366 0.5
512 31 0.902507 0.270689 0.5
503 37 0.915385 0.301428 0.5
575 32 0.939843 0.279487 0.5
793 29 0.950313 0.31285 0.5
111 28 0.995251 0.27038 0.5
109 42 0.987155 0.316041 0.5
579 28 0.970896 0.286948 0.5
791 27 0.0214005 0.33033 0.5
789 28 0.0296433 0.362316 0.5
179 31 0.0532988 0.341041 0.5
151 37 0.0605487 0.378416 0.5
22 34 0.0839328 0.3221 0.5
942 25 0.0841714 0.354781 0.5
506 37 0.107542 0.376681 0.5
441 30 0.113168 0.34088 0.5
985 25 0.138684 0.360222 0.5
833 33 0.147604 0.329731 0.5
410 40 0.1709 0.36664 0.5
576 33 0.185512 0.331732 0.5
616 30 0.219846 0.323858 0.5
925 23 0.20671 0.354798 0.5
702 28 0.229836 0.378042 0.5
796 26 0.240592 0.348031 0.5
423 34 0.262827 0.36953 0.5
948 36 0.276342 0.337305 0.5
883 36 0.298826 0.364295 0.5
765 24 0.310598 0.331958 0.5
595 35 0.342623 0.321212 0.5
388 26 0.332461 0.353778 0.5
526 30 0.356582 0.380077 0.5
226 31 0.369431 0.34838 0.5
25 33 0.388033 0.377617 0.5
958 23 0.3992 0.345355 0.5
266 35 0.421096 0.370631 0.5
20 35 0.435219 0.339945 0.5
108 33 0.470583 0.334916 0.5
209 26 0.45661 0.36588 0.5
870 30 0.489559 0.361703 0.5
83 31 0.506389 0.33083 0.5
691 38 0.53994 0.325219 0.5
184 27 0.524181 0.357528 0.5
46 34 0.558222 0.353581 0.5
110 30 0.575864 0.321343 0.5
432 29 0.575507 0.379755 0.5
318 35 0.608127 0.323026 0.5
760 26 0.591614 0.352622 0.5
322 23 0.60682 0.380945 0.5
334 33 0.62414 0.354059 0.5
269 32 0.657667 0.354467 0.5
818 25 0.68306 0.336206 0.5
997 34 0.688302 0.369868 0.5
590 25 0.707276 0.316242 0.5
999 36 0.738954 0.322413 0.5
633 30 0.714243 0.34562 0.5
191 37 0.750207 0.355676 0.5
585 32 0.773006 0.329665 0.5
916 25 0.783253 0.361184 0.5
862 25 0.805125 0.337707 0.5
777 27 0.813786 0.368116 0.5
95 32 0.858983 0.319831 0.5
119 29 0.836832 0.345329 0.5
968 38 0.84731 0.377006 0.5
231 32 0.871226 0.352552 0.5
187 33 0.894392 0.328067 0.5
869 32 0.903281 0.362143 0.5
918 39 0.928707 0.338693 0.5
495 33 0.938305 0.37056 0.5
748 35 0.997493 0.35433 0.5
854 28 0.963143 0.346215 0.5
790 32 0.972145 0.37944 0.5
684 25 0.0340945 0.393167 0.5
7 35 0.0517895 0.420042 0.5
972 29 0.01529 0.419573 0.5
60 27 0.0849282 0.402322 0.5
82 33 0.0856737 0.434446 0.5
129 37 0.116445 0.415425 0.5
234 34 0.143829 0.393615 0.5
116 23 0.173165 0.404109 0.5
872 39 0.151575 0.432188 0.5
352 27 0.186177 0.429738 0.5
680 29 0.198656 0.385749 0.5
287 35 0.215342 0.413406 0.5
956 33 0.249515 0.402817 0.5
543 33 0.242925 0.43603 0.5
45 28 0.284491 0.396127 0.5
117 31 0.276059 0.427649 0.5
11 37 0.310711 0.415761 0.5
446 28 0.324937 0.385207 0.5
486 37 0.345774 0.413181 0.5
604 22 0.332556 0.443774 0.5
732 28 0.378448 0.4097 0.5
62 28 0.410462 0.402704 0.5
371 29 0.397518 0.434698 0.5
820 29 0.430455 0.428767 0.5
411 31 0.442392 0.396735 0.5
454 32 0.476904 0.391749 0.5
337 29 0.46306 0.42244 0.5
246 33 0.499331 0.414352 0.5
755 25 0.512261 0.38682 0.5
573 30 0.544472 0.384518 0.5
602 25 0.531517 0.411481 0.5
49 27 0.554421 0.439118 0.5
899 23 0.562033 0.409225 0.5
908 21 0.589719 0.404697 0.5
195 37 0.589233 0.435685 0.5
711 34 0.619406 0.412086 0.5
861 35 0.641135 0.384525 0.5
123 18 0.670439 0.394854 0.5
496 30 0.653367 0.419483 0.5
695 21 0.679553 0.429478 0.5
772 32 0.722544 0.379859 0.5
522 36 0.70009 0.403934 0.5
295 33 0.714626 0.434595 0.5
282 27 0.733714 0.409953 0.5
601 31 0.755509 0.386037 0.5
392 30 0.765665 0.418085 0.5
137 33 0.790301 0.392995 0.5
683 34 0.800456 0.427072 0.5
546 32 0.822041 0.400634 0.5
868 38 0.854696 0.412422 0.5
271 30 0.834786 0.434263 0.5
514 25 0.865456 0.444971 0.5
946 30 0.880237 0.383521 0.5
190 40 0.888665 0.418866 0.5
725 38 0.914711 0.396322 0.5
643 28 0.923731 0.427826 0.5
465 27 1.00356 0.386409 0.5
830 29 0.949639 0.403256 0.5
205 27 0.992111 0.443604 0.5
19 28 0.982544 0.411861 0.5
134 34 0.9575 0.435145 0.5
74 35 0.0252404 0.453262 0.5
344 21 0.0582508 0.449456 0.5
714 29 0.0213122 0.494354 0.5
320 33 0.0517356 0.47971 0.5
640 37 0.117948 0.449137 0.5
550 25 0.0844343 0.466124 0.5
399 34 0.114499 0.483876 0.5
145 25 0.078996 0.495984 0.5
460 34 0.142178 0.503937 0.5
86 30 0.147331 0.470881 0.5
449 26 0.170997 0.491442 0.5
417 25 0.177959 0.460285 0.5
804 29 0.208638 0.448147 0.5
29 29 0.200852 0.478245 0.5
152 34 0.233967 0.470297 0.5
386 36 0.228104 0.502904 0.5
286 31 0.261608 0.493076 0.5
572 34 0.301884 0.449685 0.5
186 31 0.267953 0.460956 0.5
235 35 0.294771 0.483224 0.5
370 37 0.364082 0.445778 0.5
739 42 0.3343 0.475597 0.5
189 13 0.366176 0.47723 0.5
954 24 0.350897 0.504574 0.5
535 25 0.38172 0.498361 0.5
198 35 0.39154 0.465821 0.5
479 21 0.42196 0.458243 0.5
304 28 0.414998 0.487367 0.5
800 23 0.443943 0.484215 0.5
297 30 0.452521 0.454571 0.5
437 32 0.484946 0.446982 0.5
292 28 0.475391 0.478849 0.5
840 26 0.49569 0.503082 0.5
185 36 0.509175 0.472986 0.5
327 31 0.522298 0.441992 0.5
915 27 0.541268 0.469362 0.5
932 27 0.530568 0.499997 0.5
335 34 0.565662 0.498626 0.5
43 35 0.624202 0.446118 0.5
527 28 0.572 0.464509 0.5
163 26 0.599926 0.472946 0.5
474 28 0.609809 0.500983 0.5
319 29 0.633196 0.477841 0.5
599 33 0.658489 0.452934 0.5
76 26 0.670218 0.486704 0.5
276 35 0.691412 0.459651 0.5
584 25 0.744858 0.442138 0.5
354 34 0.703369 0.493576 0.5
285 30 0.725101 0.468109 0.5
612 27 0.73653 0.501571 0.5
254 33 0.757135 0.475877 0.5
64 31 0.776693 0.450304 0.5
867 37 0.790369 0.486609 0.5
93 42 0.811387 0.461827 0.5
778 24 0.825427 0.493825 0.5
654 25 0.844593 0.469743 0.5
435 23 0.853002 0.497315 0.5
647 30 0.876273 0.475426 0.5
237 35 0.900222 0.451668 0.5
992 37 0.911184 0.486495 0.5
696 27 0.933052 0.459598 0.5
913 29 0.945002 0.495044 0.5
970 22 0.999143 0.47366 0.5
398 38 0.966831 0.468025 0.5
827 40 0.983259 0.504679 0.5
131 27 0.0500073 0.510778 0.5
207 31 0.018549 0.525737 0.5
721 27 0.0444264 0.544443 0.5
801 26 0.0161157 0.558284 0.5
204 34 0.0762233 0.531005 0.5
240 29 0.072212 0.561754 0.5
617 33 0.107889 0.516126 0.5
907 27 0.103741 0.549466 0.5
419 33 0.131267 0.569797 0.5
387 29 0.134476 0.539149 0.5
567 29 0.16415 0.52915 0.5
194 31 0.162893 0.562576 0.5
722 33 0.195117 0.51295 0.5
10 29 0.190802 0.547501 0.5
909 27 0.22137 0.535767 0.5
634 18 0.215589 0.564285 0.5
903 31 0.244633 0.557093 0.5
53 35 0.253413 0.527688 0.5
13 31 0.316678 0.509218 0.5
32 22 0.28473 0.516409 0.5
127 23 0.274951 0.552323 0.5
284 35 0.304231 0.540718 0.5
48 25 0.326419 0.567456 0.5
825 36 0.337847 0.536294 0.5
220 30 0.358697 0.56302 0.5
547 33 0.370348 0.528206 0.5
15 33 0.392782 0.554543 0.5
99 25 0.40343 0.521344 0.5
735 27 0.422457 0.544373 0.5
507 29 0.434299 0.51328 0.5
890 33 0.456937 0.540446 0.5
667 27 0.465066 0.507044 0.5
782 28 0.487732 0.537138 0.5
5 34 0.47932 0.571384 0.5
758 22 0.514225 0.526582 0.5
30 32 0.512867 0.560122 0.5
638 47 0.54664 0.535764 0.5
373 35 0.571321 0.564596 0.5
817 36 0.584685 0.526833 0.5
681 24 0.603026 0.556155 0.5
484 34 0.620958 0.532818 0.5
774 33 0.646253 0.507171 0.5
678 30 0.65498 0.541331 0.5
56 27 0.677219 0.517815 0.5
570 34 0.688198 0.549945 0.5
88 41 0.713406 0.526069 0.5
630 32 0.722197 0.562783 0.5
605 24 0.746106 0.534934 0.5
843 34 0.75605 0.567032 0.5
876 31 0.766833 0.511688 0.5
142 31 0.779559 0.540608 0.5
675 27 0.803234 0.517011 0.5
839 27 0.811184 0.548955 0.5
98 35 0.837406 0.526568 0.5
489 21 0.839772 0.558077 0.5
477 31 0.868803 0.544455 0.5
724 40 0.881449 0.512097 0.5
726 29 0.920839 0.517475 0.5
223 19 0.899131 0.537476 0.5
539 31 0.927706 0.549896 0.5
922 36 0.895758 0.568721 0.5
224 30 0.952413 0.526646 0.5
342 39 0.986189 0.540588 0.5
308 26 0.956449 0.5623 0.5
401 25 0.044262 0.576051 0.5
552 30 0.0465956 0.60859 0.5
160 29 0.0167654 0.592292 0.5
213 32 0.0169979 0.626323 0.5
351 31 0.0727703 0.591275 0.5
505 33 0.0752806 0.626072 0.5
1 26 0.10027 0.579555 0.5
811 26 0.102439 0.612299 0.5
433 25 0.125967 0.596587 0.5
873 32 0.133238 0.625821 0.5
316 38 0.158748 0.598328 0.5
315 28 0.191256 0.61121 0.5
391 25 0.191331 0.578764 0.5
627 33 0.229602 0.590073 0.5
451 33 0.221303 0.622624 0.5
731 35 0.259166 0.618516 0.5
554 29 0.263244 0.584337 0.5
657 25 0.297119 0.573485 0.5
639 22 0.286835 0.602344 0.5
255 29 0.316758 0.597695 0.5
247 24 0.347879 0.593601 0.5
61 32 0.335839 0.627247 0.5
979 35 0.368334 0.616485 0.5
844 33 0.381624 0.586361 0.5
69 35 0.445176 0.571542 0.5
494 23 0.412234 0.579971 0.5
366 29 0.404535 0.611421 0.5
150 38 0.437543 0.602405 0.5
537 27 0.474741 0.605795 0.5
773 21 0.45475 0.627669 0.5
482 29 0.505816 0.592968 0.5
3 33 0.500258 0.626102 0.5
321 31 0.537795 0.577729 0.5
362 32 0.532133 0.61218 0.5
816 32 0.563872 0.598534 0.5
50 32 0.629335 0.56996 0.5
314 31 0.598617 0.587268 0.5
268 44 0.593294 0.622164 0.5
945 35 0.62783 0.608549 0.5
635 23 0.660605 0.569771 0.5
221 23 0.659141 0.59856 0.5
463 26 0.679348 0.619935 0.5
669 40 0.69094 0.586322 0.5
878 32 0.734924 0.594914 0.5
975 27 0.708936 0.612228 0.5
759 36 0.737557 0.631616 0.5
842 28 0.765872 0.600139 0.5
200 34 0.789305 0.57443 0.5
501 34 0.776784 0.631252 0.5
219 28 0.80239 0.605981 0.5
613 27 0.822981 0.580869 0.5
697 36 0.837985 0.611282 0.5
236 41 0.861875 0.581839 0.5
757 39 0.87206 0.620922 0.5
642 31 0.90288 0.601997 0.5
149 27 0.929429 0.58267 0.5
865 21 0.933314 0.612625 0.5
518 30 0.909295 0.634087 0.5
459 36 0.986817 0.573918 0.5
238 25 0.987133 0.605343 0.5
146 25 0.957603 0.594644 0.5
472 27 0.959956 0.625249 0.5
673 27 0.046617 0.641842 0.5
261 38 0.0469729 0.675746 0.5
846 34 0.0105508 0.662197 0.5
891 33 0.076074 0.659193 0.5
67 30 0.0797134 0.691071 0.5
718 20 0.104492 0.641307 0.5
439 28 0.109315 0.672047 0.5
610 30 0.166539 0.636386 0.5
462 29 0.137601 0.656886 0.5
947 34 0.140652 0.689051 0.5
490 32 0.169051 0.66915 0.5
380 38 0.200797 0.648611 0.5
984 32 0.196539 0.685125 0.5
218 23 0.22426 0.671208 0.5
222 33 0.24284 0.649056 0.5
884 36 0.259809 0.678412 0.5
339 36 0.300361 0.631118 0.5
523 22 0.273489 0.648093 0.5
989 34 0.29712 0.668264 0.5
863 26 0.32178 0.692291 0.5
525 26 0.327605 0.659193 0.5
256 33 0.355147 0.680953 0.5
122 30 0.358874 0.64895 0.5
395 28 0.38748 0.672048 0.5
860 30 0.392522 0.642342 0.5
937 32 0.425937 0.636837 0.5
808 26 0.416417 0.667689 0.5
253 29 0.438819 0.687044 0.5
978 23 0.446371 0.655645 0.5
453 25 0.474144 0.645826 0.5
230 31 0.469365 0.6764 0.5
481 30 0.499707 0.661122 0.5
520 31 0.559474 0.634293 0.5
159 34 0.529451 0.646827 0.5
59 23 0.527534 0.680926 0.5
415 24 0.55498 0.668313 0.5
561 32 0.586726 0.658488 0.5
926 34 0.588289 0.690694 0.5
919 24 0.61953 0.681094 0.5
52 37 0.624744 0.648671 0.5
746 24 0.652218 0.63053 0.5
858 33 0.651838 0.67142 0.5
302 26 0.673211 0.649138 0.5
558 31 0.674084 0.695571 0.5
75 21 0.692827 0.669468 0.5
588 26 0.701927 0.642958 0.5
147 30 0.723735 0.664554 0.5
689 30 0.741303 0.69209 0.5
780 29 0.757002 0.660892 0.5
299 25 0.812062 0.636446 0.5
515 29 0.790849 0.660238 0.5
583 24 0.773872 0.689045 0.5
656 21 0.802145 0.68474 0.5
502 25 0.823903 0.664517 0.5
889 28 0.845004 0.643634 0.5
396 31 0.853799 0.672994 0.5
248 25 0.880799 0.653518 0.5
38 29 0.885922 0.683979 0.5
969 29 0.911022 0.666352 0.5
468 27 0.937251 0.647277 0.5
466 43 0.942375 0.683841 0.5
624 24 0.989965 0.634304 0.5
894 27 0.989158 0.685433 0.5
510 35 0.96982 0.657803 0.5
81 27 0.0190011 0.697898 0.5
498 29 0.0213387 0.730938 0.5
775 33 0.0490288 0.710334 0.5
113 35 0.0524758 0.742391 0.5
565 27 0.0813754 0.723873 0.5
257 33 0.109551 0.705467 0.5
469 36 0.11351 0.740449 0.5
37 29 0.142994 0.722466 0.5
197 29 0.170543 0.704331 0.5
670 34 0.17311 0.73886 0.5
559 33 0.200816 0.719395 0.5
461 32 0.202506 0.753469 0.5
896 29 0.228478 0.699514 0.5
738 32 0.230262 0.733914 0.5
473 31 0.258781 0.713824 0.5
513 27 0.256195 0.74631 0.5
659 35 0.289366 0.70239 0.5
31 23 0.28598 0.733948 0.5
291 27 0.316281 0.724351 0.5
717 30 0.309942 0.756392 0.5
682 36 0.346512 0.714874 0.5
650 29 0.3389 0.750613 0.5
509 27 0.370051 0.738953 0.5
993 30 0.377749 0.706306 0.5
102 22 0.409085 0.697132 0.5
390 32 0.401657 0.72873 0.5
551 30 0.429175 0.752425 0.5
741 34 0.432994 0.720568 0.5
934 25 0.459313 0.742211 0.5
444 33 0.496411 0.694302 0.5
107 29 0.463175 0.708453 0.5
598 34 0.489691 0.727361 0.5
877 29 0.514896 0.749387 0.5
810 31 0.521435 0.714462 0.5
562 37 0.547284 0.73707 0.5
153 37 0.553634 0.700257 0.5
16 32 0.580079 0.725604 0.5
609 30 0.612441 0.716034 0.5
355 31 0.605637 0.748302 0.5
214 34 0.635232 0.737363 0.5
250 30 0.641268 0.703179 0.5
719 23 0.664797 0.72387 0.5
591 26 0.694018 0.723282 0.5
990 40 0.668761 0.757041 0.5
183 28 0.706756 0.694018 0.5
158 35 0.725177 0.720755 0.5
229 32 0.707318 0.752561 0.5
955 28 0.74095 0.74538 0.5
703 30 0.761181 0.722089 0.5
880 40 0.795831 0.715842 0.5
663 33 0.785897 0.749251 0.5
483 28 0.819391 0.73838 0.5
258 38 0.829201 0.699935 0.5
89 30 0.850755 0.729957 0.5
924 25 0.86083 0.702753 0.5
33 30 0.877085 0.747566 0.5
328 23 0.887003 0.717353 0.5
931 30 0.91432 0.700726 0.5
622 28 0.908523 0.735983 0.5
436 31 0.937084 0.722313 0.5
538 34 0.938961 0.75616 0.5
161 27 0.994466 0.71803 0.5
747 24 0.966864 0.706207 0.5
828 29 0.967431 0.73692 0.5
694 31 0.0280381 0.768829 0.5
488 26 0.0334615 0.803147 0.5
279 32 0.0575342 0.777925 0.5
809 27 0.0641572 0.808031 0.5
743 33 0.0837 0.759825 0.5
172 21 0.0869138 0.792156 0.5
455 31 0.11499 0.774808 0.5
852 34 0.114038 0.807661 0.5
577 36 0.143126 0.756978 0.5
819 30 0.144896 0.792221 0.5
181 32 0.173996 0.807614 0.5
831 29 0.173846 0.773091 0.5
203 39 0.204177 0.789416 0.5
517 36 0.233929 0.809925 0.5
71 34 0.235035 0.770695 0.5
847 37 0.265387 0.793897 0.5
629 25 0.279685 0.763525 0.5
58 27 0.298604 0.788635 0.5
330 27 0.322014 0.810791 0.5
835 33 0.332355 0.782473 0.5
78 20 0.358853 0.802181 0.5
982 32 0.362924 0.772796 0.5
467 31 0.389755 0.795527 0.5
921 37 0.395383 0.763773 0.5
14 28 0.422484 0.784353 0.5
148 34 0.415414 0.816924 0.5
493 25 0.447638 0.80542 0.5
708 26 0.452825 0.773782 0.5
752 26 0.482032 0.760752 0.5
499 18 0.475779 0.793 0.5
824 31 0.498789 0.813213 0.5
649 35 0.504232 0.781843 0.5
836 29 0.539258 0.771094 0.5
243 33 0.53237 0.803759 0.5
408 27 0.564748 0.791979 0.5
139 29 0.572107 0.75919 0.5
241 33 0.597276 0.780641 0.5
208 32 0.590985 0.815899 0.5
420 34 0.623973 0.804789 0.5
173 30 0.630381 0.770406 0.5
571 43 0.657721 0.794441 0.5
301 36 0.695193 0.787138 0.5
660 27 0.728776 0.776155 0.5
569 33 0.720372 0.80982 0.5
356 25 0.75121 0.797722 0.5
940 27 0.758515 0.767673 0.5
63 29 0.784275 0.784053 0.5
164 33 0.777144 0.815874 0.5
905 30 0.813902 0.771287 0.5
55 28 0.809366 0.804732 0.5
378 31 0.844844 0.759407 0.5
676 31 0.840291 0.792249 0.5
262 32 0.871443 0.782097 0.5
895 29 0.869921 0.81562 0.5
242 36 0.904317 0.768268 0.5
115 23 0.900563 0.801764 0.5
143 30 0.932019 0.788008 0.5
710 37 0.997281 0.754799 0.5
350 16 0.95294 0.806152 0.5
298 38 1.00242 0.791882 0.5
987 35 0.966376 0.778305 0.5
516 40 0.0470049 0.8383 0.5
367 28 0.0470802 0.872188 0.5
712 29 0.0158975 0.86149 0.5
813 30 0.0122068 0.827463 0.5
442 35 0.0817146 0.861593 0.5
705 29 0.0841984 0.828035 0.5
623 36 0.112677 0.878384 0.5
754 31 0.114416 0.842386 0.5
608 29 0.144313 0.826087 0.5
374 35 0.144375 0.859348 0.5
124 28 0.17368 0.842003 0.5
966 25 0.174244 0.88065 0.5
389 39 0.202459 0.863997 0.5
769 29 0.202127 0.825994 0.5
927 32 0.231363 0.845535 0.5
592 25 0.232831 0.879375 0.5
646 28 0.291474 0.818804 0.5
274 27 0.262913 0.831726 0.5
597 24 0.260703 0.863906 0.5
331 26 0.287472 0.850329 0.5
823 28 0.317598 0.840474 0.5
385 32 0.329323 0.869404 0.5
114 26 0.34639 0.829126 0.5
763 34 0.361764 0.858398 0.5
957 36 0.380546 0.827517 0.5
169 21 0.386062 0.877137 0.5
492 39 0.410285 0.854533 0.5
409 30 0.44282 0.836858 0.5
178 23 0.438992 0.8697 0.5
715 23 0.472951 0.824395 0.5
845 27 0.46755 0.85823 0.5
798 34 0.496011 0.849265 0.5
192 36 0.525009 0.838805 0.5
340 22 0.521907 0.870415 0.5
57 32 0.552159 0.860548 0.5
704 34 0.557852 0.824563 0.5
138 31 0.584112 0.850981 0.5
485 34 0.616964 0.84006 0.5
874 37 0.61237 0.872316 0.5
737 34 0.683281 0.821899 0.5
799 27 0.647992 0.828071 0.5
568 31 0.647898 0.861007 0.5
838 23 0.678439 0.855139 0.5
744 33 0.703704 0.876642 0.5
857 39 0.711653 0.842864 0.5
68 31 0.73936 0.863056 0.5
986 28 0.746834 0.830206 0.5
382 37 0.771148 0.852442 0.5
397 33 0.801598 0.837103 0.5
182 33 0.797238 0.872534 0.5
615 28 0.830479 0.862076 0.5
943 44 0.83596 0.827513 0.5
528 33 0.863136 0.849096 0.5
393 39 0.892586 0.869242 0.5
249 34 0.924937 0.820656 0.5
964 33 0.896472 0.83514 0.5
886 28 0.926607 0.854673 0.5
648 25 0.978936 0.815597 0.5
685 30 0.954488 0.83552 0.5
998 31 0.985758 0.845935 0.5
155 30 0.956687 0.869222 0.5
976 22 0.026164 0.923212 0.5
369 35 0.0528251 0.904528 0.5
170 33 0.0190241 0.89383 0.5
290 31 0.0828335 0.895333 0.5
215 28 0.0794867 0.92787 0.5
180 33 0.110366 0.915963 0.5
511 38 0.143036 0.896137 0.5
168 37 0.14168 0.93677 0.5
706 32 0.171218 0.914993 0.5
227 32 0.201333 0.937314 0.5
216 42 0.204896 0.900776 0.5
753 32 0.231467 0.925067 0.5
914 25 0.263578 0.937215 0.5
707 45 0.293076 0.882987 0.5
376 40 0.259427 0.901295 0.5
263 29 0.292736 0.923357 0.5
991 33 0.323808 0.907794 0.5
457 37 0.320883 0.942406 0.5
280 38 0.355791 0.893638 0.5
358 28 0.353105 0.927891 0.5
414 34 0.384466 0.909603 0.5
699 23 0.410002 0.889508 0.5
440 39 0.41563 0.928867 0.5
104 25 0.435214 0.898671 0.5
445 35 0.454799 0.921507 0.5
930 26 0.492868 0.880916 0.5
580 27 0.463717 0.889566 0.5
430 33 0.486986 0.912857 0.5
425 32 0.511035 0.934093 0.5
898 28 0.517714 0.901883 0.5
211 19 0.540052 0.924413 0.5
536 28 0.54702 0.893517 0.5
452 33 0.571093 0.916658 0.5
582 28 0.577562 0.882522 0.5
742 31 0.607354 0.905991 0.5
103 33 0.59956 0.939164 0.5
332 27 0.634267 0.926942 0.5
637 28 0.64013 0.894475 0.5
655 29 0.671563 0.884441 0.5
530 29 0.664566 0.917746 0.5
365 27 0.696697 0.9076 0.5
521 32 0.689138 0.941497 0.5
768 31 0.734109 0.894945 0.5
265 41 0.72458 0.926399 0.5
106 20 0.757591 0.918824 0.5
797 31 0.766572 0.889637 0.5
377 27 0.794781 0.904505 0.5
677 39 0.784838 0.938053 0.5
272 36 0.821663 0.926736 0.5
379 27 0.825231 0.893671 0.5
34 31 0.856265 0.882523 0.5
938 23 0.850481 0.912942 0.5
644 30 0.881957 0.901138 0.5
310 33 0.874772 0.934009 0.5
933 29 0.906105 0.921933 0.5
202 38 0.925174 0.888315 0.5
700 26 0.938828 0.918757 0.5
596 27 0.988888 0.879977 0.5
252 35 0.993922 0.923949 0.5
448 32 0.96491 0.901789 0.5
936 25 0.963223 0.935374 0.5
851 31 0.0510746 0.939132 0.5
193 28 0.017897 0.952705 0.5
66 32 0.0462541 0.972419 0.5
548 36 0.0145579 0.986939 0.5
260 28 0.0729264 0.994546 0.5
487 30 0.0779691 0.962117 0.5
996 26 0.106619 0.949137 0.5
564 26 0.104305 0.978733 0.5
941 29 0.131733 0.99844 0.5
736 26 0.131591 0.967861 0.5
239 35 0.163511 0.979263 0.5
245 22 0.173149 0.948037 0.5
167 27 0.191962 1.00253 0.5
756 28 0.195879 0.969784 0.5
856 28 0.222616 0.99013 0.5
293 35 0.229112 0.95754 0.5
427 31 0.251346 1.00347 0.5
403 25 0.258722 0.969603 0.5
144 34 0.284265 0.988259 0.5
953 29 0.287516 0.954775 0.5
325 32 0.317319 0.976491 0.5
701 38 0.382195 0.947667 0.5
464 30 0.344303 0.994541 0.5
671 25 0.349221 0.962665 0.5
950 32 0.376878 0.981733 0.5
795 35 0.404131 1.00201 0.5
900 25 0.410688 0.968264 0.5
944 29 0.436623 0.990389 0.5
912 38 0.442705 0.955513 0.5
413 26 0.479787 0.946924 0.5
788 33 0.46786 0.978514 0.5
121 32 0.492199 1.00077 0.5
761 29 0.500788 0.96845 0.5
832 41 0.525021 0.995477 0.5
305 29 0.533503 0.959493 0.5
779 37 0.558719 0.984364 0.5
44 33 0.564927 0.949555 0.5
603 29 0.584909 1.0037 0.5
749 28 0.591103 0.971325 0.5
312 38 0.617774 0.991664 0.5
994 28 0.626975 0.959775 0.5
317 37 0.653072 0.986284 0.5
745 35 0.658663 0.953199 0.5
859 39 0.687733 0.978723 0.5
855 31 0.72898 0.983578 0.5
165 22 0.716659 0.95805 0.5
97 23 0.759094 0.985831 0.5
733 37 0.751324 0.954668 0.5
652 41 0.786956 0.973549 0.5
456 31 0.811351 0.994993 0.5
653 24 0.816282 0.958039 0.5
589 24 0.845059 0.950306 0.5
983 32 0.840604 0.981344 0.5
244 29 0.865986 1.00123 0.5
920 29 0.871735 0.966718 0.5
766 28 0.929801 0.945213 0.5
346 29 0.896241 0.988801 0.5
210 27 0.899955 0.956371 0.5
806 27 0.92603 0.976479 0.5
662 32 0.952917 0.992827 0.5
849 35 0.985103 0.962502 0.5
574 22 0.953305 0.962838 0.5
