ITEM: TIMESTEP
500000
ITEM: NUMBER OF ATOMS
1000
ITEM: BOX BOUNDS pp pp pp
-1.4916282000000001e+01 1.4916282000000001e+01
-1.4916282000000001e+01 1.4916282000000001e+01
-5.0000000000000000e-01 5.0000000000000000e-01
ITEM: ATOMS id type xs ys zs
245 22 0.0522686 0.0224693 0.5
976 23 0.0107349 0.0161243 0.5
80 29 0.0274349 0.0425474 0.5
260 28 0.0609209 0.0486986 0.5
407 26 0.0825392 0.0234804 0.5
290 31 0.113089 0.0257296 0.5
848 29 0.0959212 0.0533064 0.5
168 36 0.148531 0.0238628 0.5
203 39 0.182655 0.0208358 0.5
405 29 0.130627 0.0538714 0.5
429 27 0.164822 0.0549934 0.5
280 38 0.201883 0.045627 0.5
701 37 0.237383 0.0407964 0.5
473 31 0.218447 0.0106743 0.5
847 37 0.255093 0.00710129 0.5
181 32 0.276555 0.0320262 0.5
409 30 0.310786 0.0250503 0.5
646 28 0.300289 0.0559017 0.5
763 34 0.265501 0.0625386 0.5
950 32 0.3316 0.0497132 0.5
263 29 0.34176 0.0167626 0.5
961 30 0.366668 0.042262 0.5
144 34 0.378245 0.0120645 0.5
900 25 0.39899 0.0380474 0.5
699 23 0.430665 0.0342993 0.5
871 28 0.410792 0.00898315 0.5
464 30 0.420413 0.0648454 0.5
457 37 0.444342 0.00172766 0.5
912 38 0.465499 0.0320788 0.5
779 37 0.501678 0.0252649 0.5
103 33 0.451731 0.0636294 0.5
874 37 0.491791 0.060322 0.5
637 28 0.526867 0.0472362 0.5
603 29 0.534451 0.0123072 0.5
307 32 0.558734 0.032126 0.5
898 28 0.56436 7.51822e-05 0.5
737 34 0.590486 0.0190871 0.5
332 27 0.620743 0.0355619 0.5
768 31 0.621134 0.00266551 0.5
225 34 0.591252 0.052017 0.5
838 23 0.648558 0.0205825 0.5
360 18 0.671189 0.0358394 0.5
571 42 0.684049 0.00686968 0.5
963 27 0.645491 0.052129 0.5
745 35 0.702232 0.0362166 0.5
329 34 0.736187 0.035555 0.5
365 27 0.723582 0.00763453 0.5
655 29 0.717298 0.0650795 0.5
165 22 0.754747 0.00650824 0.5
270 31 0.768995 0.0354021 0.5
733 37 0.805015 0.0389098 0.5
164 33 0.789202 0.00838314 0.5
393 38 0.825809 0.00959063 0.5
644 30 0.840779 0.0448426 0.5
382 37 0.859577 0.0148348 0.5
886 28 0.87428 0.0499301 0.5
762 32 0.893881 0.0231683 0.5
939 37 0.926518 0.0296123 0.5
448 32 0.905411 0.0556803 0.5
923 33 0.938407 0.0614242 0.5
622 28 0.947623 0.00604682 0.5
28 27 0.961809 0.036198 0.5
736 26 0.994742 0.0406945 0.5
24 29 0.981793 0.00989589 0.5
199 36 0.0521595 0.106211 0.5
171 34 0.0386436 0.0737193 0.5
729 23 0.0166403 0.101254 0.5
672 31 0.00626986 0.070656 0.5
770 41 0.0754188 0.0791518 0.5
705 29 0.0908686 0.109732 0.5
756 28 0.113214 0.0829195 0.5
597 24 0.120903 0.112047 0.5
216 41 0.148108 0.0875112 0.5
18 41 0.186987 0.0798119 0.5
935 25 0.148389 0.12099 0.5
239 35 0.177732 0.114098 0.5
389 39 0.227405 0.0784293 0.5
927 32 0.209581 0.112633 0.5
802 35 0.24114 0.115797 0.5
966 25 0.258631 0.0905702 0.5
400 34 0.289763 0.0902007 0.5
671 25 0.275441 0.117363 0.5
834 31 0.311014 0.116628 0.5
944 29 0.320552 0.0829421 0.5
991 33 0.35426 0.0755518 0.5
104 25 0.375214 0.094205 0.5
175 43 0.345644 0.114259 0.5
493 25 0.388704 0.0669363 0.5
114 26 0.404188 0.0953734 0.5
582 28 0.436811 0.0943752 0.5
452 33 0.420593 0.12331 0.5
949 34 0.38378 0.125056 0.5
4 33 0.46955 0.091131 0.5
485 34 0.500723 0.0964928 0.5
372 27 0.454206 0.123817 0.5
508 28 0.48527 0.123596 0.5
832 41 0.557139 0.0673285 0.5
761 29 0.524913 0.08042 0.5
666 32 0.554045 0.103048 0.5
121 32 0.521916 0.120145 0.5
416 34 0.618112 0.0702314 0.5
91 25 0.585169 0.0864112 0.5
138 31 0.6157 0.104432 0.5
217 32 0.585639 0.11992 0.5
521 32 0.679807 0.0641101 0.5
312 38 0.650204 0.0877547 0.5
408 28 0.676552 0.108572 0.5
363 25 0.698802 0.0897557 0.5
829 25 0.731445 0.0919383 0.5
356 25 0.748585 0.064627 0.5
136 37 0.709822 0.123509 0.5
530 29 0.742551 0.119786 0.5
859 39 0.785306 0.0685289 0.5
377 27 0.763126 0.0936076 0.5
615 28 0.796869 0.101055 0.5
44 33 0.775636 0.125886 0.5
27 33 0.820242 0.0739212 0.5
662 32 0.834231 0.103033 0.5
653 24 0.854777 0.0753239 0.5
589 24 0.866482 0.107737 0.5
806 27 0.884692 0.082763 0.5
574 22 0.896206 0.111932 0.5
803 31 0.917392 0.0892467 0.5
995 25 0.927782 0.119428 0.5
54 29 0.972733 0.0662572 0.5
611 36 0.951967 0.0927256 0.5
130 28 0.986468 0.0968573 0.5
376 40 0.994623 0.128617 0.5
542 32 0.959841 0.12356 0.5
120 30 0.0280118 0.132067 0.5
87 28 0.0437164 0.16467 0.5
881 27 0.00978162 0.161247 0.5
962 46 0.0638671 0.135657 0.5
196 31 0.0819535 0.170062 0.5
967 24 0.100155 0.140167 0.5
179 31 0.113124 0.1725 0.5
140 30 0.130263 0.144939 0.5
550 25 0.146114 0.171841 0.5
403 25 0.165263 0.148038 0.5
856 28 0.180314 0.174028 0.5
84 27 0.195868 0.144087 0.5
564 27 0.209411 0.173139 0.5
651 24 0.227355 0.145617 0.5
556 29 0.243416 0.172885 0.5
690 27 0.260217 0.14549 0.5
607 37 0.295452 0.147407 0.5
728 34 0.279259 0.176745 0.5
621 27 0.313443 0.177612 0.5
753 32 0.331416 0.147726 0.5
914 25 0.364176 0.15081 0.5
658 35 0.349433 0.178307 0.5
841 31 0.400748 0.153582 0.5
368 33 0.433947 0.152109 0.5
794 31 0.383082 0.181341 0.5
73 31 0.417872 0.18433 0.5
674 28 0.465764 0.153187 0.5
21 31 0.498843 0.15186 0.5
174 31 0.450561 0.182529 0.5
581 23 0.484168 0.180989 0.5
443 28 0.529505 0.153091 0.5
568 31 0.556959 0.137831 0.5
500 41 0.517968 0.183125 0.5
265 41 0.554388 0.178669 0.5
176 33 0.585643 0.159386 0.5
317 37 0.613971 0.140332 0.5
557 37 0.618442 0.177506 0.5
540 35 0.64659 0.125352 0.5
679 42 0.648494 0.159791 0.5
529 28 0.679785 0.14132 0.5
578 29 0.680138 0.176048 0.5
952 34 0.711542 0.157569 0.5
364 32 0.749162 0.149856 0.5
12 34 0.735712 0.182945 0.5
177 24 0.76798 0.176604 0.5
544 28 0.790835 0.157517 0.5
264 31 0.811553 0.130911 0.5
901 37 0.822581 0.161389 0.5
210 28 0.846495 0.131053 0.5
855 31 0.85774 0.162381 0.5
346 29 0.879098 0.137365 0.5
661 30 0.891241 0.169842 0.5
751 24 0.909332 0.141967 0.5
326 43 0.919499 0.177965 0.5
776 31 0.941331 0.151808 0.5
345 32 0.974597 0.15653 0.5
132 31 0.954403 0.185521 0.5
897 31 0.988753 0.188617 0.5
252 35 0.0230709 0.191772 0.5
792 31 0.0396808 0.226382 0.5
917 39 0.0600065 0.197838 0.5
555 30 0.0184511 0.251452 0.5
428 28 0.0724048 0.229241 0.5
812 27 0.0941926 0.201644 0.5
787 27 0.105965 0.231522 0.5
786 38 0.128346 0.203516 0.5
427 31 0.142827 0.233122 0.5
532 28 0.161464 0.199914 0.5
720 28 0.175104 0.227955 0.5
273 28 0.194175 0.202401 0.5
754 31 0.208271 0.233123 0.5
965 29 0.225952 0.20273 0.5
888 28 0.241408 0.230895 0.5
303 29 0.259828 0.203782 0.5
333 30 0.276246 0.233265 0.5
331 26 0.295053 0.204532 0.5
201 34 0.309888 0.233954 0.5
645 33 0.328892 0.208471 0.5
96 30 0.364401 0.209393 0.5
977 35 0.346615 0.239364 0.5
734 32 0.399498 0.209867 0.5
72 26 0.433442 0.211276 0.5
664 32 0.380955 0.238648 0.5
626 35 0.416258 0.240289 0.5
434 24 0.4625 0.212957 0.5
497 32 0.493985 0.209895 0.5
424 23 0.448637 0.240045 0.5
988 20 0.478625 0.238202 0.5
821 26 0.529955 0.212789 0.5
426 23 0.558372 0.212288 0.5
94 25 0.548593 0.239849 0.5
402 37 0.512146 0.239283 0.5
309 34 0.585399 0.195182 0.5
740 34 0.581813 0.233056 0.5
730 31 0.615594 0.211198 0.5
112 25 0.611564 0.240621 0.5
383 35 0.650929 0.198336 0.5
100 33 0.642337 0.232781 0.5
625 32 0.675442 0.22145 0.5
381 32 0.703202 0.196967 0.5
6 15 0.706359 0.226211 0.5
375 30 0.733251 0.216491 0.5
156 25 0.725528 0.247609 0.5
879 33 0.798253 0.191951 0.5
353 29 0.76418 0.206518 0.5
652 41 0.788034 0.229096 0.5
39 27 0.755084 0.239388 0.5
41 31 0.867195 0.194985 0.5
283 36 0.834001 0.192343 0.5
698 21 0.820398 0.220539 0.5
85 23 0.848849 0.222072 0.5
2 28 0.876065 0.229461 0.5
456 31 0.898429 0.205463 0.5
606 34 0.934999 0.212623 0.5
336 35 0.911874 0.238087 0.5
369 35 1.00551 0.219499 0.5
618 35 0.969443 0.218727 0.5
188 31 0.948187 0.244785 0.5
259 20 0.984347 0.246467 0.5
233 27 0.0538898 0.254941 0.5
764 37 0.033067 0.280798 0.5
26 39 0.0129993 0.309622 0.5
95 32 0.0485137 0.31498 0.5
8 25 0.0669208 0.286278 0.5
815 30 0.0847403 0.258144 0.5
902 30 0.120808 0.259726 0.5
357 36 0.100115 0.287133 0.5
620 28 0.133816 0.290464 0.5
162 32 0.153479 0.265429 0.5
636 22 0.168183 0.293007 0.5
707 45 0.186851 0.258942 0.5
65 31 0.200419 0.288989 0.5
232 27 0.222662 0.260935 0.5
228 27 0.234683 0.290544 0.5
36 37 0.258242 0.261793 0.5
361 33 0.272141 0.292431 0.5
275 32 0.292328 0.264443 0.5
616 30 0.309275 0.29299 0.5
875 34 0.328231 0.2666 0.5
692 28 0.344396 0.296814 0.5
105 31 0.365164 0.269122 0.5
296 30 0.380186 0.29896 0.5
421 34 0.399085 0.27008 0.5
101 27 0.414557 0.300137 0.5
491 30 0.434169 0.268077 0.5
814 31 0.450166 0.298739 0.5
566 31 0.468401 0.265732 0.5
251 32 0.483067 0.297337 0.5
476 22 0.499075 0.270263 0.5
1000 35 0.515838 0.298239 0.5
478 29 0.530398 0.266599 0.5
727 36 0.551695 0.294889 0.5
83 31 0.566871 0.266302 0.5
892 23 0.584897 0.293315 0.5
531 26 0.59846 0.265514 0.5
519 24 0.613855 0.291069 0.5
471 25 0.629013 0.263254 0.5
887 32 0.662703 0.257863 0.5
166 30 0.646618 0.288537 0.5
289 22 0.682047 0.283204 0.5
418 34 0.668504 0.314317 0.5
278 33 0.693113 0.252138 0.5
980 28 0.713812 0.279056 0.5
141 32 0.745201 0.272638 0.5
341 25 0.733347 0.306353 0.5
343 33 0.701905 0.309987 0.5
723 29 0.764805 0.297617 0.5
822 35 0.779969 0.263524 0.5
713 37 0.798 0.291037 0.5
548 36 0.816872 0.254115 0.5
313 33 0.851209 0.254556 0.5
545 38 0.831811 0.286846 0.5
716 30 0.867039 0.285166 0.5
781 29 0.885925 0.258927 0.5
973 22 0.896372 0.286849 0.5
586 42 0.927519 0.274955 0.5
807 23 0.914101 0.307614 0.5
686 30 0.997604 0.276185 0.5
191 36 0.965736 0.27255 0.5
288 35 0.948363 0.304467 0.5
929 33 0.981174 0.306503 0.5
628 31 0.028356 0.343576 0.5
783 26 0.0631042 0.342954 0.5
212 25 0.00894213 0.370852 0.5
687 33 0.0426011 0.371894 0.5
885 25 0.0803649 0.316887 0.5
793 29 0.11331 0.31929 0.5
709 30 0.0963456 0.346222 0.5
60 27 0.076352 0.372851 0.5
942 26 0.130808 0.348208 0.5
837 33 0.147596 0.318615 0.5
92 28 0.18338 0.319591 0.5
765 24 0.163223 0.348975 0.5
524 33 0.197734 0.349971 0.5
785 33 0.218954 0.319045 0.5
541 33 0.232521 0.350914 0.5
563 35 0.253783 0.322269 0.5
458 36 0.270746 0.352204 0.5
300 36 0.289654 0.324131 0.5
306 27 0.305566 0.356325 0.5
384 41 0.32434 0.325178 0.5
20 35 0.342077 0.355124 0.5
587 36 0.36174 0.32785 0.5
77 20 0.377492 0.360588 0.5
504 39 0.398968 0.332379 0.5
665 41 0.430243 0.331472 0.5
593 25 0.412099 0.364366 0.5
771 26 0.445478 0.361585 0.5
958 23 0.465431 0.326715 0.5
157 32 0.479485 0.355227 0.5
893 30 0.498611 0.328055 0.5
688 27 0.521701 0.351548 0.5
125 30 0.536117 0.324842 0.5
866 29 0.556362 0.353166 0.5
206 32 0.571682 0.322947 0.5
110 30 0.602229 0.321995 0.5
9 28 0.587941 0.351722 0.5
904 34 0.621332 0.348912 0.5
17 27 0.632923 0.316946 0.5
760 26 0.653508 0.343822 0.5
277 26 0.687577 0.342466 0.5
282 27 0.674418 0.370258 0.5
43 35 0.641873 0.375281 0.5
974 26 0.718832 0.3358 0.5
983 32 0.739105 0.362248 0.5
590 25 0.705418 0.365984 0.5
553 32 0.753728 0.329896 0.5
135 29 0.773594 0.356674 0.5
438 27 0.786245 0.324821 0.5
725 38 0.807228 0.351417 0.5
818 25 0.819483 0.319987 0.5
632 30 0.852935 0.315491 0.5
579 28 0.840551 0.3447 0.5
512 31 0.873572 0.343324 0.5
480 26 0.885498 0.313902 0.5
465 27 0.905985 0.338571 0.5
959 27 0.930907 0.33233 0.5
790 32 0.896128 0.368829 0.5
534 33 0.934608 0.363717 0.5
631 30 0.996492 0.340336 0.5
951 29 0.961462 0.333976 0.5
748 35 0.973023 0.365061 0.5
422 30 0.0541915 0.401569 0.5
791 27 0.0230062 0.399785 0.5
594 33 0.0328959 0.429162 0.5
111 28 0.111091 0.374545 0.5
882 36 0.0911555 0.402189 0.5
116 23 0.125608 0.403554 0.5
750 32 0.104116 0.43152 0.5
913 29 0.0697037 0.431293 0.5
51 31 0.144223 0.37698 0.5
154 28 0.179443 0.377111 0.5
423 34 0.159952 0.406142 0.5
82 33 0.140033 0.435052 0.5
410 40 0.173457 0.440975 0.5
833 33 0.195049 0.406365 0.5
925 23 0.214906 0.379603 0.5
702 28 0.229817 0.408752 0.5
506 37 0.24846 0.382433 0.5
722 33 0.209356 0.435646 0.5
40 39 0.2472 0.436294 0.5
693 29 0.284743 0.383216 0.5
412 29 0.264264 0.411617 0.5
956 33 0.297254 0.414083 0.5
349 40 0.320409 0.384934 0.5
117 31 0.360068 0.385426 0.5
266 35 0.335553 0.415818 0.5
126 32 0.372262 0.416774 0.5
549 30 0.392803 0.389497 0.5
406 30 0.404957 0.420922 0.5
42 40 0.431225 0.393573 0.5
62 28 0.434396 0.427658 0.5
348 27 0.467801 0.386186 0.5
411 31 0.462965 0.419111 0.5
432 29 0.494672 0.411232 0.5
347 44 0.504278 0.379285 0.5
805 27 0.540151 0.379642 0.5
928 33 0.527756 0.410268 0.5
619 32 0.56027 0.411931 0.5
70 28 0.57277 0.382854 0.5
431 31 0.604914 0.380492 0.5
772 32 0.593218 0.412946 0.5
267 27 0.615986 0.437883 0.5
910 30 0.62802 0.407073 0.5
711 34 0.662838 0.402091 0.5
118 26 0.68211 0.429076 0.5
46 34 0.647932 0.434673 0.5
47 31 0.69553 0.395341 0.5
916 25 0.726698 0.392403 0.5
999 36 0.713709 0.422926 0.5
633 30 0.744942 0.422075 0.5
294 29 0.792632 0.384896 0.5
338 29 0.75932 0.389704 0.5
35 37 0.780999 0.41779 0.5
911 29 0.814401 0.41213 0.5
533 35 0.827847 0.379636 0.5
575 32 0.86101 0.375111 0.5
585 32 0.846425 0.407045 0.5
869 32 0.868045 0.435043 0.5
495 33 0.88255 0.40334 0.5
600 35 0.919971 0.395242 0.5
503 37 0.905422 0.427394 0.5
684 25 0.938315 0.423278 0.5
946 30 0.954254 0.394538 0.5
971 20 0.968488 0.41958 0.5
234 34 0.990902 0.397041 0.5
22 34 0.998184 0.432436 0.5
680 29 0.0513475 0.460465 0.5
830 29 0.0170034 0.45985 0.5
641 29 0.0322017 0.492106 0.5
352 27 0.0850967 0.459953 0.5
714 29 0.118843 0.462664 0.5
399 34 0.0654152 0.490722 0.5
342 39 0.100186 0.491567 0.5
127 23 0.150646 0.466107 0.5
10 29 0.133807 0.493486 0.5
129 36 0.168658 0.495821 0.5
151 37 0.19333 0.471052 0.5
668 23 0.225353 0.463349 0.5
883 35 0.225042 0.491321 0.5
948 36 0.258169 0.469334 0.5
475 26 0.280135 0.440452 0.5
128 31 0.295713 0.468322 0.5
634 18 0.277482 0.490855 0.5
572 34 0.308531 0.500061 0.5
446 28 0.314702 0.441954 0.5
576 33 0.329928 0.47215 0.5
45 28 0.350084 0.445982 0.5
470 29 0.362926 0.477377 0.5
25 33 0.38328 0.449397 0.5
371 29 0.417161 0.454678 0.5
543 33 0.395788 0.480685 0.5
758 22 0.428542 0.483799 0.5
767 39 0.452795 0.458112 0.5
133 32 0.485434 0.44305 0.5
595 35 0.498735 0.473738 0.5
79 37 0.462815 0.488785 0.5
281 25 0.515058 0.442119 0.5
870 30 0.546731 0.440459 0.5
560 29 0.532407 0.469458 0.5
163 26 0.52188 0.499019 0.5
691 38 0.566403 0.470906 0.5
394 29 0.578957 0.441437 0.5
318 35 0.602634 0.467343 0.5
573 30 0.589025 0.497571 0.5
810 31 0.622785 0.496637 0.5
850 23 0.635896 0.465949 0.5
678 30 0.667793 0.461668 0.5
324 38 0.691224 0.486652 0.5
474 28 0.653731 0.49144 0.5
311 28 0.69942 0.453984 0.5
853 20 0.72455 0.4894 0.5
968 37 0.731269 0.456724 0.5
784 28 0.755099 0.481912 0.5
867 37 0.801106 0.446114 0.5
137 33 0.766201 0.451309 0.5
187 33 0.789892 0.477546 0.5
778 24 0.809558 0.501373 0.5
489 22 0.825474 0.470559 0.5
271 30 0.834124 0.440135 0.5
696 27 0.856402 0.465879 0.5
231 32 0.843651 0.496254 0.5
906 38 0.890548 0.459292 0.5
726 29 0.926954 0.453412 0.5
240 29 0.91071 0.48463 0.5
675 27 0.8779 0.492426 0.5
401 25 0.939945 0.482304 0.5
109 42 0.961719 0.452729 0.5
624 24 0.967447 0.489632 0.5
344 21 0.987114 0.463873 0.5
186 31 0.999726 0.490609 0.5
204 34 0.0448256 0.525163 0.5
972 29 0.0142168 0.522533 0.5
854 28 0.0244559 0.555382 0.5
351 31 0.0603919 0.55642 0.5
447 36 0.0778884 0.523754 0.5
7 35 0.112024 0.524752 0.5
441 30 0.092789 0.554885 0.5
284 35 0.148686 0.526586 0.5
985 25 0.181386 0.52973 0.5
286 31 0.128699 0.554466 0.5
29 29 0.162954 0.557295 0.5
48 25 0.198799 0.506485 0.5
11 37 0.221711 0.529685 0.5
640 37 0.198215 0.560238 0.5
507 29 0.235261 0.565891 0.5
226 31 0.2518 0.507397 0.5
152 34 0.2575 0.544239 0.5
804 29 0.281724 0.519773 0.5
800 23 0.289278 0.548602 0.5
486 37 0.318051 0.533997 0.5
246 33 0.34395 0.50398 0.5
370 37 0.355523 0.533646 0.5
388 26 0.339759 0.560207 0.5
479 21 0.376224 0.50618 0.5
826 30 0.385922 0.538994 0.5
321 31 0.408189 0.510844 0.5
323 30 0.417839 0.544246 0.5
23 28 0.440049 0.513366 0.5
864 25 0.492484 0.502235 0.5
915 27 0.471579 0.524721 0.5
108 33 0.448632 0.547233 0.5
481 30 0.483581 0.554976 0.5
404 31 0.506966 0.529752 0.5
297 30 0.553242 0.498817 0.5
899 23 0.537013 0.527605 0.5
123 18 0.516234 0.557347 0.5
570 34 0.549052 0.556837 0.5
816 32 0.569714 0.526713 0.5
997 34 0.606241 0.528487 0.5
484 34 0.585878 0.558516 0.5
322 23 0.63974 0.524752 0.5
64 31 0.658957 0.550854 0.5
683 34 0.673595 0.520652 0.5
584 25 0.693772 0.545868 0.5
119 29 0.743395 0.512984 0.5
295 33 0.708884 0.516664 0.5
601 31 0.730031 0.54223 0.5
546 32 0.776904 0.508231 0.5
862 25 0.764375 0.538728 0.5
496 30 0.796144 0.530439 0.5
981 30 0.785047 0.564098 0.5
777 27 0.829789 0.526214 0.5
960 40 0.865878 0.523328 0.5
878 32 0.816947 0.558425 0.5
134 34 0.851577 0.553703 0.5
918 39 0.890056 0.551882 0.5
190 39 0.906351 0.516524 0.5
205 27 0.926927 0.545286 0.5
359 34 0.944094 0.514954 0.5
450 24 0.960864 0.542629 0.5
789 28 0.979869 0.517523 0.5
468 27 0.992356 0.54781 0.5
160 29 0.0390194 0.586189 0.5
992 37 0.00368265 0.583518 0.5
627 33 0.0561615 0.616963 0.5
74 35 0.0228951 0.618368 0.5
1 26 0.0726313 0.586017 0.5
739 42 0.106525 0.584994 0.5
472 27 0.0874425 0.617019 0.5
907 27 0.120232 0.61301 0.5
547 33 0.142356 0.584022 0.5
386 36 0.179934 0.592148 0.5
145 25 0.151563 0.610095 0.5
460 34 0.215082 0.591314 0.5
13 31 0.250704 0.594 0.5
954 24 0.200332 0.618177 0.5
99 25 0.231923 0.619619 0.5
32 22 0.272523 0.57168 0.5
796 26 0.284011 0.599734 0.5
638 47 0.309574 0.577702 0.5
15 33 0.265341 0.62576 0.5
304 28 0.347172 0.590187 0.5
604 22 0.368788 0.565789 0.5
523 22 0.324677 0.610341 0.5
230 31 0.355864 0.621001 0.5
840 26 0.378291 0.59391 0.5
602 25 0.396982 0.570892 0.5
732 28 0.430642 0.575443 0.5
209 26 0.409431 0.598855 0.5
198 35 0.388707 0.628054 0.5
454 32 0.443554 0.604296 0.5
49 27 0.462752 0.578921 0.5
184 27 0.476576 0.607785 0.5
334 33 0.498045 0.583691 0.5
820 29 0.529142 0.584648 0.5
932 27 0.510637 0.612998 0.5
56 27 0.542421 0.616583 0.5
522 35 0.56271 0.586746 0.5
635 23 0.599386 0.590152 0.5
759 36 0.623224 0.562964 0.5
335 33 0.579129 0.615747 0.5
436 31 0.610977 0.622627 0.5
695 21 0.627112 0.597195 0.5
681 24 0.682102 0.57583 0.5
605 24 0.65276 0.582723 0.5
435 23 0.668575 0.605129 0.5
269 32 0.701269 0.605434 0.5
195 37 0.713655 0.572984 0.5
880 40 0.736507 0.602792 0.5
599 33 0.750005 0.568673 0.5
612 27 0.771632 0.593558 0.5
842 28 0.805891 0.58912 0.5
93 42 0.790549 0.621462 0.5
861 35 0.841719 0.587006 0.5
98 35 0.829016 0.618071 0.5
308 26 0.860122 0.616152 0.5
237 35 0.875403 0.583241 0.5
868 38 0.894634 0.609885 0.5
970 22 0.909153 0.575264 0.5
827 40 0.929046 0.603083 0.5
213 32 0.942774 0.569551 0.5
146 25 0.973974 0.570101 0.5
207 31 0.962365 0.598421 0.5
261 38 0.988077 0.622415 0.5
433 25 0.0404544 0.64783 0.5
248 26 0.0102139 0.651469 0.5
731 35 0.0599672 0.674539 0.5
947 33 0.0266937 0.67874 0.5
865 22 0.073111 0.644289 0.5
721 27 0.0927093 0.67271 0.5
320 33 0.105901 0.64397 0.5
872 39 0.174786 0.633228 0.5
419 33 0.138512 0.641047 0.5
417 25 0.15912 0.664226 0.5
554 29 0.188056 0.66685 0.5
316 38 0.127114 0.676216 0.5
220 30 0.210903 0.646664 0.5
235 35 0.241725 0.652007 0.5
449 26 0.21876 0.678469 0.5
890 33 0.301144 0.62937 0.5
808 26 0.277961 0.655336 0.5
437 32 0.309258 0.66331 0.5
717 30 0.253487 0.68105 0.5
391 25 0.285706 0.684019 0.5
526 30 0.334986 0.644803 0.5
937 32 0.367467 0.654222 0.5
150 38 0.345506 0.685575 0.5
825 36 0.422542 0.632835 0.5
59 23 0.399825 0.659045 0.5
362 32 0.433728 0.661297 0.5
256 33 0.381635 0.687911 0.5
741 34 0.416856 0.688101 0.5
908 21 0.456887 0.633484 0.5
3 33 0.468421 0.664396 0.5
159 34 0.489458 0.637055 0.5
782 28 0.501684 0.668643 0.5
755 25 0.523194 0.641772 0.5
774 33 0.557167 0.644898 0.5
185 36 0.535497 0.672156 0.5
354 34 0.589655 0.64964 0.5
158 35 0.623293 0.653422 0.5
327 31 0.568612 0.676544 0.5
292 28 0.602143 0.68181 0.5
254 33 0.646042 0.625655 0.5
654 25 0.655394 0.659642 0.5
221 23 0.682339 0.671311 0.5
88 41 0.685955 0.637325 0.5
183 28 0.635281 0.686975 0.5
319 29 0.723184 0.634591 0.5
50 32 0.713801 0.66502 0.5
463 26 0.745718 0.659624 0.5
392 30 0.756384 0.629283 0.5
200 34 0.77948 0.656338 0.5
843 34 0.768278 0.689247 0.5
236 41 0.803547 0.683547 0.5
285 30 0.813394 0.648619 0.5
630 32 0.847534 0.647723 0.5
643 28 0.867882 0.673713 0.5
459 36 0.837868 0.680621 0.5
613 27 0.87901 0.642158 0.5
801 26 0.918968 0.636604 0.5
724 40 0.902823 0.665586 0.5
477 31 0.93935 0.663045 0.5
19 28 0.95124 0.630019 0.5
876 31 0.974561 0.655847 0.5
610 30 0.994024 0.682402 0.5
539 31 0.96101 0.687717 0.5
247 24 0.0477872 0.7055 0.5
131 28 0.0358958 0.736122 0.5
387 29 0.0146502 0.709783 0.5
567 29 0.0677006 0.730647 0.5
984 32 0.0801213 0.70307 0.5
639 22 0.108594 0.700133 0.5
315 28 0.101164 0.729636 0.5
287 35 0.136927 0.717817 0.5
909 28 0.161621 0.694123 0.5
811 26 0.172861 0.726281 0.5
194 31 0.153368 0.75045 0.5
775 33 0.193705 0.698596 0.5
989 34 0.208348 0.730159 0.5
657 25 0.229353 0.705927 0.5
86 30 0.238917 0.737062 0.5
921 37 0.261973 0.710725 0.5
667 27 0.295867 0.712812 0.5
78 20 0.315243 0.692349 0.5
222 33 0.274492 0.73933 0.5
189 13 0.303392 0.738367 0.5
884 36 0.330839 0.721544 0.5
494 23 0.3655 0.716125 0.5
339 36 0.350365 0.748082 0.5
525 26 0.397839 0.71523 0.5
537 27 0.429247 0.721186 0.5
366 29 0.381255 0.744159 0.5
735 28 0.410578 0.743801 0.5
598 34 0.450817 0.695204 0.5
708 26 0.484355 0.697115 0.5
69 35 0.463168 0.725266 0.5
30 32 0.49667 0.727786 0.5
482 29 0.516731 0.698897 0.5
373 35 0.527757 0.730171 0.5
337 29 0.549742 0.704175 0.5
919 24 0.563164 0.730438 0.5
978 23 0.581909 0.706091 0.5
520 31 0.612052 0.711778 0.5
527 28 0.592969 0.737583 0.5
926 34 0.623267 0.746012 0.5
340 22 0.662454 0.691653 0.5
588 26 0.641368 0.718454 0.5
836 29 0.672707 0.720059 0.5
396 31 0.69476 0.734621 0.5
258 38 0.73552 0.691511 0.5
501 34 0.700625 0.698901 0.5
780 29 0.726671 0.726678 0.5
142 31 0.757461 0.72228 0.5
515 29 0.790536 0.718367 0.5
757 38 0.779476 0.751162 0.5
969 29 0.814439 0.74347 0.5
502 25 0.825011 0.712833 0.5
697 36 0.848134 0.736193 0.5
514 25 0.859566 0.705483 0.5
931 30 0.882126 0.729845 0.5
149 27 0.928169 0.693752 0.5
398 37 0.893043 0.698353 0.5
238 25 0.915907 0.724931 0.5
873 32 0.935648 0.750353 0.5
224 30 0.949432 0.71805 0.5
747 24 0.981872 0.712909 0.5
466 42 1.00122 0.741151 0.5
462 29 0.96884 0.746132 0.5
617 33 0.0577548 0.762393 0.5
67 30 0.0431554 0.795716 0.5
987 35 0.024168 0.769752 0.5
161 27 0.0101092 0.801902 0.5
565 27 0.0915003 0.757694 0.5
257 33 0.0776994 0.790393 0.5
197 29 0.111845 0.784498 0.5
552 30 0.122244 0.753845 0.5
718 20 0.143446 0.7804 0.5
218 23 0.171225 0.778945 0.5
255 29 0.188298 0.757011 0.5
659 35 0.134581 0.811745 0.5
439 28 0.167789 0.80686 0.5
53 35 0.200933 0.794645 0.5
670 34 0.221347 0.764978 0.5
442 35 0.237806 0.793563 0.5
535 25 0.255831 0.766013 0.5
517 36 0.27257 0.793904 0.5
330 27 0.288666 0.765651 0.5
5 33 0.306811 0.789888 0.5
863 26 0.320674 0.758607 0.5
835 33 0.342134 0.783594 0.5
122 30 0.373897 0.778179 0.5
453 25 0.363261 0.809165 0.5
395 28 0.403986 0.771608 0.5
355 31 0.425246 0.796059 0.5
896 29 0.394015 0.805634 0.5
268 43 0.440418 0.757805 0.5
302 26 0.478078 0.756866 0.5
817 35 0.458124 0.788773 0.5
773 21 0.490932 0.782857 0.5
153 37 0.512885 0.763674 0.5
147 30 0.543908 0.75528 0.5
467 31 0.514628 0.800307 0.5
746 24 0.540632 0.785592 0.5
558 31 0.572422 0.76363 0.5
52 37 0.602359 0.777495 0.5
562 37 0.570691 0.800514 0.5
945 34 0.660536 0.750327 0.5
719 23 0.636938 0.772431 0.5
975 27 0.662382 0.786125 0.5
243 33 0.630877 0.799425 0.5
314 31 0.691842 0.770601 0.5
656 21 0.716526 0.75545 0.5
669 40 0.727297 0.78566 0.5
299 25 0.744361 0.754752 0.5
924 26 0.690588 0.801077 0.5
839 27 0.764561 0.782482 0.5
143 30 0.802734 0.775525 0.5
38 29 0.786931 0.802166 0.5
75 21 0.753823 0.811201 0.5
219 28 0.823384 0.800611 0.5
889 28 0.836448 0.768847 0.5
647 30 0.870187 0.762407 0.5
663 33 0.857759 0.794712 0.5
262 32 0.902908 0.757236 0.5
922 36 0.890835 0.79237 0.5
642 31 0.925839 0.784128 0.5
894 27 0.956322 0.77699 0.5
518 30 0.990671 0.774768 0.5
685 30 0.94272 0.810447 0.5
279 32 0.975654 0.805255 0.5
694 31 0.0531 0.853863 0.5
490 32 0.0312184 0.829306 0.5
124 28 0.0198177 0.861589 0.5
455 31 0.0641418 0.820134 0.5
180 33 0.100849 0.816363 0.5
298 38 0.0881661 0.846996 0.5
498 29 0.125647 0.845442 0.5
809 27 0.11152 0.872772 0.5
738 32 0.15704 0.838779 0.5
172 21 0.146586 0.869389 0.5
941 29 0.177155 0.861342 0.5
903 31 0.191739 0.830066 0.5
227 32 0.210312 0.856626 0.5
451 33 0.223701 0.824157 0.5
461 32 0.245328 0.853081 0.5
14 29 0.259606 0.825047 0.5
61 32 0.294142 0.821403 0.5
291 27 0.279676 0.851184 0.5
650 29 0.31409 0.848224 0.5
148 34 0.329435 0.81593 0.5
769 29 0.350039 0.840796 0.5
536 28 0.338905 0.871707 0.5
629 25 0.371521 0.867707 0.5
444 33 0.382095 0.835935 0.5
993 30 0.418368 0.82855 0.5
824 31 0.406321 0.861034 0.5
102 22 0.439567 0.852626 0.5
798 34 0.481691 0.812278 0.5
253 29 0.448387 0.822738 0.5
192 36 0.475741 0.84808 0.5
551 30 0.507743 0.834842 0.5
877 29 0.539641 0.820752 0.5
415 24 0.535637 0.851972 0.5
178 23 0.509388 0.865765 0.5
609 30 0.563709 0.866538 0.5
583 24 0.567528 0.834932 0.5
858 33 0.599186 0.816602 0.5
214 34 0.597319 0.849871 0.5
63 29 0.629626 0.833181 0.5
704 34 0.6265 0.866841 0.5
561 32 0.659202 0.81803 0.5
938 23 0.655931 0.850582 0.5
528 33 0.686815 0.835242 0.5
955 28 0.683751 0.866196 0.5
276 35 0.720693 0.820042 0.5
397 32 0.715729 0.852895 0.5
68 31 0.746473 0.840956 0.5
660 28 0.778579 0.833328 0.5
703 30 0.799419 0.860241 0.5
34 31 0.810009 0.8292 0.5
76 26 0.769356 0.86342 0.5
242 35 0.832441 0.858404 0.5
378 31 0.844798 0.827202 0.5
895 29 0.865849 0.851963 0.5
223 19 0.876181 0.820369 0.5
828 29 0.910618 0.815189 0.5
249 34 0.897285 0.847308 0.5
891 33 0.930271 0.84413 0.5
510 35 0.920045 0.878204 0.5
706 32 0.998495 0.833837 0.5
380 38 0.965136 0.839699 0.5
33 30 0.954005 0.874988 0.5
513 27 0.986478 0.865974 0.5
505 33 0.0427221 0.887366 0.5
596 27 0.0324796 0.918624 0.5
998 31 0.00887191 0.89307 0.5
936 25 0.0545683 0.942769 0.5
996 26 0.0663087 0.914255 0.5
469 36 0.0770686 0.881013 0.5
37 29 0.100517 0.906099 0.5
81 27 0.0867267 0.938663 0.5
516 40 0.119489 0.933178 0.5
487 30 0.131695 0.897736 0.5
511 37 0.167235 0.8951 0.5
71 34 0.153933 0.926893 0.5
374 34 0.188578 0.927148 0.5
852 34 0.20073 0.891523 0.5
860 30 0.233964 0.886485 0.5
414 34 0.222757 0.918447 0.5
934 25 0.255454 0.914162 0.5
819 30 0.266133 0.880537 0.5
682 36 0.302404 0.876055 0.5
559 33 0.290299 0.905982 0.5
58 27 0.310595 0.93518 0.5
831 29 0.325062 0.904651 0.5
440 39 0.358693 0.898165 0.5
608 29 0.343626 0.931252 0.5
844 33 0.377404 0.922136 0.5
509 27 0.392168 0.890733 0.5
752 26 0.425204 0.886201 0.5
420 34 0.41173 0.915188 0.5
31 23 0.445275 0.91003 0.5
982 32 0.456318 0.881617 0.5
499 19 0.484049 0.87963 0.5
211 19 0.475509 0.905162 0.5
413 26 0.465357 0.932508 0.5
301 36 0.498465 0.928919 0.5
250 30 0.505799 0.898079 0.5
173 30 0.53405 0.883227 0.5
208 32 0.5324 0.917718 0.5
425 32 0.562605 0.901375 0.5
445 35 0.56009 0.937463 0.5
979 35 0.592825 0.884267 0.5
107 29 0.592618 0.919094 0.5
742 31 0.623445 0.899948 0.5
57 32 0.62228 0.934785 0.5
591 26 0.653702 0.883126 0.5
986 28 0.651426 0.916964 0.5
569 33 0.679312 0.898013 0.5
106 20 0.675345 0.929943 0.5
990 40 0.740204 0.87758 0.5
272 36 0.710663 0.88852 0.5
676 31 0.738226 0.917036 0.5
229 32 0.705472 0.922165 0.5
483 28 0.762813 0.894789 0.5
328 23 0.775709 0.920869 0.5
55 28 0.791126 0.889828 0.5
379 27 0.806072 0.9192 0.5
689 30 0.820842 0.890032 0.5
905 30 0.853351 0.886844 0.5
182 33 0.839034 0.918846 0.5
89 30 0.87348 0.915014 0.5
113 35 0.885701 0.881448 0.5
155 30 0.906431 0.908884 0.5
710 37 0.924945 0.934343 0.5
648 25 0.891735 0.941993 0.5
170 33 0.997236 0.92453 0.5
215 28 0.939698 0.904188 0.5
846 33 0.974857 0.898541 0.5
193 28 0.963677 0.928075 0.5
766 29 0.0333321 1.00032 0.5
367 28 0.064297 0.996956 0.5
933 29 0.0389358 0.971769 0.5
920 29 0.0211654 0.947965 0.5
813 30 0.00460585 0.984576 0.5
244 29 0.0971998 0.99599 0.5
851 31 0.0732928 0.9703 0.5
488 26 0.10829 0.96326 0.5
293 35 0.127955 0.993777 0.5
66 31 0.1632 0.989971 0.5
743 32 0.141423 0.961176 0.5
823 28 0.173933 0.956718 0.5
577 36 0.197314 0.982271 0.5
953 29 0.243387 0.945882 0.5
167 27 0.211981 0.952087 0.5
673 27 0.230903 0.977965 0.5
325 32 0.290223 0.997674 0.5
623 36 0.279837 0.940223 0.5
957 36 0.266509 0.971523 0.5
274 27 0.301472 0.967576 0.5
169 21 0.32076 0.992519 0.5
795 35 0.333351 0.963526 0.5
385 32 0.364842 0.955624 0.5
592 25 0.353076 0.988037 0.5
492 39 0.399218 0.9489 0.5
430 33 0.387631 0.983348 0.5
845 27 0.420249 0.975987 0.5
390 32 0.433528 0.942342 0.5
305 30 0.478021 0.995202 0.5
649 35 0.454459 0.966522 0.5
358 28 0.487771 0.961011 0.5
90 39 0.508531 0.987685 0.5
16 32 0.522988 0.951973 0.5
799 27 0.540137 0.979106 0.5
715 23 0.566066 0.966222 0.5
930 26 0.593439 0.950794 0.5
788 33 0.592026 0.982969 0.5
749 28 0.622114 0.969409 0.5
994 28 0.649029 0.989233 0.5
677 38 0.653452 0.953276 0.5
139 29 0.675413 0.975277 0.5
580 27 0.690955 0.950718 0.5
310 33 0.709213 0.981423 0.5
241 33 0.722749 0.949058 0.5
744 33 0.741621 0.977909 0.5
797 31 0.757513 0.94865 0.5
700 26 0.773473 0.979732 0.5
857 39 0.791313 0.951718 0.5
115 23 0.80847 0.981794 0.5
849 35 0.823608 0.95006 0.5
538 34 0.859598 0.949913 0.5
940 27 0.842275 0.979899 0.5
97 23 0.916045 0.998227 0.5
943 44 0.880542 0.984357 0.5
964 33 0.911967 0.96677 0.5
350 16 0.937134 0.980011 0.5
614 29 0.949418 0.956602 0.5
712 29 0.969507 0.980507 0.5
202 38 0.986247 0.954833 0.5
