ITEM: TIMESTEP
2000000
ITEM: NUMBER OF ATOMS
1000
ITEM: BOX BOUNDS pp pp pp
-1.6508578000000000e+01 1.6508578000000000e+01
-1.6508578000000000e+01 1.6508578000000000e+01
-5.0000000000000000e-01 5.0000000000000000e-01
ITEM: ATOMS id type xs ys zs
33 30 0.0304846 0.02592 0.5
895 30 0.00278576 0.0477592 0.5
164 32 0.0539052 0.00224467 0.5
378 31 0.0628822 0.0339194 0.5
846 32 0.0924181 0.0477843 0.5
987 32 0.0884992 0.0142376 0.5
328 27 0.126851 0.0247465 0.5
505 31 0.156213 0.0336817 0.5
565 29 0.150643 -0.00187007 0.5
466 35 0.18801 0.0424726 0.5
947 32 0.212913 0.0202149 0.5
710 33 0.181492 0.00497083 0.5
721 29 0.222067 0.0516781 0.5
279 31 0.245312 0.0301218 0.5
462 30 0.270244 0.0119722 0.5
80 30 0.275057 0.0427756 0.5
255 30 0.301359 0.023675 0.5
577 33 0.330338 0.0373046 0.5
490 31 0.325699 0.00273809 0.5
168 33 0.357472 0.0581946 0.5
380 34 0.355411 0.015692 0.5
218 27 0.389025 0.02856 0.5
122 30 0.422521 0.0399887 0.5
659 32 0.414174 0.00878143 0.5
536 29 0.443773 0.0174073 0.5
835 31 0.454516 0.0506832 0.5
921 33 0.477141 0.0230308 0.5
148 32 0.475975 -0.0125291 0.5
473 31 0.50933 0.0283571 0.5
934 28 0.535525 0.0119433 0.5
844 31 0.541257 0.0440189 0.5
409 30 0.506482 -0.00214949 0.5
451 31 0.568444 0.0246229 0.5
752 29 0.605154 0.0412642 0.5
824 31 0.596281 0.0104599 0.5
629 28 0.633381 0.0139976 0.5
430 32 0.636344 0.0448461 0.5
445 32 0.663832 0.0217932 0.5
704 32 0.698854 0.0368473 0.5
655 30 0.690195 0.00348212 0.5
75 27 0.72053 0.0109979 0.5
420 32 0.754343 0.0183736 0.5
301 33 0.731248 0.0442409 0.5
250 30 0.786311 0.0374491 0.5
715 27 0.821119 0.0466035 0.5
926 32 0.811403 0.0156767 0.5
583 28 0.778368 -0.000475724 0.5
719 27 0.844245 0.024773 0.5
591 29 0.878389 0.0357178 0.5
588 29 0.871264 0.00471527 0.5
483 29 0.911929 0.0472697 0.5
182 31 0.93908 0.0272722 0.5
52 33 0.904785 0.0159407 0.5
622 30 0.99792 0.0173876 0.5
397 31 0.972795 0.0391163 0.5
258 34 0.965612 0.00699216 0.5
656 27 0.0313688 0.0559522 0.5
332 29 0.0413712 0.0967982 0.5
940 29 0.0129325 0.0821404 0.5
663 31 0.0657285 0.0669108 0.5
242 33 0.0726653 0.10185 0.5
920 30 0.102634 0.0773466 0.5
461 31 0.126559 0.0579659 0.5
197 30 0.159068 0.0650751 0.5
998 31 0.131593 0.0901489 0.5
498 30 0.16074 0.101047 0.5
891 32 0.188923 0.0771042 0.5
976 27 0.19283 0.109709 0.5
516 34 0.222225 0.0921499 0.5
215 29 0.245723 0.0710746 0.5
903 31 0.253005 0.101706 0.5
819 30 0.304513 0.0562502 0.5
455 31 0.278789 0.0830272 0.5
811 29 0.30706 0.0972695 0.5
180 31 0.331526 0.076688 0.5
193 29 0.345344 0.111214 0.5
996 29 0.368813 0.0876803 0.5
738 31 0.392156 0.0591277 0.5
374 32 0.403831 0.0886419 0.5
852 32 0.430736 0.0714281 0.5
673 29 0.432098 0.105177 0.5
58 29 0.481632 0.0641797 0.5
592 28 0.458822 0.0866244 0.5
203 34 0.492233 0.0939018 0.5
71 32 0.514084 0.0672401 0.5
649 33 0.524961 0.0990656 0.5
682 33 0.548567 0.0754045 0.5
31 27 0.577347 0.0559476 0.5
961 30 0.582784 0.086031 0.5
467 31 0.614879 0.0705722 0.5
788 32 0.649162 0.075741 0.5
898 29 0.670785 0.0524296 0.5
107 30 0.698173 0.0697911 0.5
178 27 0.674716 0.0926866 0.5
930 29 0.707829 0.098904 0.5
749 29 0.761538 0.0569801 0.5
305 30 0.730487 0.0757432 0.5
312 34 0.769315 0.0894608 0.5
737 32 0.738406 0.11021 0.5
744 32 0.795879 0.0684689 0.5
485 32 0.802667 0.0997026 0.5
986 30 0.82736 0.0799148 0.5
243 31 0.850263 0.0576537 0.5
241 32 0.855483 0.0937068 0.5
484 32 0.879966 0.0720147 0.5
158 32 0.887771 0.105742 0.5
703 30 0.914619 0.0830119 0.5
63 30 0.954124 0.0936121 0.5
990 34 0.94341 0.0607243 0.5
660 29 0.974211 0.069965 0.5
857 34 0.986359 0.0992731 0.5
229 31 0.0153345 0.113205 0.5
379 29 0.0503692 0.126596 0.5
365 29 0.0235445 0.145669 0.5
589 28 0.0539385 0.160542 0.5
676 31 0.0802075 0.133444 0.5
685 30 0.108255 0.114819 0.5
155 30 0.109377 0.145805 0.5
67 30 0.138902 0.123141 0.5
712 30 0.140051 0.154166 0.5
298 34 0.16902 0.134507 0.5
448 31 0.201279 0.13953 0.5
754 31 0.230567 0.122984 0.5
290 31 0.228538 0.158085 0.5
37 30 0.259953 0.144417 0.5
247 28 0.284694 0.122734 0.5
81 29 0.315936 0.126241 0.5
813 30 0.288778 0.15742 0.5
442 32 0.318642 0.170229 0.5
227 31 0.374395 0.120971 0.5
511 33 0.34056 0.145156 0.5
487 30 0.379426 0.151584 0.5
927 31 0.403813 0.130113 0.5
325 31 0.414401 0.160901 0.5
802 32 0.440327 0.138227 0.5
559 31 0.46711 0.117424 0.5
493 28 0.480357 0.144636 0.5
953 30 0.503458 0.124012 0.5
871 30 0.537053 0.13044 0.5
181 31 0.509812 0.155144 0.5
896 30 0.559372 0.10629 0.5
607 33 0.588613 0.118795 0.5
14 30 0.564642 0.143808 0.5
900 28 0.594158 0.151297 0.5
551 30 0.636825 0.104535 0.5
104 28 0.620761 0.130979 0.5
795 33 0.654511 0.1389 0.5
492 34 0.63158 0.162555 0.5
699 27 0.683034 0.121502 0.5
16 31 0.685002 0.151429 0.5
425 31 0.713565 0.131438 0.5
307 31 0.744351 0.141136 0.5
317 33 0.769557 0.122101 0.5
413 29 0.721279 0.165771 0.5
103 31 0.775113 0.154593 0.5
779 33 0.799719 0.134177 0.5
499 26 0.830899 0.113589 0.5
408 29 0.858735 0.12469 0.5
211 26 0.829501 0.14321 0.5
994 30 0.876659 0.149887 0.5
528 32 0.928407 0.111774 0.5
138 31 0.902772 0.133691 0.5
561 31 0.932205 0.146324 0.5
356 28 0.959396 0.131118 0.5
208 31 0.989901 0.134717 0.5
838 27 0.960856 0.162194 0.5
569 31 0.993674 0.168885 0.5
939 33 0.029368 0.180776 0.5
700 29 0.0354679 0.213775 0.5
170 32 0.0597782 0.190402 0.5
964 32 0.085385 0.167424 0.5
350 25 0.0873488 0.205424 0.5
766 30 0.117556 0.177496 0.5
97 27 0.142429 0.19524 0.5
614 30 0.16852 0.166656 0.5
770 35 0.200059 0.175049 0.5
513 29 0.170944 0.202562 0.5
18 35 0.202528 0.213733 0.5
216 35 0.230532 0.192635 0.5
694 31 0.263252 0.176575 0.5
245 27 0.26445 0.212253 0.5
517 33 0.292126 0.190854 0.5
367 29 0.32658 0.200969 0.5
564 29 0.29744 0.222423 0.5
706 31 0.350316 0.17678 0.5
389 34 0.359689 0.211929 0.5
280 34 0.382244 0.185781 0.5
274 29 0.432293 0.191286 0.5
847 33 0.406393 0.209639 0.5
239 32 0.436168 0.222606 0.5
991 31 0.456168 0.165808 0.5
464 30 0.486351 0.176923 0.5
414 32 0.463016 0.202255 0.5
671 28 0.497137 0.208015 0.5
763 32 0.541496 0.165795 0.5
372 29 0.516668 0.184747 0.5
957 33 0.547315 0.199364 0.5
845 29 0.570841 0.178176 0.5
646 29 0.585562 0.208507 0.5
769 30 0.602177 0.18336 0.5
174 31 0.639945 0.197768 0.5
402 33 0.615119 0.219373 0.5
944 30 0.662224 0.17594 0.5
568 31 0.671352 0.210051 0.5
799 29 0.692835 0.184355 0.5
950 31 0.702672 0.22022 0.5
57 31 0.751301 0.176158 0.5
358 29 0.723654 0.197787 0.5
761 30 0.761039 0.210474 0.5
677 34 0.807829 0.165845 0.5
603 30 0.785453 0.189848 0.5
100 32 0.816252 0.197624 0.5
508 29 0.787259 0.22761 0.5
644 30 0.847393 0.167067 0.5
653 28 0.881171 0.185288 0.5
530 30 0.848358 0.203018 0.5
768 31 0.881403 0.217211 0.5
270 31 0.906511 0.167934 0.5
68 31 0.936046 0.179203 0.5
938 27 0.908708 0.203287 0.5
574 27 0.941244 0.208987 0.5
249 32 1.00277 0.19947 0.5
933 30 0.966943 0.191402 0.5
661 30 0.00665671 0.264238 0.5
733 33 0.0386666 0.247843 0.5
115 27 0.00885461 0.231239 0.5
272 33 0.0639946 0.227619 0.5
705 30 0.0958662 0.235081 0.5
849 32 0.0682713 0.26098 0.5
648 28 0.0986697 0.266971 0.5
143 30 0.115762 0.211089 0.5
662 31 0.143072 0.22546 0.5
936 28 0.123499 0.250346 0.5
199 33 0.153332 0.258679 0.5
252 32 0.17571 0.233276 0.5
787 29 0.1861 0.263388 0.5
66 31 0.2124 0.244875 0.5
488 29 0.243064 0.236215 0.5
596 29 0.252455 0.265166 0.5
385 31 0.274733 0.243471 0.5
403 28 0.30369 0.25569 0.5
469 33 0.326706 0.234253 0.5
171 32 0.333471 0.271773 0.5
169 27 0.357632 0.251285 0.5
809 29 0.382384 0.234309 0.5
966 28 0.389203 0.264728 0.5
823 30 0.365216 0.283572 0.5
132 31 0.41231 0.243324 0.5
608 30 0.441913 0.255451 0.5
856 29 0.464848 0.23378 0.5
664 31 0.472288 0.264686 0.5
621 29 0.500348 0.240732 0.5
73 31 0.524192 0.221097 0.5
753 31 0.531015 0.251343 0.5
440 34 0.556609 0.232167 0.5
114 28 0.587267 0.2441 0.5
728 32 0.565857 0.266452 0.5
434 28 0.596224 0.276758 0.5
457 33 0.647627 0.232955 0.5
914 28 0.61565 0.253713 0.5
497 31 0.651375 0.265156 0.5
834 31 0.680843 0.245166 0.5
91 28 0.710995 0.254244 0.5
582 30 0.732886 0.227887 0.5
225 32 0.738063 0.268608 0.5
121 31 0.762121 0.244777 0.5
666 31 0.768846 0.275976 0.5
217 31 0.822894 0.228202 0.5
94 28 0.794332 0.257351 0.5
580 29 0.829247 0.258827 0.5
742 31 0.855588 0.239947 0.5
912 34 0.890805 0.248349 0.5
571 36 0.921303 0.233202 0.5
329 32 0.924977 0.267278 0.5
382 33 0.978392 0.222799 0.5
855 31 0.952895 0.245028 0.5
106 26 0.977252 0.262485 0.5
310 32 0.0350697 0.282139 0.5
803 31 0.0151003 0.306658 0.5
886 29 0.0458585 0.311988 0.5
2 30 0.0704597 0.292244 0.5
762 31 0.0808978 0.323216 0.5
346 30 0.100947 0.298586 0.5
210 29 0.12735 0.280419 0.5
729 27 0.128741 0.30964 0.5
24 30 0.158069 0.2951 0.5
202 34 0.168172 0.326558 0.5
120 30 0.18964 0.293485 0.5
130 30 0.218088 0.28224 0.5
140 30 0.220656 0.3142 0.5
124 29 0.244598 0.296764 0.5
736 28 0.259679 0.328002 0.5
54 30 0.28156 0.277332 0.5
597 28 0.309653 0.291425 0.5
815 30 0.284664 0.307838 0.5
837 31 0.311448 0.32287 0.5
902 30 0.342156 0.30369 0.5
756 30 0.370118 0.317522 0.5
794 31 0.340098 0.339483 0.5
28 29 0.417264 0.275358 0.5
427 31 0.395199 0.296993 0.5
96 30 0.424926 0.305347 0.5
376 34 0.40209 0.331521 0.5
995 28 0.450521 0.286244 0.5
273 29 0.483289 0.297555 0.5
651 28 0.454969 0.31601 0.5
144 32 0.4835 0.332159 0.5
701 33 0.50609 0.271828 0.5
90 34 0.537107 0.282556 0.5
841 31 0.512936 0.304468 0.5
296 30 0.542865 0.317652 0.5
232 29 0.569723 0.298437 0.5
888 29 0.60434 0.306071 0.5
263 30 0.627041 0.285909 0.5
452 32 0.631115 0.321596 0.5
645 31 0.657122 0.296778 0.5
278 32 0.662686 0.328871 0.5
424 27 0.683873 0.276319 0.5
368 31 0.68822 0.307472 0.5
112 28 0.712703 0.288823 0.5
251 31 0.723382 0.317997 0.5
988 26 0.747626 0.298611 0.5
637 29 0.779721 0.306993 0.5
887 31 0.808256 0.284667 0.5
963 29 0.814667 0.319242 0.5
265 35 0.839217 0.295839 0.5
393 34 0.864093 0.2709 0.5
797 31 0.871759 0.310842 0.5
832 35 0.894706 0.285878 0.5
521 31 0.904104 0.321811 0.5
456 31 0.9278 0.3002 0.5
529 30 0.954344 0.281319 0.5
377 29 0.985937 0.291698 0.5
611 33 0.95924 0.31358 0.5
353 30 0.992101 0.327141 0.5
776 31 0.0243128 0.336692 0.5
27 32 0.0279439 0.370489 0.5
345 31 0.0552719 0.342997 0.5
177 28 0.0598824 0.380468 0.5
244 30 0.0837944 0.358301 0.5
545 34 0.110721 0.335051 0.5
618 33 0.142073 0.347421 0.5
557 33 0.115681 0.368951 0.5
751 28 0.144459 0.380374 0.5
429 29 0.199429 0.337426 0.5
652 35 0.17477 0.360035 0.5
369 32 0.20565 0.373521 0.5
881 29 0.234113 0.3431 0.5
720 30 0.260229 0.36223 0.5
84 29 0.236106 0.382979 0.5
260 30 0.287021 0.342273 0.5
967 28 0.311605 0.360047 0.5
293 33 0.286827 0.378607 0.5
897 31 0.318191 0.391783 0.5
87 30 0.371886 0.357721 0.5
935 28 0.344613 0.372983 0.5
532 30 0.370959 0.388525 0.5
668 27 0.432679 0.335023 0.5
167 29 0.405744 0.364244 0.5
885 28 0.435375 0.374474 0.5
400 32 0.458931 0.353715 0.5
707 37 0.491569 0.36422 0.5
333 30 0.467941 0.387107 0.5
357 33 0.516839 0.339485 0.5
458 33 0.525504 0.371393 0.5
581 27 0.547671 0.348963 0.5
77 26 0.580817 0.328047 0.5
491 30 0.579406 0.362599 0.5
949 32 0.60759 0.344255 0.5
4 31 0.613258 0.377726 0.5
348 29 0.639185 0.352199 0.5
626 32 0.645602 0.387267 0.5
587 33 0.695241 0.342971 0.5
500 35 0.668952 0.363468 0.5
593 28 0.704305 0.376971 0.5
72 28 0.7539 0.32713 0.5
309 32 0.728809 0.349394 0.5
874 33 0.761839 0.358712 0.5
384 35 0.789358 0.33964 0.5
674 29 0.820178 0.349559 0.5
21 31 0.797101 0.372062 0.5
360 25 0.827121 0.382508 0.5
44 32 0.844506 0.32995 0.5
745 32 0.875301 0.343115 0.5
980 29 0.847792 0.361612 0.5
12 32 0.883565 0.375112 0.5
615 29 0.934309 0.331567 0.5
806 29 0.90974 0.352681 0.5
363 28 0.936215 0.367338 0.5
859 34 0.913894 0.390866 0.5
418 32 0.995789 0.359636 0.5
606 32 0.96603 0.348076 0.5
6 24 0.971982 0.37898 0.5
923 32 0.00045498 0.390635 0.5
544 29 0.0314325 0.401631 0.5
375 30 0.0111483 0.425786 0.5
288 33 0.0406969 0.438581 0.5
141 31 0.0632476 0.41521 0.5
283 33 0.088161 0.393267 0.5
548 33 0.101581 0.424143 0.5
259 26 0.12 0.399539 0.5
233 29 0.129447 0.438661 0.5
542 31 0.147253 0.413137 0.5
407 29 0.178043 0.394429 0.5
326 36 0.207549 0.407272 0.5
686 30 0.176315 0.424885 0.5
405 30 0.212466 0.440396 0.5
672 31 0.262933 0.399922 0.5
851 31 0.241746 0.423429 0.5
586 35 0.271696 0.436168 0.5
196 31 0.293961 0.410965 0.5
234 32 0.322061 0.430729 0.5
687 31 0.301514 0.45814 0.5
631 30 0.346819 0.409345 0.5
882 33 0.35988 0.441671 0.5
331 29 0.385402 0.417758 0.5
785 32 0.408229 0.395568 0.5
786 34 0.417294 0.428366 0.5
563 33 0.442316 0.407072 0.5
965 30 0.445189 0.444745 0.5
162 31 0.475896 0.422826 0.5
228 29 0.505655 0.43154 0.5
36 33 0.501205 0.397534 0.5
734 31 0.530402 0.411276 0.5
201 32 0.555779 0.386055 0.5
977 33 0.589503 0.399469 0.5
658 33 0.564095 0.422595 0.5
692 29 0.598819 0.433474 0.5
893 30 0.619264 0.410598 0.5
549 30 0.655106 0.418068 0.5
504 34 0.628177 0.447206 0.5
125 30 0.68148 0.397094 0.5
870 30 0.685059 0.430378 0.5
866 30 0.713675 0.405546 0.5
206 31 0.736614 0.380599 0.5
531 29 0.767593 0.389751 0.5
404 31 0.743748 0.414427 0.5
431 31 0.773396 0.429371 0.5
892 27 0.796211 0.401969 0.5
426 27 0.825895 0.413256 0.5
416 32 0.854748 0.392344 0.5
443 29 0.860776 0.430122 0.5
166 30 0.887972 0.409944 0.5
156 28 0.919744 0.422375 0.5
540 32 0.890068 0.442677 0.5
901 33 0.946813 0.399646 0.5
879 32 0.948774 0.434481 0.5
85 27 0.977487 0.417192 0.5
438 29 0.984653 0.445589 0.5
973 27 0.0168482 0.463811 0.5
983 31 0.0225333 0.497188 0.5
553 31 0.0495967 0.469872 0.5
698 27 0.0752125 0.452324 0.5
962 37 0.106481 0.464807 0.5
911 30 0.0790797 0.483878 0.5
713 33 0.11025 0.498335 0.5
781 30 0.15658 0.452769 0.5
512 31 0.135727 0.479192 0.5
428 29 0.166739 0.49083 0.5
336 33 0.187269 0.464808 0.5
917 34 0.214672 0.482733 0.5
8 28 0.239049 0.456854 0.5
179 31 0.247928 0.495175 0.5
750 31 0.270592 0.469489 0.5
22 32 0.305997 0.490351 0.5
541 31 0.334012 0.46015 0.5
929 32 0.339119 0.496287 0.5
616 30 0.362494 0.474991 0.5
848 30 0.392628 0.449658 0.5
783 29 0.42012 0.462931 0.5
51 31 0.395744 0.484526 0.5
556 30 0.428185 0.49675 0.5
690 29 0.479236 0.456348 0.5
620 29 0.452534 0.47675 0.5
709 30 0.4857 0.4875 0.5
665 35 0.537322 0.443303 0.5
875 32 0.510654 0.465482 0.5
476 27 0.541712 0.476424 0.5
133 31 0.570273 0.453828 0.5
421 32 0.601402 0.465981 0.5
175 36 0.571755 0.489214 0.5
394 30 0.603572 0.497326 0.5
730 31 0.661856 0.455027 0.5
306 29 0.630881 0.480299 0.5
23 29 0.66052 0.486151 0.5
727 33 0.719028 0.438504 0.5
899 27 0.69482 0.462049 0.5
17 29 0.72608 0.471213 0.5
1000 33 0.692574 0.493596 0.5
157 31 0.75151 0.453695 0.5
101 29 0.752038 0.487756 0.5
176 31 0.784581 0.46152 0.5
821 29 0.803724 0.43292 0.5
383 32 0.814241 0.472691 0.5
478 30 0.784907 0.492454 0.5
952 32 0.833369 0.445199 0.5
165 27 0.86108 0.467497 0.5
277 29 0.842457 0.492205 0.5
679 35 0.876144 0.500431 0.5
566 31 0.923417 0.456173 0.5
829 28 0.901381 0.479448 0.5
47 31 0.931223 0.488078 0.5
519 28 0.991294 0.478424 0.5
343 32 0.959424 0.465813 0.5
39 29 0.967156 0.501052 0.5
723 30 0.0535085 0.506854 0.5
471 28 0.0224052 0.527496 0.5
313 32 0.0499865 0.542111 0.5
191 33 0.0827529 0.518011 0.5
716 30 0.112247 0.53096 0.5
791 29 0.139281 0.512965 0.5
600 33 0.141518 0.545238 0.5
555 30 0.169584 0.527929 0.5
792 31 0.193263 0.506841 0.5
959 29 0.200226 0.539401 0.5
764 33 0.223764 0.518225 0.5
971 26 0.22922 0.550685 0.5
812 29 0.253981 0.526578 0.5
985 28 0.278194 0.506105 0.5
111 30 0.312533 0.521131 0.5
872 34 0.2856 0.537479 0.5
26 34 0.320233 0.552387 0.5
534 32 0.371639 0.504872 0.5
7 32 0.34536 0.528317 0.5
550 28 0.378279 0.536019 0.5
693 30 0.4011 0.515848 0.5
702 29 0.405087 0.553259 0.5
636 27 0.430286 0.526633 0.5
105 31 0.460761 0.506526 0.5
412 30 0.487847 0.521892 0.5
361 31 0.46266 0.540144 0.5
92 29 0.497606 0.552974 0.5
740 32 0.514981 0.498367 0.5
126 31 0.545268 0.513477 0.5
423 32 0.519141 0.530981 0.5
303 30 0.548221 0.546538 0.5
446 30 0.574697 0.523665 0.5
11 33 0.584786 0.556147 0.5
349 35 0.607554 0.529368 0.5
65 31 0.637522 0.512126 0.5
771 28 0.640769 0.543774 0.5
688 29 0.66914 0.523003 0.5
324 34 0.702134 0.529504 0.5
83 31 0.723319 0.504494 0.5
9 29 0.731099 0.542136 0.5
590 28 0.761543 0.518303 0.5
70 29 0.813378 0.504347 0.5
136 33 0.787083 0.536106 0.5
110 30 0.819812 0.547141 0.5
999 33 0.844371 0.523655 0.5
364 31 0.877157 0.536586 0.5
968 33 0.908127 0.5138 0.5
867 33 0.907125 0.547056 0.5
822 32 0.94214 0.520146 0.5
533 32 0.991367 0.523183 0.5
633 30 0.96558 0.541598 0.5
41 31 0.995001 0.556936 0.5
480 29 0.0285046 0.564476 0.5
960 34 0.029769 0.602567 0.5
579 29 -0.0021369 0.589989 0.5
575 31 0.0880456 0.552253 0.5
188 31 0.0625139 0.572868 0.5
725 34 0.0633251 0.605361 0.5
918 34 0.0966181 0.586799 0.5
807 27 0.116432 0.562967 0.5
951 30 0.147594 0.579911 0.5
212 28 0.119229 0.608937 0.5
503 33 0.173931 0.559831 0.5
793 30 0.2062 0.570736 0.5
422 30 0.180395 0.590895 0.5
472 29 0.209368 0.602415 0.5
628 31 0.258553 0.557281 0.5
748 32 0.234833 0.584632 0.5
524 32 0.268037 0.593871 0.5
60 29 0.292003 0.573688 0.5
972 30 0.301164 0.605608 0.5
826 30 0.324452 0.585956 0.5
154 30 0.350712 0.562711 0.5
594 32 0.380581 0.575081 0.5
410 34 0.356382 0.596736 0.5
29 30 0.389051 0.606588 0.5
506 33 0.436753 0.558427 0.5
928 31 0.416279 0.590115 0.5
956 32 0.44577 0.600453 0.5
486 33 0.46976 0.572096 0.5
266 32 0.499451 0.585793 0.5
25 31 0.477193 0.608431 0.5
765 28 0.524844 0.567251 0.5
300 33 0.533138 0.600907 0.5
40 34 0.558872 0.580502 0.5
560 30 0.5937 0.594004 0.5
595 32 0.617015 0.563083 0.5
864 28 0.625875 0.606184 0.5
128 31 0.64483 0.581613 0.5
908 27 0.657165 0.609962 0.5
691 34 0.668788 0.557615 0.5
347 36 0.703149 0.56427 0.5
281 28 0.686522 0.59233 0.5
805 29 0.719552 0.599513 0.5
267 29 0.759788 0.551513 0.5
760 29 0.733911 0.57249 0.5
772 31 0.769574 0.585862 0.5
289 27 0.792727 0.566375 0.5
578 30 0.824647 0.578187 0.5
910 30 0.800191 0.601503 0.5
264 31 0.849841 0.555515 0.5
282 29 0.877763 0.568327 0.5
974 29 0.859834 0.593179 0.5
625 31 0.888731 0.606171 0.5
906 34 0.910376 0.581328 0.5
632 30 0.938092 0.557818 0.5
135 30 0.942284 0.588005 0.5
784 29 0.970522 0.57646 0.5
585 31 0.975472 0.610822 0.5
294 30 0.00714019 0.625418 0.5
187 32 0.0382499 0.633916 0.5
818 28 0.0151336 0.654247 0.5
916 28 0.0980118 0.629418 0.5
495 31 0.0699471 0.642182 0.5
868 34 0.102179 0.661486 0.5
190 34 0.154854 0.612492 0.5
95 31 0.128824 0.639467 0.5
854 29 0.160066 0.643999 0.5
641 30 0.185413 0.624038 0.5
789 29 0.188134 0.656534 0.5
680 30 0.212617 0.637804 0.5
450 28 0.243419 0.614341 0.5
1 29 0.245637 0.645173 0.5
925 27 0.277154 0.6234 0.5
129 33 0.331433 0.619382 0.5
833 31 0.307425 0.64202 0.5
942 28 0.334748 0.655886 0.5
948 33 0.363862 0.629442 0.5
287 33 0.39682 0.640962 0.5
275 31 0.423659 0.623262 0.5
13 31 0.423587 0.658203 0.5
796 29 0.450949 0.636583 0.5
732 30 0.479743 0.652019 0.5
62 30 0.457892 0.677348 0.5
20 32 0.506697 0.627533 0.5
246 32 0.510948 0.663457 0.5
814 31 0.536212 0.641798 0.5
619 31 0.560109 0.618097 0.5
767 34 0.592022 0.625693 0.5
411 31 0.567472 0.65436 0.5
209 29 0.599901 0.658084 0.5
432 30 0.621736 0.636794 0.5
470 30 0.656358 0.64142 0.5
311 29 0.68421 0.622814 0.5
321 31 0.698082 0.657648 0.5
195 33 0.721375 0.633439 0.5
981 30 0.751277 0.611934 0.5
137 32 0.779413 0.625628 0.5
904 32 0.752372 0.646027 0.5
118 29 0.809766 0.633281 0.5
42 35 0.782997 0.658542 0.5
35 33 0.831927 0.609899 0.5
338 30 0.839813 0.645904 0.5
341 28 0.862757 0.624716 0.5
853 26 0.876608 0.667967 0.5
381 31 0.893378 0.639411 0.5
584 28 0.922044 0.610039 0.5
295 32 0.925403 0.653869 0.5
601 31 0.950578 0.629298 0.5
862 28 0.980401 0.640881 0.5
134 32 0.956627 0.660834 0.5
271 30 0.0444422 0.665716 0.5
675 29 0.0191263 0.683983 0.5
231 31 0.0513511 0.697044 0.5
684 28 0.0774591 0.681226 0.5
946 30 0.0806256 0.712735 0.5
546 31 0.107159 0.692937 0.5
109 35 0.134351 0.671916 0.5
790 31 0.138644 0.704303 0.5
441 30 0.168661 0.679961 0.5
398 33 0.175281 0.715272 0.5
359 32 0.197994 0.691472 0.5
145 28 0.221058 0.671539 0.5
447 33 0.231219 0.701212 0.5
869 31 0.255134 0.677116 0.5
970 27 0.26002 0.713808 0.5
465 29 0.279665 0.657634 0.5
204 32 0.306527 0.673853 0.5
830 30 0.283035 0.695615 0.5
714 30 0.313833 0.707367 0.5
804 30 0.37221 0.664899 0.5
624 28 0.340552 0.68643 0.5
634 25 0.374193 0.70294 0.5
117 31 0.343601 0.721785 0.5
722 32 0.399483 0.683437 0.5
32 27 0.404358 0.713279 0.5
543 32 0.431044 0.69379 0.5
388 29 0.432496 0.725452 0.5
958 27 0.487159 0.684249 0.5
186 31 0.458795 0.708831 0.5
371 30 0.490516 0.71692 0.5
79 33 0.542673 0.674764 0.5
406 30 0.518315 0.696462 0.5
370 33 0.549261 0.707099 0.5
758 27 0.525698 0.729609 0.5
840 29 0.573391 0.685264 0.5
572 32 0.580534 0.719747 0.5
825 33 0.604184 0.69421 0.5
481 30 0.629873 0.67086 0.5
820 30 0.637911 0.702452 0.5
638 37 0.663315 0.679396 0.5
437 31 0.669146 0.715224 0.5
915 29 0.694559 0.695321 0.5
297 30 0.728703 0.667074 0.5
816 31 0.729002 0.702744 0.5
323 30 0.756441 0.687372 0.5
454 31 0.761323 0.718747 0.5
711 32 0.814005 0.669733 0.5
43 32 0.78714 0.692662 0.5
997 32 0.822082 0.706806 0.5
119 30 0.844916 0.682926 0.5
46 32 0.878406 0.697921 0.5
163 28 0.851822 0.715718 0.5
778 28 0.906295 0.678819 0.5
392 30 0.93665 0.687016 0.5
322 27 0.906134 0.710389 0.5
318 32 0.936836 0.719467 0.5
861 32 0.985975 0.674239 0.5
514 28 0.99993 0.707326 0.5
276 32 0.968762 0.703984 0.5
489 27 0.0269224 0.71775 0.5
269 31 0.0315699 0.755419 0.5
200 32 0.00120306 0.771863 0.5
401 28 0.114149 0.725724 0.5
630 31 0.0544336 0.733761 0.5
757 34 0.0889968 0.74494 0.5
643 29 0.0626708 0.764004 0.5
308 29 0.0962617 0.779837 0.5
237 32 0.149195 0.735779 0.5
969 30 0.118696 0.756007 0.5
477 31 0.147658 0.767602 0.5
696 29 0.204072 0.729374 0.5
726 30 0.179299 0.749223 0.5
475 29 0.207956 0.759476 0.5
151 33 0.237955 0.737115 0.5
116 27 0.264545 0.752488 0.5
460 32 0.237852 0.77184 0.5
205 29 0.288439 0.725428 0.5
86 30 0.294194 0.761047 0.5
954 28 0.316402 0.740884 0.5
989 32 0.327023 0.769901 0.5
48 28 0.377448 0.731552 0.5
718 26 0.353593 0.753273 0.5
909 29 0.380016 0.766337 0.5
152 32 0.40792 0.744166 0.5
286 31 0.441579 0.761957 0.5
883 33 0.412846 0.776582 0.5
45 30 0.465911 0.739589 0.5
226 31 0.472437 0.769922 0.5
386 33 0.502578 0.749286 0.5
479 26 0.531561 0.763481 0.5
526 30 0.556026 0.741408 0.5
547 32 0.56182 0.774625 0.5
69 32 0.590501 0.755164 0.5
755 28 0.598683 0.786923 0.5
604 27 0.610401 0.7299 0.5
773 26 0.622474 0.76193 0.5
800 27 0.644853 0.733891 0.5
3 32 0.652442 0.769083 0.5
978 27 0.678168 0.748363 0.5
850 28 0.70177 0.730156 0.5
335 32 0.712824 0.760273 0.5
932 29 0.734122 0.737652 0.5
184 29 0.743997 0.774544 0.5
522 33 0.770875 0.751219 0.5
573 30 0.795738 0.725907 0.5
635 27 0.829644 0.737412 0.5
108 32 0.805317 0.75864 0.5
463 29 0.83133 0.775478 0.5
654 28 0.877859 0.730411 0.5
683 32 0.854792 0.754111 0.5
64 31 0.885439 0.76338 0.5
599 32 0.910205 0.74221 0.5
605 28 1.00247 0.736202 0.5
678 30 0.94101 0.75157 0.5
695 27 0.969527 0.734884 0.5
612 29 0.970057 0.764329 0.5
149 29 0.0402683 0.78923 0.5
98 32 0.0123882 0.803917 0.5
510 32 0.0455934 0.81963 0.5
539 31 0.0711224 0.79985 0.5
146 28 0.0987661 0.814476 0.5
889 29 0.0775663 0.835765 0.5
876 31 0.125948 0.790428 0.5
913 30 0.154819 0.800883 0.5
468 29 0.1332 0.824285 0.5
777 29 0.178146 0.781312 0.5
827 35 0.184336 0.815302 0.5
19 30 0.20877 0.794075 0.5
724 34 0.215087 0.827523 0.5
82 32 0.241247 0.803924 0.5
344 27 0.265749 0.784881 0.5
10 30 0.273176 0.81449 0.5
320 32 0.295271 0.792586 0.5
15 32 0.303488 0.827924 0.5
284 32 0.328609 0.803805 0.5
399 32 0.356191 0.787483 0.5
639 27 0.362634 0.819433 0.5
352 29 0.385387 0.800086 0.5
717 30 0.416635 0.808965 0.5
602 28 0.443713 0.792042 0.5
576 31 0.394439 0.830121 0.5
417 28 0.448563 0.821047 0.5
99 28 0.477676 0.802938 0.5
667 29 0.504353 0.781287 0.5
222 31 0.508422 0.813756 0.5
863 29 0.535119 0.794883 0.5
735 29 0.542111 0.823948 0.5
198 32 0.567692 0.805913 0.5
189 23 0.604056 0.814438 0.5
979 32 0.629341 0.792715 0.5
304 29 0.631352 0.823325 0.5
337 30 0.65928 0.801619 0.5
520 31 0.686271 0.777731 0.5
327 31 0.717425 0.791637 0.5
562 33 0.690285 0.810242 0.5
482 30 0.720482 0.825916 0.5
50 31 0.774378 0.782983 0.5
49 29 0.744507 0.80661 0.5
373 32 0.777716 0.818341 0.5
354 32 0.804294 0.795799 0.5
185 33 0.809523 0.830104 0.5
142 31 0.833861 0.806642 0.5
878 31 0.859366 0.787467 0.5
123 25 0.867244 0.818946 0.5
319 30 0.914358 0.775754 0.5
496 30 0.893125 0.798811 0.5
955 29 0.922948 0.808619 0.5
697 33 0.898942 0.830939 0.5
93 35 0.94661 0.785812 0.5
474 29 0.980645 0.79685 0.5
810 31 0.95538 0.816946 0.5
240 30 0.0166724 0.836552 0.5
236 35 0.0214104 0.8731 0.5
433 28 0.0511392 0.852801 0.5
161 29 0.0515611 0.883838 0.5
435 28 0.0792937 0.867743 0.5
396 31 0.115004 0.848954 0.5
223 26 0.0888563 0.896086 0.5
839 29 0.1161 0.881625 0.5
801 29 0.163336 0.839186 0.5
194 31 0.146365 0.875793 0.5
224 30 0.189969 0.85712 0.5
342 34 0.221536 0.863814 0.5
992 33 0.178483 0.889101 0.5
160 30 0.246966 0.83792 0.5
554 30 0.253288 0.8709 0.5
617 32 0.277514 0.846507 0.5
552 30 0.307891 0.859209 0.5
439 29 0.283401 0.886076 0.5
74 32 0.339189 0.838455 0.5
739 35 0.338191 0.877883 0.5
53 32 0.370129 0.850462 0.5
419 32 0.370631 0.88429 0.5
220 30 0.398685 0.869689 0.5
640 33 0.425097 0.845692 0.5
235 32 0.429498 0.877765 0.5
627 31 0.485576 0.835552 0.5
670 32 0.458852 0.852367 0.5
657 28 0.490874 0.870669 0.5
391 28 0.518548 0.84516 0.5
507 30 0.523541 0.880901 0.5
535 28 0.546507 0.857157 0.5
59 28 0.5721 0.837729 0.5
268 36 0.603722 0.844978 0.5
390 31 0.575144 0.868238 0.5
817 33 0.606855 0.879219 0.5
993 30 0.661134 0.838365 0.5
292 30 0.633106 0.861117 0.5
139 30 0.666063 0.869963 0.5
153 33 0.695992 0.847044 0.5
774 32 0.695788 0.878865 0.5
782 29 0.753457 0.837395 0.5
30 31 0.727209 0.856133 0.5
669 34 0.757992 0.870783 0.5
570 32 0.783613 0.850588 0.5
843 32 0.815497 0.86134 0.5
147 30 0.7924 0.883258 0.5
302 29 0.845379 0.838396 0.5
221 27 0.873676 0.853746 0.5
945 32 0.847492 0.869856 0.5
558 31 0.880036 0.88653 0.5
759 33 0.930897 0.840303 0.5
299 28 0.901824 0.86304 0.5
880 34 0.935421 0.876529 0.5
254 31 0.98669 0.827962 0.5
88 35 0.991068 0.860661 0.5
285 30 0.960424 0.850414 0.5
56 29 0.966256 0.884035 0.5
238 28 0.0248194 0.906417 0.5
894 29 0.0357415 0.935231 0.5
905 30 0.00121604 0.926685 0.5
518 30 0.0583232 0.913569 0.5
207 31 0.0934732 0.927238 0.5
515 30 0.123878 0.912382 0.5
747 28 0.156191 0.914409 0.5
351 31 0.138522 0.940324 0.5
38 30 0.173326 0.939916 0.5
642 31 0.198767 0.9212 0.5
865 27 0.229885 0.895311 0.5
261 33 0.231183 0.92937 0.5
610 30 0.257325 0.906592 0.5
213 31 0.264071 0.936696 0.5
647 30 0.286656 0.916478 0.5
567 30 0.312952 0.897244 0.5
387 30 0.316918 0.929765 0.5
127 27 0.341699 0.911283 0.5
257 32 0.373793 0.918848 0.5
330 29 0.352004 0.941599 0.5
5 32 0.408144 0.902805 0.5
860 30 0.402921 0.934733 0.5
449 29 0.435122 0.923095 0.5
731 32 0.458437 0.891188 0.5
150 34 0.467681 0.923986 0.5
831 30 0.49743 0.935054 0.5
291 29 0.553265 0.891792 0.5
525 29 0.492703 0.900408 0.5
890 32 0.522528 0.912241 0.5
937 31 0.55456 0.923181 0.5
941 30 0.582519 0.89989 0.5
362 31 0.585718 0.931464 0.5
877 30 0.6376 0.891431 0.5
537 29 0.614276 0.911267 0.5
192 33 0.64465 0.92442 0.5
366 30 0.67212 0.901934 0.5
102 27 0.683991 0.935258 0.5
609 30 0.704416 0.911502 0.5
741 32 0.728388 0.888016 0.5
708 29 0.761951 0.904139 0.5
253 30 0.736281 0.923281 0.5
453 28 0.764192 0.936714 0.5
314 31 0.820446 0.899238 0.5
746 28 0.795667 0.91684 0.5
681 28 0.823535 0.933969 0.5
527 30 0.851595 0.905652 0.5
55 29 0.855036 0.937357 0.5
975 29 0.884731 0.919159 0.5
334 32 0.909601 0.897052 0.5
219 29 0.917799 0.932217 0.5
501 32 0.940498 0.909901 0.5
931 30 0.945551 0.946199 0.5
613 29 0.995029 0.896446 0.5
689 30 0.971576 0.91652 0.5
34 31 0.0114391 0.956736 0.5
502 28 0.023834 0.99659 0.5
89 30 0.0405661 0.968187 0.5
873 31 0.070618 0.950627 0.5
262 31 0.0824311 0.982534 0.5
248 28 0.10978 0.956398 0.5
943 36 0.11747 0.992245 0.5
172 26 0.147198 0.969446 0.5
538 32 0.177509 0.972059 0.5
828 30 0.20211 0.95242 0.5
61 31 0.207919 0.982864 0.5
339 33 0.241878 0.996327 0.5
459 33 0.232313 0.963304 0.5
775 32 0.265507 0.972971 0.5
315 30 0.295806 0.956225 0.5
131 29 0.293217 0.987027 0.5
316 34 0.325043 0.969278 0.5
984 31 0.377626 0.958847 0.5
907 29 0.355133 0.979811 0.5
743 31 0.381332 0.996083 0.5
884 33 0.405044 0.974348 0.5
230 31 0.431448 0.953451 0.5
623 33 0.436896 0.985639 0.5
650 30 0.465418 0.958694 0.5
808 29 0.503936 0.965634 0.5
494 27 0.529171 0.945378 0.5
256 32 0.535292 0.980709 0.5
798 32 0.558454 0.957442 0.5
982 31 0.567558 0.99191 0.5
78 26 0.588236 0.965707 0.5
523 27 0.619498 0.95014 0.5
355 31 0.61356 0.983187 0.5
444 32 0.656662 0.990932 0.5
598 32 0.651917 0.956895 0.5
395 29 0.712608 0.942528 0.5
214 32 0.682495 0.971539 0.5
173 30 0.716166 0.979 0.5
159 32 0.740383 0.958129 0.5
340 27 0.744431 0.988621 0.5
509 29 0.769613 0.970686 0.5
836 30 0.792951 0.949082 0.5
858 31 0.806052 0.980371 0.5
415 28 0.833236 0.966443 0.5
76 29 0.840586 0.995407 0.5
924 28 0.865422 0.965145 0.5
183 29 0.890328 0.948903 0.5
780 30 0.919168 0.963511 0.5
919 28 0.929813 0.996149 0.5
842 29 0.895686 0.983393 0.5
113 32 0.97993 0.949642 0.5
922 33 0.991033 0.983224 0.5
436 31 0.960282 0.974998 0.5
