ITEM: TIMESTEP
2100000
ITEM: NUMBER OF ATOMS
1000
ITEM: BOX BOUNDS pp pp pp
-1.6508578000000000e+01 1.6508578000000000e+01
-1.6508578000000000e+01 1.6508578000000000e+01
-5.0000000000000000e-01 5.0000000000000000e-01
ITEM: ATOMS id type xs ys zs
33 30 0.0431962 0.0224011 0.5
895 30 0.0162126 0.0429216 0.5
622 30 0.00833131 0.0126438 0.5
378 31 0.0731719 0.0324041 0.5
987 32 0.0991506 0.0127657 0.5
846 32 0.104251 0.0465835 0.5
164 32 0.06913 -0.00281748 0.5
328 27 0.128736 0.0198323 0.5
505 31 0.157414 0.0310961 0.5
565 29 0.152602 -0.00240331 0.5
466 35 0.196914 0.0428121 0.5
710 33 0.184794 0.0103067 0.5
947 32 0.220521 0.01932 0.5
279 31 0.248694 0.0356015 0.5
339 33 0.248006 0.000126647 0.5
462 30 0.275578 0.0198614 0.5
255 30 0.310661 0.0252205 0.5
80 30 0.285312 0.0492041 0.5
490 31 0.337272 0.000122474 0.5
577 33 0.345162 0.0333164 0.5
380 34 0.371471 0.0105772 0.5
168 33 0.376079 0.0435248 0.5
218 27 0.402841 0.0234205 0.5
122 30 0.436684 0.0345957 0.5
659 32 0.427284 0.00355148 0.5
738 31 0.41011 0.0554537 0.5
921 33 0.490946 0.0233219 0.5
536 29 0.459692 0.0133436 0.5
835 31 0.466141 0.0434387 0.5
473 31 0.523834 0.0327309 0.5
934 28 0.547832 0.012176 0.5
58 29 0.498041 0.0557667 0.5
409 30 0.514805 -0.000584432 0.5
844 31 0.555159 0.0433162 0.5
451 31 0.581979 0.0241246 0.5
752 29 0.612386 0.0322803 0.5
467 31 0.643029 0.0465842 0.5
629 28 0.63718 0.0148542 0.5
445 32 0.669381 0.0216403 0.5
704 32 0.698151 0.0355071 0.5
898 29 0.67578 0.0569552 0.5
75 27 0.723923 0.0125152 0.5
420 32 0.757649 0.0214899 0.5
301 33 0.734515 0.0445358 0.5
749 29 0.770864 0.0518951 0.5
250 30 0.79554 0.0333122 0.5
926 32 0.821281 0.0156662 0.5
715 27 0.822635 0.0470146 0.5
719 27 0.854769 0.0164323 0.5
591 29 0.883171 0.028922 0.5
52 33 0.912103 0.0143192 0.5
483 29 0.917462 0.0480289 0.5
182 31 0.94386 0.0253947 0.5
397 31 0.983134 0.036215 0.5
258 34 0.97126 0.00622136 0.5
656 27 0.0460058 0.0582044 0.5
332 29 0.0539065 0.0889756 0.5
940 29 0.0197337 0.0732003 0.5
229 31 0.0281771 0.109213 0.5
663 31 0.0753033 0.0668609 0.5
242 33 0.0853677 0.0982712 0.5
920 30 0.111725 0.0767032 0.5
461 31 0.136502 0.0584085 0.5
998 31 0.14348 0.0900576 0.5
197 30 0.166987 0.0639286 0.5
891 32 0.20071 0.0762704 0.5
498 30 0.174775 0.0949071 0.5
721 29 0.226188 0.0569205 0.5
516 34 0.236705 0.0882151 0.5
215 29 0.260862 0.0678091 0.5
903 31 0.268474 0.101592 0.5
819 30 0.321854 0.058178 0.5
455 31 0.293677 0.080162 0.5
811 29 0.322866 0.0896016 0.5
247 28 0.299987 0.112806 0.5
180 31 0.351852 0.0675703 0.5
996 29 0.38241 0.074755 0.5
193 29 0.356029 0.0980582 0.5
374 32 0.416061 0.0900182 0.5
852 32 0.442032 0.0655203 0.5
227 31 0.385328 0.110035 0.5
673 29 0.448151 0.101116 0.5
592 28 0.470664 0.0793497 0.5
559 31 0.478276 0.10858 0.5
203 34 0.504417 0.089742 0.5
71 32 0.527945 0.0658952 0.5
953 30 0.536148 0.105033 0.5
31 27 0.582972 0.0546449 0.5
649 33 0.559011 0.0802685 0.5
682 33 0.591278 0.0843717 0.5
896 30 0.575347 0.112775 0.5
961 30 0.616059 0.0630168 0.5
607 33 0.625077 0.0943803 0.5
430 32 0.652163 0.0770794 0.5
788 32 0.654138 0.112308 0.5
107 30 0.706903 0.0657235 0.5
178 27 0.682851 0.0864426 0.5
930 29 0.710711 0.1015 0.5
305 30 0.738968 0.076192 0.5
737 32 0.751636 0.112554 0.5
312 34 0.771741 0.0867452 0.5
744 32 0.798686 0.0684987 0.5
485 32 0.808703 0.10213 0.5
243 31 0.855635 0.0517961 0.5
986 30 0.831997 0.0757263 0.5
241 32 0.864903 0.0881743 0.5
484 32 0.889703 0.0615623 0.5
158 32 0.901208 0.0974807 0.5
703 30 0.92955 0.0792673 0.5
990 34 0.954788 0.058503 0.5
63 30 0.959863 0.090694 0.5
660 29 0.986334 0.0683053 0.5
857 34 0.995088 0.0985529 0.5
365 29 0.0342798 0.141623 0.5
379 29 0.0602648 0.119837 0.5
569 31 0.00431732 0.166071 0.5
589 28 0.0635868 0.151489 0.5
676 31 0.0935527 0.136025 0.5
685 30 0.118477 0.113791 0.5
155 30 0.123953 0.146495 0.5
67 30 0.149776 0.125677 0.5
712 30 0.154567 0.157339 0.5
976 27 0.210154 0.11248 0.5
298 34 0.180794 0.127246 0.5
448 31 0.210693 0.142894 0.5
754 31 0.246016 0.124159 0.5
290 31 0.244518 0.156472 0.5
37 30 0.274779 0.139111 0.5
813 30 0.306612 0.143637 0.5
81 29 0.330473 0.118902 0.5
442 32 0.336993 0.155178 0.5
511 33 0.359558 0.130105 0.5
706 31 0.368365 0.162454 0.5
487 30 0.398341 0.142783 0.5
927 31 0.422834 0.12163 0.5
325 31 0.429501 0.152606 0.5
802 32 0.455922 0.13293 0.5
991 31 0.488656 0.142268 0.5
274 29 0.459455 0.163952 0.5
493 28 0.511023 0.121529 0.5
871 30 0.545288 0.134383 0.5
181 31 0.520664 0.155202 0.5
763 32 0.552934 0.166703 0.5
14 30 0.577863 0.143552 0.5
551 30 0.60502 0.121326 0.5
900 28 0.607972 0.1556 0.5
104 28 0.633463 0.137383 0.5
492 34 0.639726 0.170707 0.5
795 33 0.665357 0.148422 0.5
699 27 0.689739 0.126417 0.5
16 31 0.696203 0.155998 0.5
425 31 0.721604 0.131514 0.5
307 31 0.753837 0.145272 0.5
413 29 0.726919 0.167699 0.5
317 33 0.782385 0.12306 0.5
103 31 0.783364 0.156357 0.5
779 33 0.816557 0.13327 0.5
677 34 0.821737 0.166695 0.5
499 26 0.844185 0.115046 0.5
211 26 0.850564 0.144323 0.5
408 29 0.873468 0.119781 0.5
994 30 0.880739 0.150632 0.5
528 32 0.929765 0.111821 0.5
138 31 0.904129 0.129951 0.5
561 31 0.942362 0.147054 0.5
270 31 0.912199 0.160385 0.5
208 31 1.00217 0.134078 0.5
356 28 0.962663 0.121616 0.5
838 27 0.97632 0.15169 0.5
939 33 0.0377594 0.172986 0.5
700 29 0.0405864 0.209685 0.5
249 32 0.0117861 0.197938 0.5
964 32 0.0975672 0.172653 0.5
170 32 0.0678614 0.188349 0.5
350 25 0.0988981 0.202343 0.5
272 33 0.0728233 0.222163 0.5
766 30 0.129709 0.178974 0.5
97 27 0.160436 0.187994 0.5
143 30 0.130439 0.209158 0.5
614 30 0.185662 0.168222 0.5
770 35 0.216742 0.176696 0.5
513 29 0.187616 0.199215 0.5
18 35 0.223418 0.21822 0.5
216 35 0.247539 0.19115 0.5
694 31 0.277678 0.170489 0.5
245 27 0.280877 0.207407 0.5
517 33 0.310339 0.18068 0.5
367 29 0.347826 0.188149 0.5
389 34 0.375439 0.205598 0.5
280 34 0.399201 0.181288 0.5
847 33 0.431503 0.186441 0.5
809 29 0.410155 0.210979 0.5
414 32 0.471276 0.196855 0.5
239 32 0.4423 0.216846 0.5
464 30 0.496605 0.174505 0.5
671 28 0.501685 0.206264 0.5
372 29 0.527056 0.185515 0.5
73 31 0.532572 0.218002 0.5
957 33 0.561907 0.197656 0.5
845 29 0.585617 0.175228 0.5
646 29 0.591849 0.211746 0.5
769 30 0.615266 0.191085 0.5
174 31 0.644942 0.205462 0.5
402 33 0.619823 0.224859 0.5
944 30 0.669889 0.18154 0.5
568 31 0.678059 0.218994 0.5
799 29 0.701097 0.196528 0.5
950 31 0.708375 0.227611 0.5
57 31 0.760749 0.182725 0.5
358 29 0.730872 0.198127 0.5
761 30 0.769104 0.212969 0.5
603 30 0.798224 0.189567 0.5
100 32 0.830221 0.200716 0.5
508 29 0.798593 0.220406 0.5
644 30 0.853614 0.177177 0.5
530 30 0.864177 0.207926 0.5
653 28 0.883308 0.183603 0.5
938 27 0.914116 0.192996 0.5
768 31 0.892569 0.220111 0.5
68 31 0.942674 0.181338 0.5
574 27 0.952853 0.209349 0.5
933 30 0.97314 0.182044 0.5
733 33 0.0428874 0.241893 0.5
115 27 0.0154135 0.228643 0.5
661 30 0.0162159 0.260907 0.5
705 30 0.104013 0.234979 0.5
849 32 0.0809669 0.256592 0.5
648 28 0.113132 0.266034 0.5
662 31 0.160177 0.220786 0.5
936 28 0.134515 0.244256 0.5
210 29 0.143595 0.273819 0.5
199 33 0.16819 0.252757 0.5
252 32 0.191716 0.230203 0.5
787 29 0.19552 0.268226 0.5
488 29 0.257821 0.226507 0.5
66 31 0.22311 0.252347 0.5
596 29 0.256949 0.262966 0.5
564 29 0.315318 0.212246 0.5
385 31 0.283312 0.244767 0.5
403 28 0.313882 0.242108 0.5
469 33 0.345515 0.218978 0.5
169 27 0.370424 0.240105 0.5
171 32 0.342808 0.255668 0.5
966 28 0.394297 0.260391 0.5
132 31 0.419254 0.240608 0.5
28 29 0.424692 0.272169 0.5
608 30 0.450113 0.248627 0.5
856 29 0.477815 0.227355 0.5
664 31 0.483148 0.262193 0.5
621 29 0.508719 0.244123 0.5
753 31 0.538905 0.256233 0.5
701 33 0.513355 0.275538 0.5
440 34 0.566434 0.232563 0.5
114 28 0.597819 0.249352 0.5
728 32 0.572281 0.266165 0.5
434 28 0.604261 0.279627 0.5
457 33 0.651052 0.238128 0.5
914 28 0.62688 0.260535 0.5
497 31 0.6594 0.268782 0.5
834 31 0.685621 0.249738 0.5
91 28 0.714856 0.257948 0.5
582 30 0.740304 0.22869 0.5
225 32 0.745272 0.26499 0.5
121 31 0.773643 0.245675 0.5
94 28 0.802401 0.252909 0.5
217 31 0.82954 0.23588 0.5
666 31 0.781749 0.276085 0.5
580 29 0.834756 0.268756 0.5
742 31 0.861197 0.239889 0.5
393 34 0.865881 0.275952 0.5
912 34 0.891261 0.252293 0.5
571 36 0.92548 0.224362 0.5
329 32 0.926886 0.258643 0.5
382 33 0.984428 0.215744 0.5
855 31 0.960672 0.23879 0.5
106 26 0.990385 0.246308 0.5
803 31 0.0245584 0.290945 0.5
310 32 0.0527955 0.273632 0.5
353 30 -0.000563835 0.311734 0.5
886 29 0.0576951 0.310846 0.5
2 30 0.0819975 0.288436 0.5
762 31 0.087423 0.319601 0.5
346 30 0.11242 0.297491 0.5
729 27 0.14439 0.313186 0.5
24 30 0.170273 0.29383 0.5
545 34 0.117399 0.331144 0.5
202 34 0.173252 0.328024 0.5
120 30 0.19838 0.308342 0.5
130 30 0.225142 0.285253 0.5
140 30 0.233262 0.318748 0.5
124 29 0.255998 0.29605 0.5
54 30 0.283338 0.277928 0.5
597 28 0.314078 0.283654 0.5
815 30 0.28726 0.309269 0.5
837 31 0.317493 0.31844 0.5
823 30 0.368665 0.279261 0.5
902 30 0.345853 0.302011 0.5
756 30 0.373905 0.316225 0.5
794 31 0.347865 0.333853 0.5
427 31 0.401532 0.292859 0.5
96 30 0.430782 0.303739 0.5
376 34 0.406473 0.324569 0.5
995 28 0.458909 0.281801 0.5
273 29 0.488277 0.295663 0.5
651 28 0.461287 0.315026 0.5
144 32 0.490326 0.328732 0.5
90 34 0.545621 0.289581 0.5
841 31 0.516912 0.307154 0.5
296 30 0.5537 0.324004 0.5
232 29 0.577849 0.297194 0.5
77 26 0.582085 0.329984 0.5
888 29 0.607286 0.309705 0.5
263 30 0.632839 0.291775 0.5
452 32 0.638202 0.327096 0.5
645 31 0.666721 0.302888 0.5
424 27 0.694545 0.280861 0.5
368 31 0.696448 0.313206 0.5
278 32 0.669362 0.335717 0.5
112 28 0.727179 0.291246 0.5
251 31 0.730808 0.322747 0.5
988 26 0.759562 0.295689 0.5
72 28 0.762094 0.334545 0.5
637 29 0.786997 0.308163 0.5
887 31 0.810553 0.289453 0.5
963 29 0.820715 0.322895 0.5
265 35 0.845087 0.302063 0.5
797 31 0.881709 0.312923 0.5
44 32 0.850607 0.334234 0.5
832 35 0.901869 0.287358 0.5
456 31 0.933896 0.293439 0.5
521 31 0.912208 0.323354 0.5
615 29 0.941986 0.331128 0.5
529 30 0.958906 0.27311 0.5
377 29 0.988179 0.282719 0.5
611 33 0.968177 0.307443 0.5
776 31 0.029028 0.322727 0.5
27 32 0.0359881 0.360657 0.5
418 32 0.00424867 0.346921 0.5
345 31 0.063119 0.343597 0.5
244 30 0.0933224 0.356048 0.5
177 28 0.0678159 0.37385 0.5
618 33 0.147601 0.348735 0.5
557 33 0.122227 0.369167 0.5
751 28 0.152201 0.380326 0.5
429 29 0.204914 0.342026 0.5
652 35 0.179095 0.361024 0.5
369 32 0.20977 0.375396 0.5
736 28 0.260651 0.332058 0.5
881 29 0.2353 0.348941 0.5
720 30 0.265612 0.364325 0.5
84 29 0.239854 0.382913 0.5
260 30 0.288929 0.344845 0.5
967 28 0.318923 0.351538 0.5
293 33 0.297885 0.375041 0.5
87 30 0.376478 0.349195 0.5
935 28 0.351415 0.370205 0.5
532 30 0.382622 0.384656 0.5
668 27 0.437173 0.332634 0.5
167 29 0.406919 0.360993 0.5
885 28 0.439729 0.367942 0.5
400 32 0.465339 0.35085 0.5
333 30 0.469658 0.385309 0.5
707 37 0.498413 0.36283 0.5
357 33 0.524519 0.339855 0.5
458 33 0.530682 0.375547 0.5
581 27 0.552435 0.354864 0.5
491 30 0.584025 0.362298 0.5
201 32 0.559507 0.389582 0.5
949 32 0.61505 0.349976 0.5
4 31 0.62325 0.381365 0.5
348 29 0.646294 0.358991 0.5
587 33 0.70592 0.345974 0.5
500 35 0.680113 0.36819 0.5
593 28 0.712423 0.378821 0.5
309 32 0.73736 0.353735 0.5
874 33 0.767241 0.365734 0.5
206 31 0.741805 0.386258 0.5
384 35 0.793403 0.341947 0.5
674 29 0.824814 0.356267 0.5
21 31 0.799469 0.373865 0.5
745 32 0.884488 0.347665 0.5
980 29 0.857948 0.36625 0.5
12 32 0.889514 0.380191 0.5
806 29 0.918718 0.356055 0.5
363 28 0.949277 0.368236 0.5
606 32 0.970748 0.345807 0.5
6 24 0.985457 0.375813 0.5
923 32 0.0141743 0.384709 0.5
544 29 0.0444127 0.39344 0.5
375 30 0.0194828 0.415949 0.5
288 33 0.0475552 0.430965 0.5
283 33 0.0983598 0.392948 0.5
141 31 0.0711304 0.409392 0.5
548 33 0.0984041 0.425974 0.5
259 26 0.127752 0.403351 0.5
542 31 0.154184 0.419082 0.5
233 29 0.128809 0.438843 0.5
407 29 0.18176 0.396984 0.5
686 30 0.184104 0.427665 0.5
326 36 0.217109 0.407846 0.5
672 31 0.269045 0.396402 0.5
851 31 0.24742 0.418906 0.5
897 31 0.325411 0.392906 0.5
196 31 0.299523 0.413832 0.5
586 35 0.275716 0.435851 0.5
234 32 0.331997 0.425059 0.5
631 30 0.355486 0.400144 0.5
882 33 0.362756 0.434441 0.5
331 29 0.389382 0.41418 0.5
785 32 0.414203 0.393823 0.5
786 34 0.421369 0.430839 0.5
563 33 0.445706 0.405933 0.5
162 31 0.477732 0.417237 0.5
36 33 0.504413 0.398153 0.5
228 29 0.507924 0.433308 0.5
734 31 0.53394 0.408716 0.5
665 35 0.540824 0.447014 0.5
977 33 0.592742 0.395821 0.5
658 33 0.566307 0.421997 0.5
692 29 0.597394 0.426883 0.5
626 32 0.653201 0.390697 0.5
893 30 0.623732 0.412285 0.5
549 30 0.657385 0.425261 0.5
125 30 0.682028 0.402363 0.5
870 30 0.694861 0.434161 0.5
866 30 0.717763 0.41081 0.5
727 33 0.725697 0.441932 0.5
404 31 0.750518 0.422247 0.5
531 29 0.77431 0.398131 0.5
431 31 0.780946 0.428 0.5
360 25 0.830997 0.389931 0.5
892 27 0.803217 0.406185 0.5
821 29 0.811065 0.440931 0.5
426 27 0.832577 0.418649 0.5
416 32 0.859067 0.400296 0.5
443 29 0.869442 0.429547 0.5
859 34 0.924207 0.389794 0.5
166 30 0.894577 0.411126 0.5
156 28 0.920296 0.425369 0.5
901 33 0.955151 0.40448 0.5
879 32 0.954498 0.436544 0.5
85 27 0.985683 0.408344 0.5
438 29 0.986397 0.444307 0.5
973 27 0.0180455 0.446295 0.5
983 31 0.0223696 0.491813 0.5
553 31 0.0462492 0.467675 0.5
698 27 0.07571 0.448947 0.5
911 30 0.0764471 0.483482 0.5
962 37 0.105797 0.461476 0.5
713 33 0.112774 0.49469 0.5
512 31 0.136941 0.471164 0.5
781 30 0.162037 0.451311 0.5
405 30 0.222336 0.441368 0.5
336 33 0.193143 0.461127 0.5
428 29 0.170611 0.483472 0.5
917 34 0.22581 0.477441 0.5
8 28 0.251955 0.457716 0.5
179 31 0.258201 0.487516 0.5
687 31 0.309055 0.448028 0.5
750 31 0.284872 0.467082 0.5
22 32 0.31526 0.481901 0.5
541 31 0.338672 0.458196 0.5
616 30 0.36984 0.470299 0.5
929 32 0.346382 0.495403 0.5
848 30 0.393241 0.446667 0.5
51 31 0.400163 0.4815 0.5
783 29 0.433035 0.462136 0.5
556 30 0.428713 0.49385 0.5
965 30 0.455647 0.441095 0.5
690 29 0.484012 0.452735 0.5
620 29 0.462245 0.474702 0.5
709 30 0.487204 0.491763 0.5
875 32 0.513205 0.466597 0.5
476 27 0.546963 0.480668 0.5
133 31 0.572576 0.463297 0.5
175 36 0.585379 0.496887 0.5
421 32 0.603928 0.466794 0.5
504 34 0.6287 0.444048 0.5
306 29 0.641842 0.477401 0.5
394 30 0.618091 0.497835 0.5
730 31 0.669813 0.454393 0.5
23 29 0.670674 0.485491 0.5
899 27 0.701986 0.464316 0.5
1000 33 0.704306 0.497654 0.5
157 31 0.755296 0.455041 0.5
17 29 0.72991 0.473319 0.5
101 29 0.761651 0.485955 0.5
176 31 0.786199 0.459498 0.5
383 32 0.814248 0.474962 0.5
952 32 0.842389 0.448148 0.5
165 27 0.868369 0.464178 0.5
277 29 0.845979 0.483639 0.5
679 35 0.8775 0.497265 0.5
540 32 0.895853 0.446642 0.5
566 31 0.931366 0.458093 0.5
829 28 0.907486 0.478078 0.5
47 31 0.937441 0.488726 0.5
519 28 0.993288 0.48124 0.5
343 32 0.964472 0.468279 0.5
471 28 0.0276514 0.528758 0.5
41 31 0.00379487 0.552585 0.5
533 32 -0.00132435 0.519605 0.5
723 30 0.053299 0.507977 0.5
313 32 0.0609902 0.539398 0.5
191 33 0.0876937 0.515712 0.5
575 31 0.0942488 0.554076 0.5
716 30 0.117235 0.531206 0.5
791 29 0.143796 0.50491 0.5
600 33 0.148092 0.542289 0.5
792 31 0.199574 0.498681 0.5
555 30 0.17127 0.519769 0.5
959 29 0.209084 0.535482 0.5
503 33 0.180898 0.557708 0.5
764 33 0.234243 0.509547 0.5
812 29 0.264678 0.5231 0.5
971 26 0.23792 0.547695 0.5
985 28 0.287395 0.49742 0.5
111 30 0.321357 0.514013 0.5
872 34 0.293681 0.538377 0.5
26 34 0.325784 0.547095 0.5
534 32 0.376859 0.504002 0.5
7 32 0.351084 0.526739 0.5
550 28 0.382253 0.537491 0.5
693 30 0.406018 0.515603 0.5
636 27 0.438674 0.53091 0.5
702 29 0.414803 0.550768 0.5
105 31 0.45764 0.505358 0.5
361 31 0.467235 0.541431 0.5
412 30 0.492486 0.522725 0.5
740 32 0.521791 0.498206 0.5
423 32 0.524525 0.532977 0.5
126 31 0.551383 0.513548 0.5
303 30 0.55325 0.545178 0.5
446 30 0.582793 0.532151 0.5
65 31 0.648046 0.51343 0.5
349 35 0.617733 0.531361 0.5
771 28 0.652499 0.5453 0.5
688 29 0.679729 0.518796 0.5
324 34 0.71138 0.530646 0.5
691 34 0.683305 0.550986 0.5
83 31 0.736878 0.50855 0.5
590 28 0.765881 0.517468 0.5
9 29 0.742695 0.539664 0.5
478 30 0.789649 0.499067 0.5
70 29 0.819536 0.511385 0.5
136 33 0.793738 0.534998 0.5
110 30 0.827607 0.541161 0.5
999 33 0.850258 0.51856 0.5
364 31 0.883956 0.53171 0.5
264 31 0.861502 0.553821 0.5
968 33 0.909184 0.509654 0.5
867 33 0.918709 0.54516 0.5
822 32 0.945509 0.522558 0.5
39 29 0.969051 0.498812 0.5
633 30 0.974958 0.541413 0.5
480 29 0.0350931 0.560116 0.5
960 34 0.0438937 0.593918 0.5
579 29 0.0129811 0.585668 0.5
188 31 0.0700617 0.574603 0.5
918 34 0.0988853 0.58896 0.5
725 34 0.0729232 0.61018 0.5
807 27 0.124832 0.563268 0.5
951 30 0.15213 0.575547 0.5
212 28 0.128347 0.599499 0.5
190 34 0.161336 0.606845 0.5
793 30 0.211387 0.567371 0.5
422 30 0.188341 0.589149 0.5
472 29 0.219439 0.603368 0.5
628 31 0.266068 0.555121 0.5
748 32 0.241732 0.580319 0.5
450 28 0.249766 0.61118 0.5
524 32 0.277857 0.588528 0.5
60 29 0.304026 0.570465 0.5
972 30 0.308973 0.600593 0.5
826 30 0.333531 0.582297 0.5
154 30 0.354721 0.560559 0.5
410 34 0.363118 0.593873 0.5
594 32 0.390906 0.573169 0.5
928 31 0.419307 0.588123 0.5
29 30 0.394068 0.606248 0.5
506 33 0.443398 0.562918 0.5
956 32 0.450713 0.600494 0.5
486 33 0.473686 0.577063 0.5
92 29 0.500306 0.557657 0.5
266 32 0.504998 0.589273 0.5
765 28 0.529357 0.563189 0.5
300 33 0.537012 0.599499 0.5
11 33 0.595523 0.561064 0.5
40 34 0.563447 0.579305 0.5
560 30 0.601263 0.592956 0.5
595 32 0.627104 0.567518 0.5
864 28 0.630192 0.602537 0.5
128 31 0.657378 0.578002 0.5
908 27 0.661407 0.610774 0.5
347 36 0.714401 0.568416 0.5
281 28 0.687151 0.585539 0.5
805 29 0.713172 0.600542 0.5
267 29 0.769769 0.555582 0.5
760 29 0.744714 0.578817 0.5
981 30 0.751996 0.611408 0.5
772 31 0.777746 0.590321 0.5
289 27 0.80424 0.568784 0.5
910 30 0.808972 0.599699 0.5
578 30 0.833288 0.576242 0.5
974 29 0.863006 0.585546 0.5
282 29 0.893577 0.566322 0.5
35 33 0.837312 0.612011 0.5
906 34 0.922544 0.582336 0.5
625 31 0.892715 0.598743 0.5
584 28 0.928575 0.613053 0.5
632 30 0.949369 0.559649 0.5
135 30 0.953685 0.594746 0.5
784 29 0.976375 0.573253 0.5
585 31 0.984476 0.607083 0.5
294 30 0.0140192 0.617569 0.5
187 32 0.0445573 0.626456 0.5
818 28 0.0208873 0.648251 0.5
271 30 0.0485299 0.660723 0.5
916 28 0.103886 0.621335 0.5
495 31 0.0790488 0.64201 0.5
868 34 0.108253 0.655041 0.5
95 31 0.133452 0.630246 0.5
109 35 0.140239 0.66457 0.5
854 29 0.169536 0.638681 0.5
641 30 0.195819 0.623193 0.5
789 29 0.196249 0.654656 0.5
680 30 0.224343 0.634253 0.5
1 29 0.254927 0.645331 0.5
925 27 0.283048 0.624134 0.5
833 31 0.312024 0.633354 0.5
465 29 0.290101 0.654691 0.5
129 33 0.33809 0.614583 0.5
942 28 0.340614 0.645857 0.5
948 33 0.366735 0.629984 0.5
804 30 0.373042 0.663592 0.5
275 31 0.423097 0.61915 0.5
287 33 0.398495 0.640449 0.5
13 31 0.429514 0.651089 0.5
25 31 0.480333 0.610572 0.5
796 29 0.454983 0.633541 0.5
732 30 0.483806 0.644381 0.5
20 32 0.51158 0.620164 0.5
246 32 0.519694 0.6538 0.5
814 31 0.542369 0.630885 0.5
619 31 0.569689 0.613243 0.5
411 31 0.578688 0.64604 0.5
767 34 0.605134 0.62579 0.5
209 29 0.610979 0.657909 0.5
432 30 0.641106 0.632284 0.5
481 30 0.64468 0.663993 0.5
470 30 0.670001 0.644331 0.5
311 29 0.690329 0.620862 0.5
321 31 0.697349 0.659346 0.5
195 33 0.720112 0.634454 0.5
904 32 0.75101 0.643848 0.5
297 30 0.730006 0.66763 0.5
137 32 0.782631 0.621987 0.5
118 29 0.812504 0.632699 0.5
42 35 0.785982 0.655162 0.5
711 32 0.81712 0.665592 0.5
338 30 0.844734 0.647458 0.5
341 28 0.868418 0.621402 0.5
853 26 0.86881 0.664376 0.5
381 31 0.893412 0.638024 0.5
295 32 0.930026 0.644114 0.5
778 28 0.900999 0.668578 0.5
601 31 0.957351 0.62694 0.5
862 28 0.98807 0.63767 0.5
134 32 0.960214 0.663362 0.5
675 29 0.0216361 0.680868 0.5
489 27 0.030407 0.713099 0.5
231 31 0.0533331 0.691739 0.5
684 28 0.0772437 0.672805 0.5
946 30 0.0838837 0.70558 0.5
546 31 0.116565 0.686229 0.5
790 31 0.146309 0.698668 0.5
401 28 0.122994 0.718295 0.5
441 30 0.170863 0.677988 0.5
398 33 0.178942 0.709839 0.5
359 32 0.202646 0.686305 0.5
696 29 0.2109 0.723031 0.5
145 28 0.232813 0.666675 0.5
447 33 0.23315 0.700282 0.5
869 31 0.263204 0.676871 0.5
970 27 0.269304 0.710574 0.5
204 32 0.31947 0.67259 0.5
830 30 0.292606 0.689088 0.5
714 30 0.321894 0.706715 0.5
624 28 0.348693 0.681805 0.5
634 25 0.37499 0.696654 0.5
117 31 0.352642 0.716613 0.5
722 32 0.403002 0.673305 0.5
32 27 0.403731 0.707356 0.5
543 32 0.43621 0.68441 0.5
62 30 0.459546 0.664041 0.5
186 31 0.468683 0.696739 0.5
958 27 0.494725 0.675841 0.5
79 33 0.551244 0.663909 0.5
371 30 0.494941 0.713644 0.5
406 30 0.521768 0.691812 0.5
370 33 0.553514 0.69743 0.5
840 29 0.581867 0.679627 0.5
572 32 0.584819 0.711571 0.5
825 33 0.614367 0.690181 0.5
820 30 0.645294 0.70276 0.5
638 37 0.673338 0.683381 0.5
915 29 0.7051 0.692233 0.5
437 31 0.676812 0.716114 0.5
850 28 0.706483 0.721874 0.5
816 31 0.737764 0.700733 0.5
323 30 0.762189 0.677945 0.5
454 31 0.768222 0.710154 0.5
43 32 0.794078 0.691764 0.5
997 32 0.822908 0.705811 0.5
573 30 0.798174 0.725655 0.5
119 30 0.845367 0.68216 0.5
46 32 0.878357 0.694754 0.5
163 28 0.857193 0.718646 0.5
654 28 0.888316 0.728059 0.5
322 27 0.908711 0.698617 0.5
392 30 0.931914 0.678528 0.5
318 32 0.938982 0.715857 0.5
514 28 0.999717 0.705101 0.5
861 32 0.992356 0.669064 0.5
276 32 0.967069 0.696809 0.5
695 27 0.976705 0.728904 0.5
269 31 0.0346193 0.746624 0.5
605 28 0.00439713 0.737603 0.5
200 32 0.0125423 0.769268 0.5
630 31 0.0599633 0.725576 0.5
757 34 0.0926538 0.735938 0.5
643 29 0.0664473 0.757376 0.5
308 29 0.0990664 0.768456 0.5
237 32 0.153223 0.731527 0.5
969 30 0.125442 0.748518 0.5
477 31 0.157714 0.76286 0.5
726 30 0.184605 0.745482 0.5
475 29 0.214131 0.753442 0.5
777 29 0.185358 0.776086 0.5
151 33 0.241498 0.7329 0.5
116 27 0.268996 0.749783 0.5
460 32 0.239803 0.771895 0.5
205 29 0.29643 0.73041 0.5
86 30 0.29701 0.762434 0.5
954 28 0.330724 0.741291 0.5
989 32 0.326605 0.77472 0.5
718 26 0.358782 0.756302 0.5
48 28 0.381563 0.727433 0.5
909 29 0.38938 0.761424 0.5
152 32 0.41469 0.739291 0.5
286 31 0.444684 0.75193 0.5
883 33 0.419574 0.780727 0.5
388 29 0.439542 0.716316 0.5
45 30 0.467403 0.729113 0.5
226 31 0.474995 0.760717 0.5
758 27 0.534696 0.721627 0.5
386 33 0.506975 0.744974 0.5
479 26 0.538587 0.765405 0.5
526 30 0.559534 0.740307 0.5
547 32 0.570169 0.769679 0.5
69 32 0.593002 0.7457 0.5
604 27 0.615481 0.724302 0.5
773 26 0.622346 0.757299 0.5
800 27 0.643328 0.734292 0.5
3 32 0.653184 0.763771 0.5
978 27 0.678513 0.746964 0.5
520 31 0.68714 0.775556 0.5
335 32 0.712351 0.754048 0.5
932 29 0.737098 0.731197 0.5
522 33 0.767686 0.744105 0.5
184 29 0.742062 0.763811 0.5
108 32 0.797959 0.757026 0.5
635 27 0.8252 0.741726 0.5
50 31 0.769671 0.777951 0.5
683 32 0.857755 0.750825 0.5
463 29 0.832918 0.770094 0.5
878 31 0.867483 0.780505 0.5
64 31 0.891464 0.759049 0.5
599 32 0.916935 0.739823 0.5
319 30 0.927482 0.770416 0.5
678 30 0.951708 0.74431 0.5
612 29 0.98268 0.759085 0.5
149 29 0.0440576 0.780661 0.5
98 32 0.0214111 0.802409 0.5
510 32 0.0529051 0.810898 0.5
539 31 0.0738049 0.786688 0.5
889 29 0.0827904 0.821153 0.5
146 28 0.107183 0.800322 0.5
876 31 0.131245 0.781514 0.5
468 29 0.141835 0.818987 0.5
913 30 0.161843 0.79549 0.5
827 35 0.178588 0.822942 0.5
19 30 0.214354 0.78973 0.5
724 34 0.214393 0.828022 0.5
344 27 0.269684 0.780826 0.5
82 32 0.242535 0.806057 0.5
10 30 0.273399 0.817057 0.5
320 32 0.295816 0.794475 0.5
15 32 0.305422 0.828586 0.5
284 32 0.332371 0.808371 0.5
399 32 0.364597 0.786646 0.5
639 27 0.361643 0.817682 0.5
352 29 0.392997 0.798973 0.5
717 30 0.419331 0.813017 0.5
602 28 0.450893 0.782519 0.5
417 28 0.449503 0.814625 0.5
99 28 0.481756 0.791459 0.5
667 29 0.509446 0.778353 0.5
863 29 0.53704 0.795009 0.5
222 31 0.511517 0.812502 0.5
735 29 0.541469 0.830644 0.5
755 28 0.600312 0.777752 0.5
198 32 0.567841 0.802483 0.5
189 23 0.608194 0.813215 0.5
59 28 0.571409 0.833896 0.5
979 32 0.630008 0.789401 0.5
304 29 0.633427 0.824966 0.5
337 30 0.662516 0.794479 0.5
562 33 0.690819 0.811403 0.5
993 30 0.664136 0.835308 0.5
327 31 0.71646 0.787632 0.5
49 29 0.745379 0.800681 0.5
482 30 0.721899 0.820712 0.5
782 29 0.749894 0.832668 0.5
373 32 0.777416 0.816136 0.5
354 32 0.804846 0.789763 0.5
185 33 0.812048 0.824018 0.5
142 31 0.839639 0.803583 0.5
123 25 0.873359 0.809654 0.5
496 30 0.900649 0.790474 0.5
955 29 0.929758 0.804549 0.5
697 33 0.90075 0.822397 0.5
93 35 0.959329 0.781044 0.5
474 29 0.989736 0.792744 0.5
810 31 0.965625 0.813825 0.5
254 31 0.996443 0.823139 0.5
240 30 0.0269369 0.834435 0.5
236 35 0.0361123 0.867688 0.5
88 35 0.00273949 0.854972 0.5
433 28 0.0610805 0.841681 0.5
223 26 0.09593 0.858084 0.5
161 29 0.0688548 0.875433 0.5
435 28 0.102986 0.889175 0.5
396 31 0.114107 0.833722 0.5
839 29 0.130346 0.868777 0.5
801 29 0.154939 0.848503 0.5
194 31 0.163523 0.880088 0.5
224 30 0.18445 0.857168 0.5
992 33 0.194719 0.8906 0.5
342 34 0.219429 0.860861 0.5
160 30 0.245071 0.84145 0.5
554 30 0.251916 0.881972 0.5
617 32 0.27493 0.851881 0.5
552 30 0.305085 0.859966 0.5
439 29 0.282074 0.884564 0.5
74 32 0.337306 0.842336 0.5
739 35 0.340227 0.876238 0.5
53 32 0.370847 0.853621 0.5
419 32 0.377736 0.885671 0.5
576 31 0.394092 0.830916 0.5
640 33 0.432598 0.845579 0.5
220 30 0.409655 0.867942 0.5
235 32 0.440743 0.880793 0.5
627 31 0.480818 0.822688 0.5
670 32 0.465102 0.850031 0.5
731 32 0.472706 0.890668 0.5
657 28 0.495894 0.869542 0.5
391 28 0.515043 0.845101 0.5
507 30 0.526581 0.884902 0.5
535 28 0.548954 0.862923 0.5
291 29 0.556747 0.897278 0.5
390 31 0.579955 0.86874 0.5
268 36 0.601905 0.84343 0.5
817 33 0.611641 0.877637 0.5
292 30 0.636867 0.855734 0.5
877 30 0.642988 0.891237 0.5
139 30 0.668277 0.866243 0.5
153 33 0.69417 0.845599 0.5
774 32 0.704165 0.87914 0.5
30 31 0.725936 0.854934 0.5
669 34 0.758099 0.864315 0.5
741 32 0.734189 0.892064 0.5
570 32 0.786846 0.847637 0.5
843 32 0.813803 0.8666 0.5
147 30 0.786643 0.883077 0.5
302 29 0.847911 0.8334 0.5
221 27 0.881877 0.847554 0.5
945 32 0.850804 0.865956 0.5
558 31 0.884489 0.877762 0.5
759 33 0.941098 0.834416 0.5
299 28 0.910556 0.858512 0.5
880 34 0.943036 0.868061 0.5
285 30 0.969551 0.850635 0.5
56 29 0.976905 0.883739 0.5
613 29 0.00824499 0.888215 0.5
238 28 0.0442735 0.899784 0.5
905 30 0.0105909 0.92291 0.5
894 29 0.047168 0.934002 0.5
518 30 0.0754395 0.904719 0.5
207 31 0.112506 0.918746 0.5
515 30 0.139752 0.901419 0.5
351 31 0.142421 0.932225 0.5
747 28 0.172178 0.912609 0.5
642 31 0.204426 0.923089 0.5
865 27 0.224714 0.897146 0.5
261 33 0.235537 0.930223 0.5
610 30 0.264133 0.91339 0.5
647 30 0.29299 0.924121 0.5
567 30 0.313649 0.89982 0.5
387 30 0.322519 0.931305 0.5
127 27 0.351033 0.905315 0.5
257 32 0.380053 0.921289 0.5
5 32 0.411052 0.902305 0.5
860 30 0.41136 0.93512 0.5
449 29 0.443626 0.91909 0.5
150 34 0.474059 0.924438 0.5
525 29 0.500774 0.906845 0.5
230 31 0.44518 0.949926 0.5
831 30 0.504152 0.937993 0.5
890 32 0.531075 0.916116 0.5
494 27 0.534035 0.948127 0.5
937 31 0.560181 0.928347 0.5
941 30 0.590414 0.90129 0.5
362 31 0.597993 0.93698 0.5
537 29 0.620234 0.913837 0.5
192 33 0.650043 0.923833 0.5
523 27 0.627349 0.944691 0.5
366 30 0.678292 0.901052 0.5
102 27 0.679651 0.93295 0.5
609 30 0.705228 0.915758 0.5
395 29 0.714931 0.949953 0.5
253 30 0.741688 0.924253 0.5
708 29 0.767359 0.908248 0.5
453 28 0.77307 0.938054 0.5
314 31 0.819743 0.89833 0.5
746 28 0.797898 0.922625 0.5
681 28 0.829954 0.930052 0.5
836 30 0.803935 0.952287 0.5
527 30 0.863319 0.900993 0.5
55 29 0.859521 0.934203 0.5
975 29 0.894282 0.921665 0.5
334 32 0.912732 0.895161 0.5
219 29 0.924878 0.926358 0.5
501 32 0.948685 0.903367 0.5
689 30 0.980212 0.91731 0.5
931 30 0.954922 0.937978 0.5
113 32 0.985038 0.948272 0.5
502 28 0.031578 0.993894 0.5
34 31 0.0194299 0.961637 0.5
873 31 0.0833016 0.939371 0.5
89 30 0.0531316 0.969503 0.5
262 31 0.0873445 0.971149 0.5
248 28 0.118882 0.95163 0.5
943 36 0.119371 0.984557 0.5
172 26 0.146536 0.964748 0.5
38 30 0.17853 0.942904 0.5
828 30 0.210113 0.954058 0.5
538 32 0.176865 0.974554 0.5
61 31 0.210603 0.989544 0.5
213 31 0.266496 0.943957 0.5
459 33 0.241388 0.965393 0.5
775 32 0.275307 0.977479 0.5
131 29 0.304283 0.993321 0.5
315 30 0.299178 0.957674 0.5
316 34 0.33212 0.96655 0.5
330 29 0.355193 0.944591 0.5
907 29 0.365098 0.97448 0.5
984 31 0.38627 0.952886 0.5
743 31 0.395507 0.989509 0.5
884 33 0.417815 0.966955 0.5
650 30 0.479972 0.960965 0.5
623 33 0.453908 0.981382 0.5
148 32 0.484535 0.99181 0.5
808 29 0.513337 0.969121 0.5
256 32 0.542552 0.98046 0.5
824 31 0.604177 1.00169 0.5
798 32 0.573044 0.960352 0.5
982 31 0.572319 0.994433 0.5
78 26 0.603503 0.972049 0.5
355 31 0.633601 0.982125 0.5
598 32 0.65825 0.955112 0.5
444 32 0.664172 0.98935 0.5
655 30 0.697284 0.998728 0.5
214 32 0.68942 0.967333 0.5
173 30 0.723124 0.979185 0.5
159 32 0.745928 0.956399 0.5
340 27 0.754155 0.991189 0.5
583 28 0.78636 1.00496 0.5
509 29 0.781288 0.973636 0.5
858 31 0.813137 0.982456 0.5
588 29 0.879551 0.995167 0.5
76 29 0.843976 0.98943 0.5
415 28 0.834827 0.960622 0.5
924 28 0.876279 0.963855 0.5
183 29 0.90546 0.950536 0.5
842 29 0.906466 0.982661 0.5
780 30 0.934874 0.962042 0.5
919 28 0.937979 0.991883 0.5
922 33 0.994792 0.983437 0.5
436 31 0.964755 0.972969 0.5
