ITEM: TIMESTEP
1750000
ITEM: NUMBER OF ATOMS
1000
ITEM: BOX BOUNDS pp pp pp
-1.5570957999999999e+01 1.5570957999999999e+01
-1.5570957999999999e+01 1.5570957999999999e+01
-5.0000000000000000e-01 5.0000000000000000e-01
ITEM: ATOMS id type xs ys zs
689 30 0.0205852 0.0143178 0.5
89 30 0.0430293 0.0383584 0.5
703 30 0.0119501 0.0472036 0.5
63 29 0.0548119 0.00388738 0.5
880 40 0.0777259 0.0327434 0.5
924 25 0.10064 0.0562343 0.5
298 38 0.11853 0.0272561 0.5
894 27 0.154037 0.0195698 0.5
488 26 0.180589 0.03072 0.5
242 36 0.146838 0.0504655 0.5
161 27 0.181187 0.00202208 0.5
865 21 0.206022 0.0157434 0.5
468 27 0.233346 0.0297222 0.5
642 31 0.208261 0.0463294 0.5
81 27 0.260001 0.0127987 0.5
498 29 0.259903 0.0452604 0.5
775 33 0.291245 0.0302676 0.5
565 27 0.315476 0.0477231 0.5
67 30 0.320826 0.0177026 0.5
257 33 0.35459 0.0269262 0.5
469 36 0.346317 0.0596092 0.5
37 29 0.382324 0.0419461 0.5
197 29 0.412799 0.0239191 0.5
670 34 0.40922 0.0546163 0.5
947 34 0.381918 0.0087402 0.5
984 32 0.442624 0.00367616 0.5
559 33 0.445176 0.0374739 0.5
896 29 0.475372 0.0205696 0.5
738 32 0.474805 0.0574767 0.5
847 37 0.50433 0.00347472 0.5
659 35 0.503261 0.0391122 0.5
525 26 0.53698 0.0142823 0.5
707 45 0.540513 0.0528914 0.5
863 26 0.56523 0.0251804 0.5
650 29 0.580242 0.0511286 0.5
467 31 0.610011 0.0432933 0.5
682 36 0.593097 0.0104848 0.5
493 25 0.625736 0.016799 0.5
473 31 0.56246 -0.00408929 0.5
921 37 0.646761 0.0425717 0.5
390 32 0.678944 0.0283409 0.5
808 26 0.653173 0.00869891 0.5
102 22 0.681798 -0.00110453 0.5
513 27 0.701366 0.051677 0.5
253 29 0.709268 0.0162246 0.5
107 29 0.739474 0.00924384 0.5
741 34 0.73226 0.0400732 0.5
810 31 0.765685 0.0282926 0.5
153 37 0.796898 0.0185066 0.5
562 37 0.788096 0.054401 0.5
444 33 0.769292 -0.00464263 0.5
926 34 0.833524 0.00804888 0.5
609 30 0.857673 0.034899 0.5
16 32 0.821634 0.0430661 0.5
250 30 0.866634 0.000247968 0.5
591 26 0.888929 0.024337 0.5
990 40 0.913875 0.0500881 0.5
229 32 0.923023 0.0153053 0.5
214 34 0.87864 0.0583535 0.5
663 33 0.984609 0.0234128 0.5
301 36 0.950352 0.0384252 0.5
955 28 0.95809 0.00159105 0.5
569 33 0.981306 0.0580454 0.5
905 30 0.0400377 0.0720861 0.5
164 33 0.0300762 0.104942 0.5
483 28 0.00834252 0.0783898 0.5
33 30 0.0697154 0.0665145 0.5
378 31 0.0617764 0.0968257 0.5
622 28 0.0960169 0.086244 0.5
262 32 0.0883379 0.11659 0.5
528 33 0.120828 0.102714 0.5
115 23 0.124291 0.073688 0.5
143 30 0.151209 0.0847648 0.5
155 30 0.149896 0.116247 0.5
249 34 0.176195 0.0646534 0.5
596 27 0.181143 0.0991158 0.5
538 34 0.234648 0.0659515 0.5
813 30 0.205293 0.0818206 0.5
998 31 0.233479 0.0991902 0.5
648 25 0.204986 0.114422 0.5
113 35 0.288798 0.0646453 0.5
809 27 0.264379 0.116616 0.5
694 31 0.262198 0.0824128 0.5
279 32 0.290048 0.0988573 0.5
743 33 0.3195 0.0808457 0.5
455 31 0.350965 0.0960538 0.5
172 21 0.320412 0.110474 0.5
577 36 0.379412 0.0753102 0.5
819 30 0.382717 0.109564 0.5
831 29 0.408729 0.090934 0.5
461 32 0.441562 0.0700119 0.5
203 39 0.440711 0.105844 0.5
71 34 0.471707 0.0891784 0.5
517 36 0.479551 0.123851 0.5
646 28 0.506769 0.0712134 0.5
629 25 0.501494 0.101337 0.5
763 34 0.533052 0.0897875 0.5
413 26 0.562055 0.0794748 0.5
280 38 0.564926 0.116343 0.5
798 34 0.594598 0.0835653 0.5
78 20 0.595173 0.11113 0.5
114 26 0.671631 0.0649506 0.5
509 27 0.621624 0.105943 0.5
148 34 0.631689 0.0747518 0.5
957 36 0.662433 0.0959957 0.5
898 28 0.68981 0.11609 0.5
551 30 0.69671 0.0843973 0.5
330 27 0.726932 0.0772126 0.5
715 23 0.716424 0.108321 0.5
598 34 0.758631 0.0653104 0.5
934 25 0.744004 0.10075 0.5
836 29 0.781722 0.0871502 0.5
408 27 0.802346 0.111507 0.5
355 31 0.844733 0.065704 0.5
139 29 0.813864 0.0751817 0.5
241 33 0.833034 0.103571 0.5
173 30 0.865559 0.0913066 0.5
571 43 0.900423 0.0851286 0.5
940 27 0.890835 0.119926 0.5
986 28 0.926864 0.109123 0.5
660 27 0.997027 0.110069 0.5
737 34 0.943837 0.0777856 0.5
356 25 0.977966 0.086233 0.5
34 31 0.959809 0.113833 0.5
55 28 0.0185902 0.136818 0.5
964 33 0.0399178 0.159649 0.5
397 33 0.00386539 0.167833 0.5
676 31 0.0557804 0.129669 0.5
943 44 0.0881516 0.155018 0.5
182 33 0.121524 0.169929 0.5
615 28 0.119556 0.136244 0.5
797 31 0.0645848 0.180781 0.5
886 28 0.149754 0.148796 0.5
685 30 0.178939 0.164183 0.5
936 25 0.151113 0.18084 0.5
895 29 0.17874 0.129339 0.5
712 29 0.235304 0.128498 0.5
170 33 0.208531 0.146325 0.5
448 32 0.232971 0.167145 0.5
976 22 0.207976 0.183888 0.5
705 29 0.294675 0.130738 0.5
516 40 0.26573 0.152728 0.5
442 35 0.296741 0.169093 0.5
852 34 0.348687 0.127837 0.5
754 31 0.322081 0.147477 0.5
374 35 0.357154 0.162279 0.5
181 32 0.412115 0.123812 0.5
608 29 0.37915 0.139724 0.5
124 28 0.406952 0.153661 0.5
966 25 0.388277 0.175501 0.5
769 29 0.440081 0.137594 0.5
389 39 0.437854 0.170903 0.5
927 32 0.471351 0.156266 0.5
914 25 0.50343 0.143739 0.5
274 27 0.52558 0.120788 0.5
263 29 0.498595 0.173799 0.5
169 21 0.52484 0.161814 0.5
597 24 0.545357 0.141649 0.5
580 27 0.551489 0.173954 0.5
835 33 0.577068 0.149765 0.5
340 22 0.606774 0.161142 0.5
58 27 0.615064 0.13468 0.5
385 32 0.647853 0.127243 0.5
492 39 0.64355 0.163962 0.5
430 33 0.675364 0.148228 0.5
708 26 0.672294 0.182321 0.5
752 26 0.739267 0.131557 0.5
824 31 0.709233 0.141766 0.5
499 18 0.698221 0.169222 0.5
649 35 0.725917 0.174649 0.5
877 29 0.768785 0.118266 0.5
192 36 0.758247 0.156819 0.5
243 33 0.789954 0.141168 0.5
536 28 0.787371 0.176814 0.5
420 34 0.856567 0.125903 0.5
208 32 0.824154 0.135468 0.5
704 34 0.817819 0.16738 0.5
485 34 0.851654 0.161736 0.5
838 23 0.883835 0.149671 0.5
857 39 0.914769 0.146736 0.5
655 29 0.898982 0.179162 0.5
265 41 0.934328 0.179997 0.5
382 37 0.983657 0.1397 0.5
68 31 0.949452 0.14451 0.5
393 39 0.969389 0.173997 0.5
202 38 0.0285671 0.192373 0.5
6 14 0.0407339 0.219857 0.5
806 27 0.0146125 0.225203 0.5
644 30 0.0391567 0.251399 0.5
933 29 0.0675113 0.23862 0.5
766 28 0.0938047 0.189936 0.5
938 23 0.0655538 0.209222 0.5
377 27 0.0987862 0.221761 0.5
210 27 0.123641 0.202389 0.5
589 24 0.123014 0.234756 0.5
574 22 0.14886 0.217364 0.5
252 35 0.177225 0.198462 0.5
662 32 0.182874 0.230656 0.5
193 28 0.208105 0.213765 0.5
369 35 0.238547 0.200878 0.5
851 31 0.2413 0.234114 0.5
367 28 0.268666 0.185808 0.5
215 28 0.268536 0.218721 0.5
290 31 0.296878 0.202807 0.5
996 26 0.301011 0.237428 0.5
623 36 0.329706 0.186627 0.5
180 33 0.327409 0.219798 0.5
511 38 0.362647 0.200087 0.5
168 37 0.355675 0.236968 0.5
245 22 0.383256 0.224643 0.5
706 32 0.406383 0.198999 0.5
227 32 0.412536 0.232211 0.5
592 25 0.467517 0.192201 0.5
216 42 0.44085 0.213126 0.5
991 33 0.476205 0.226001 0.5
178 23 0.533679 0.194248 0.5
376 40 0.505284 0.207623 0.5
358 28 0.535177 0.224247 0.5
953 29 0.508903 0.242287 0.5
409 30 0.582649 0.182347 0.5
104 25 0.560752 0.203721 0.5
823 28 0.566065 0.234486 0.5
14 28 0.591951 0.213485 0.5
414 34 0.616956 0.190894 0.5
845 27 0.649282 0.202597 0.5
701 38 0.626963 0.226688 0.5
331 26 0.67523 0.212824 0.5
912 38 0.659008 0.242321 0.5
424 23 0.700112 0.19431 0.5
930 26 0.723955 0.209454 0.5
699 23 0.700132 0.225796 0.5
900 25 0.722564 0.241756 0.5
440 39 0.756746 0.193541 0.5
749 28 0.750376 0.225944 0.5
425 32 0.78308 0.213649 0.5
742 31 0.776363 0.249222 0.5
582 28 0.839577 0.190574 0.5
138 31 0.809882 0.198803 0.5
57 32 0.807465 0.234746 0.5
211 19 0.829939 0.218733 0.5
637 28 0.843786 0.245358 0.5
799 27 0.855819 0.218347 0.5
365 27 0.869297 0.189925 0.5
744 33 0.892239 0.212561 0.5
521 32 0.927564 0.217485 0.5
568 31 0.910797 0.248343 0.5
768 31 0.993642 0.200564 0.5
379 27 0.958652 0.205893 0.5
652 41 0.978895 0.234791 0.5
855 31 0.0310152 0.284394 0.5
375 30 0.000944564 0.294514 0.5
272 36 0.0071004 0.258748 0.5
310 33 0.09394 0.251953 0.5
920 29 0.0661375 0.270812 0.5
653 24 0.0579661 0.29761 0.5
729 23 0.096096 0.283496 0.5
270 31 0.121664 0.302217 0.5
700 26 0.154233 0.25006 0.5
661 30 0.122991 0.268191 0.5
762 33 0.151913 0.284468 0.5
751 24 0.179716 0.298868 0.5
346 29 0.180459 0.266912 0.5
849 35 0.213041 0.247639 0.5
939 37 0.209123 0.285069 0.5
548 36 0.244932 0.268093 0.5
770 41 0.241392 0.304732 0.5
487 30 0.27159 0.248109 0.5
66 32 0.273621 0.285984 0.5
260 28 0.299777 0.268892 0.5
259 20 0.302467 0.302117 0.5
736 26 0.327402 0.256739 0.5
564 26 0.325965 0.285403 0.5
429 27 0.356629 0.276194 0.5
167 27 0.369193 0.303683 0.5
239 35 0.383854 0.254863 0.5
756 28 0.394506 0.284291 0.5
753 32 0.421177 0.263909 0.5
293 35 0.42359 0.296834 0.5
403 25 0.449421 0.248261 0.5
427 31 0.452371 0.280832 0.5
144 34 0.481142 0.261792 0.5
834 31 0.482484 0.293003 0.5
671 25 0.537226 0.255604 0.5
325 32 0.511373 0.27602 0.5
464 30 0.539882 0.28893 0.5
961 30 0.511319 0.306428 0.5
457 37 0.598454 0.248234 0.5
950 32 0.567062 0.264326 0.5
795 35 0.605547 0.282949 0.5
607 37 0.573923 0.300019 0.5
121 32 0.665277 0.275098 0.5
944 29 0.63169 0.263659 0.5
871 28 0.63521 0.295523 0.5
508 28 0.665331 0.308502 0.5
445 35 0.694207 0.258154 0.5
788 33 0.694655 0.294304 0.5
761 29 0.726011 0.278409 0.5
832 41 0.727959 0.314868 0.5
91 25 0.74806 0.261209 0.5
530 29 0.78837 0.280325 0.5
44 33 0.758132 0.292723 0.5
332 27 0.817997 0.265269 0.5
305 29 0.787378 0.314115 0.5
452 33 0.816771 0.299591 0.5
745 35 0.847834 0.278867 0.5
874 37 0.874302 0.254473 0.5
416 34 0.879785 0.293844 0.5
165 22 0.906526 0.280167 0.5
901 37 0.91199 0.309843 0.5
317 37 0.94383 0.246718 0.5
859 39 0.939336 0.28638 0.5
677 39 0.975004 0.271028 0.5
106 20 0.0282632 0.316145 0.5
557 37 0.0272532 0.347284 0.5
27 33 0.0582671 0.328909 0.5
353 29 0.000394292 0.327646 0.5
829 25 -0.00323942 0.360367 0.5
456 31 0.0884048 0.312258 0.5
698 21 0.0576162 0.358386 0.5
244 29 0.0847792 0.350592 0.5
611 36 0.11545 0.336406 0.5
2 28 0.116698 0.369973 0.5
618 35 0.151171 0.318087 0.5
24 29 0.176291 0.338607 0.5
776 31 0.14399 0.35167 0.5
233 27 0.174101 0.368908 0.5
87 28 0.207727 0.31876 0.5
196 31 0.205132 0.353848 0.5
85 23 0.230927 0.338001 0.5
929 33 0.232558 0.369457 0.5
628 31 0.277772 0.316729 0.5
787 27 0.257219 0.348112 0.5
18 41 0.28933 0.357897 0.5
132 31 0.31118 0.327864 0.5
941 29 0.339442 0.314354 0.5
837 33 0.339212 0.348968 0.5
84 27 0.366687 0.333196 0.5
458 37 0.370604 0.371898 0.5
690 26 0.395711 0.31854 0.5
785 33 0.397895 0.35159 0.5
856 28 0.425543 0.332818 0.5
651 24 0.427639 0.365896 0.5
728 34 0.455253 0.312424 0.5
875 34 0.455244 0.347396 0.5
841 31 0.486265 0.327342 0.5
105 31 0.486177 0.36244 0.5
400 34 0.514397 0.343362 0.5
368 33 0.544261 0.32028 0.5
73 31 0.545154 0.3536 0.5
175 43 0.604993 0.321529 0.5
491 29 0.573557 0.334147 0.5
94 25 0.60043 0.35463 0.5
529 28 0.638823 0.327429 0.5
174 31 0.665151 0.345322 0.5
658 36 0.635411 0.360677 0.5
666 32 0.69524 0.328082 0.5
476 22 0.725339 0.345769 0.5
176 33 0.698812 0.360278 0.5
963 27 0.751865 0.357082 0.5
443 28 0.760473 0.32687 0.5
779 37 0.783616 0.35077 0.5
733 37 0.851615 0.314898 0.5
566 31 0.814947 0.333775 0.5
994 28 0.846027 0.347597 0.5
103 33 0.820064 0.367913 0.5
97 23 0.884085 0.328322 0.5
312 38 0.879246 0.359939 0.5
100 33 0.91251 0.343255 0.5
983 32 0.940844 0.326419 0.5
12 35 0.970852 0.308499 0.5
307 32 0.941757 0.361168 0.5
418 34 0.971741 0.342916 0.5
9 28 0.0261647 0.379742 0.5
822 35 0.0589575 0.395345 0.5
141 32 0.0294504 0.410929 0.5
177 24 0.00078767 0.426359 0.5
364 32 -0.00258093 0.397027 0.5
381 32 0.05929 0.431316 0.5
803 31 0.0868365 0.381535 0.5
130 28 0.11686 0.403423 0.5
807 23 0.0912699 0.417643 0.5
41 31 0.118413 0.436875 0.5
345 32 0.147517 0.385387 0.5
881 27 0.178565 0.400661 0.5
313 33 0.148435 0.419912 0.5
542 32 0.177521 0.436655 0.5
614 29 0.205253 0.385925 0.5
672 31 0.235801 0.402188 0.5
781 29 0.20422 0.417297 0.5
28 27 0.236549 0.434213 0.5
80 29 0.263725 0.382738 0.5
199 36 0.266238 0.416964 0.5
621 27 0.294957 0.393881 0.5
897 31 0.295287 0.430699 0.5
171 34 0.324468 0.380677 0.5
720 28 0.321935 0.412997 0.5
967 24 0.350329 0.397991 0.5
636 22 0.34918 0.427009 0.5
935 25 0.375438 0.405201 0.5
201 34 0.402519 0.385193 0.5
794 31 0.405971 0.41653 0.5
532 28 0.431508 0.395476 0.5
273 28 0.437665 0.427813 0.5
888 28 0.461368 0.380525 0.5
228 27 0.465204 0.414002 0.5
965 29 0.490664 0.394061 0.5
668 23 0.495741 0.429685 0.5
333 30 0.519447 0.378253 0.5
664 32 0.519474 0.410349 0.5
72 25 0.548987 0.391432 0.5
693 29 0.54958 0.422958 0.5
133 32 0.571836 0.371315 0.5
977 35 0.578861 0.404287 0.5
36 37 0.610744 0.386513 0.5
988 19 0.614295 0.416074 0.5
421 34 0.666503 0.380283 0.5
497 32 0.643039 0.401826 0.5
372 27 0.672726 0.413578 0.5
887 33 0.729349 0.379556 0.5
734 32 0.699881 0.393582 0.5
21 31 0.74274 0.411869 0.5
90 39 0.71055 0.427108 0.5
581 23 0.75986 0.38556 0.5
540 35 0.790494 0.385605 0.5
360 17 0.770475 0.406404 0.5
821 26 0.794545 0.418209 0.5
277 26 0.770229 0.433347 0.5
136 37 0.852755 0.38269 0.5
225 34 0.821344 0.402644 0.5
383 35 0.856417 0.415448 0.5
217 32 0.820838 0.43471 0.5
329 34 0.913462 0.377221 0.5
603 29 0.885799 0.39626 0.5
363 25 0.915943 0.41201 0.5
679 42 0.888882 0.432489 0.5
264 31 0.938476 0.432524 0.5
544 28 0.972278 0.376096 0.5
553 32 0.942465 0.395046 0.5
278 33 0.971089 0.419228 0.5
283 36 0.030049 0.445322 0.5
533 35 0.0587494 0.467336 0.5
39 26 0.0269204 0.478473 0.5
545 38 -0.000374984 0.462509 0.5
438 27 0.000671736 0.495162 0.5
606 34 0.0864898 0.450913 0.5
188 31 0.112973 0.468203 0.5
212 25 0.0878 0.485667 0.5
723 29 0.143156 0.456017 0.5
713 37 0.175514 0.470139 0.5
480 26 0.144172 0.486103 0.5
923 33 0.208017 0.450839 0.5
641 29 0.240605 0.468058 0.5
962 46 0.20622 0.488981 0.5
792 31 0.241449 0.49869 0.5
405 29 0.264316 0.449786 0.5
428 28 0.272006 0.482771 0.5
783 26 0.293661 0.460711 0.5
848 28 0.299606 0.49917 0.5
54 29 0.322675 0.444533 0.5
162 32 0.324052 0.477346 0.5
96 30 0.350977 0.457308 0.5
594 33 0.356959 0.489009 0.5
140 30 0.377159 0.435407 0.5
709 30 0.408095 0.447506 0.5
826 30 0.383898 0.468874 0.5
541 33 0.415292 0.478367 0.5
885 25 0.469449 0.444695 0.5
65 31 0.440762 0.458793 0.5
556 29 0.47085 0.478327 0.5
995 25 0.494912 0.460404 0.5
154 28 0.444055 0.493057 0.5
815 30 0.522091 0.44363 0.5
303 28 0.524999 0.476204 0.5
645 33 0.555069 0.457364 0.5
384 42 0.553275 0.49476 0.5
434 24 0.58046 0.436695 0.5
587 36 0.585372 0.472471 0.5
665 41 0.611138 0.447409 0.5
740 34 0.61811 0.484956 0.5
730 32 0.643843 0.434173 0.5
348 27 0.647108 0.468932 0.5
500 41 0.676261 0.448849 0.5
4 33 0.67949 0.485846 0.5
309 34 0.741911 0.447133 0.5
952 34 0.709832 0.465886 0.5
593 25 0.737442 0.482571 0.5
402 37 0.769438 0.468722 0.5
674 28 0.794046 0.450606 0.5
112 25 0.795494 0.485474 0.5
431 31 0.821145 0.468066 0.5
879 33 0.852844 0.454639 0.5
805 27 0.856961 0.483628 0.5
17 27 0.885646 0.467915 0.5
478 29 0.913834 0.455384 0.5
289 22 0.911782 0.484559 0.5
892 23 0.942129 0.464275 0.5
980 28 0.968304 0.450798 0.5
578 29 0.970279 0.481446 0.5
35 37 0.941949 0.498397 0.5
585 32 0.0621482 0.502551 0.5
294 29 0.0313215 0.508077 0.5
960 40 0.0530725 0.538013 0.5
973 22 0.0210877 0.54425 0.5
512 31 0.112413 0.502283 0.5
343 33 0.0875445 0.523033 0.5
959 27 0.114763 0.544726 0.5
135 29 0.0853489 0.557421 0.5
336 35 0.172932 0.505047 0.5
575 32 0.140501 0.522285 0.5
971 20 0.170681 0.535212 0.5
288 35 0.143079 0.559023 0.5
750 32 0.197283 0.526476 0.5
326 43 0.2386 0.5341 0.5
686 30 0.207998 0.554542 0.5
802 35 0.271447 0.514499 0.5
120 30 0.30062 0.532554 0.5
555 30 0.271524 0.551544 0.5
812 27 0.30628 0.560608 0.5
534 33 0.327942 0.509398 0.5
563 36 0.359834 0.525101 0.5
407 26 0.329295 0.540112 0.5
786 38 0.390126 0.503221 0.5
275 32 0.39498 0.537533 0.5
620 28 0.421008 0.519973 0.5
40 39 0.427185 0.559003 0.5
412 29 0.498274 0.498437 0.5
77 20 0.467778 0.505829 0.5
361 33 0.451945 0.531287 0.5
349 40 0.488729 0.53328 0.5
300 36 0.523598 0.517677 0.5
406 30 0.55506 0.53012 0.5
814 31 0.526959 0.550495 0.5
324 38 0.590067 0.508878 0.5
128 31 0.618491 0.522966 0.5
232 27 0.594409 0.544733 0.5
692 28 0.621707 0.558017 0.5
949 34 0.64824 0.503361 0.5
357 36 0.649035 0.53806 0.5
549 30 0.682148 0.552503 0.5
619 32 0.67775 0.518528 0.5
206 32 0.710288 0.501287 0.5
531 26 0.70833 0.535517 0.5
296 30 0.736333 0.524205 0.5
864 25 0.738321 0.554668 0.5
626 35 0.763149 0.50477 0.5
771 25 0.767586 0.536447 0.5
251 32 0.794617 0.517657 0.5
311 28 0.799778 0.55215 0.5
727 36 0.825442 0.50022 0.5
426 23 0.854903 0.513879 0.5
281 25 0.824748 0.53326 0.5
866 29 0.855546 0.543373 0.5
157 32 0.885405 0.501394 0.5
910 30 0.886791 0.534979 0.5
101 27 0.912904 0.515328 0.5
70 28 0.917571 0.547512 0.5
341 25 1.00042 0.562899 0.5
47 31 0.947816 0.534778 0.5
519 24 1.0036 0.523306 0.5
166 30 0.973139 0.514553 0.5
156 25 0.978497 0.543779 0.5
471 24 0.945924 0.563228 0.5
974 26 0.0273542 0.571036 0.5
191 37 0.0335796 0.603951 0.5
590 25 0.00324144 0.59109 0.5
359 34 0.00543581 0.623727 0.5
716 30 0.0667701 0.615492 0.5
862 25 0.0581407 0.572498 0.5
95 32 0.0862598 0.590648 0.5
632 30 0.114951 0.579101 0.5
338 29 0.119649 0.61532 0.5
447 37 0.177493 0.569889 0.5
764 37 0.146993 0.596488 0.5
503 37 0.180551 0.611833 0.5
600 35 0.243048 0.574266 0.5
26 39 0.211131 0.592751 0.5
111 28 0.240425 0.60989 0.5
586 42 0.280449 0.585797 0.5
8 25 0.309938 0.602396 0.5
906 38 0.271525 0.623084 0.5
524 33 0.36218 0.55787 0.5
902 30 0.331483 0.57959 0.5
917 39 0.359702 0.59747 0.5
951 29 0.334111 0.622833 0.5
631 30 0.389923 0.575111 0.5
450 24 0.416273 0.590106 0.5
410 40 0.392512 0.612087 0.5
928 33 0.466295 0.56106 0.5
475 26 0.443784 0.586494 0.5
576 33 0.44002 0.616184 0.5
765 24 0.471318 0.59383 0.5
92 27 0.498103 0.569346 0.5
883 36 0.501552 0.603759 0.5
767 40 0.560701 0.562917 0.5
51 31 0.529945 0.581482 0.5
595 35 0.536544 0.61646 0.5
226 31 0.56539 0.595523 0.5
504 39 0.596254 0.578108 0.5
470 29 0.597471 0.61373 0.5
20 35 0.626697 0.595083 0.5
958 23 0.649646 0.572261 0.5
79 38 0.680187 0.587496 0.5
394 29 0.65444 0.611091 0.5
125 30 0.709169 0.567814 0.5
1000 35 0.736476 0.587125 0.5
23 28 0.709921 0.605565 0.5
560 29 0.738148 0.622909 0.5
404 31 0.76673 0.569288 0.5
110 30 0.766691 0.60323 0.5
893 30 0.798319 0.584097 0.5
42 40 0.801176 0.61695 0.5
334 33 0.829501 0.56382 0.5
904 34 0.832826 0.597109 0.5
318 35 0.862058 0.574589 0.5
584 25 0.861296 0.608558 0.5
267 27 0.892505 0.564984 0.5
322 23 0.890075 0.59448 0.5
688 26 0.922016 0.578271 0.5
981 30 0.919141 0.608084 0.5
119 29 0.974494 0.57541 0.5
853 19 0.950737 0.591954 0.5
818 25 0.975867 0.609332 0.5
269 32 0.94794 0.621272 0.5
601 31 0.0369143 0.639047 0.5
282 27 0.0387305 0.669088 0.5
999 36 0.00430066 0.659422 0.5
137 33 0.0936611 0.631398 0.5
916 25 0.0678422 0.648202 0.5
772 32 0.0695589 0.679259 0.5
777 27 0.098846 0.665149 0.5
911 29 0.153826 0.631739 0.5
187 33 0.124859 0.646856 0.5
869 32 0.128572 0.678902 0.5
918 39 0.158662 0.667123 0.5
344 21 0.217236 0.630935 0.5
179 31 0.189691 0.649116 0.5
946 30 0.188866 0.686579 0.5
748 35 0.245199 0.646082 0.5
22 34 0.219186 0.668837 0.5
231 32 0.250051 0.67888 0.5
109 42 0.303828 0.640203 0.5
579 28 0.27802 0.662891 0.5
784 28 0.307671 0.676353 0.5
882 36 0.366247 0.634321 0.5
687 33 0.337245 0.654572 0.5
441 30 0.364953 0.672148 0.5
985 25 0.420374 0.638362 0.5
833 33 0.394763 0.654413 0.5
925 23 0.423591 0.665953 0.5
126 32 0.473428 0.622285 0.5
796 26 0.451401 0.678555 0.5
616 30 0.449985 0.648163 0.5
948 36 0.482116 0.661356 0.5
423 34 0.506656 0.638252 0.5
45 28 0.513568 0.670086 0.5
388 26 0.537464 0.647633 0.5
446 28 0.57135 0.663979 0.5
266 35 0.570058 0.630878 0.5
526 30 0.598249 0.649441 0.5
25 33 0.599204 0.682842 0.5
62 28 0.627404 0.631963 0.5
371 29 0.627857 0.663562 0.5
347 44 0.661368 0.646124 0.5
108 33 0.658298 0.682743 0.5
850 23 0.683499 0.621654 0.5
732 28 0.688923 0.666775 0.5
323 30 0.709524 0.637479 0.5
83 31 0.735853 0.656226 0.5
870 30 0.716118 0.683433 0.5
691 38 0.76805 0.639143 0.5
46 34 0.800266 0.655409 0.5
573 30 0.773228 0.672008 0.5
118 26 0.799922 0.690106 0.5
760 26 0.833798 0.62975 0.5
997 34 0.861316 0.642591 0.5
711 34 0.83419 0.66324 0.5
625 32 0.863535 0.67993 0.5
123 18 0.88629 0.622731 0.5
43 35 0.892355 0.656528 0.5
295 33 0.919682 0.639507 0.5
285 30 0.919442 0.677284 0.5
633 30 0.976657 0.641397 0.5
861 35 0.947222 0.658904 0.5
695 21 0.97566 0.671641 0.5
392 30 0.0104808 0.694733 0.5
968 38 0.0136611 0.729842 0.5
522 36 0.0416072 0.702703 0.5
913 29 0.0453404 0.742506 0.5
495 33 0.0999134 0.697125 0.5
190 40 0.0715986 0.719073 0.5
643 28 0.102575 0.73083 0.5
696 27 0.162917 0.702307 0.5
725 38 0.131294 0.713781 0.5
465 27 0.162074 0.734852 0.5
398 38 0.130516 0.750439 0.5
422 30 0.221706 0.699856 0.5
972 29 0.189833 0.718679 0.5
205 27 0.195462 0.747784 0.5
854 28 0.219201 0.728583 0.5
60 27 0.279395 0.691809 0.5
970 22 0.25272 0.709641 0.5
151 37 0.250664 0.742002 0.5
789 28 0.308931 0.70881 0.5
19 28 0.278396 0.722871 0.5
942 25 0.339102 0.689427 0.5
791 27 0.31008 0.74161 0.5
506 37 0.341002 0.722239 0.5
234 34 0.372165 0.703108 0.5
82 33 0.37146 0.73892 0.5
306 27 0.396414 0.684338 0.5
680 29 0.427237 0.701066 0.5
352 27 0.400499 0.717102 0.5
116 23 0.428739 0.730503 0.5
702 28 0.484499 0.695777 0.5
956 33 0.455686 0.712203 0.5
543 33 0.485234 0.728474 0.5
11 37 0.543693 0.685273 0.5
117 31 0.514334 0.704023 0.5
186 31 0.516579 0.743361 0.5
572 34 0.543052 0.721098 0.5
486 37 0.573081 0.705974 0.5
604 22 0.574836 0.735893 0.5
370 37 0.604923 0.717686 0.5
479 21 0.626886 0.692907 0.5
209 26 0.661683 0.716614 0.5
99 25 0.632859 0.733911 0.5
507 29 0.664476 0.752974 0.5
411 31 0.687518 0.700861 0.5
820 29 0.688455 0.731228 0.5
454 32 0.71865 0.714546 0.5
437 32 0.717515 0.747196 0.5
184 27 0.7461 0.689097 0.5
327 31 0.749001 0.722528 0.5
755 25 0.7766 0.706754 0.5
899 23 0.807638 0.716445 0.5
195 37 0.779529 0.738612 0.5
774 33 0.832844 0.696249 0.5
602 25 0.862802 0.712891 0.5
908 21 0.837164 0.72744 0.5
163 26 0.869057 0.740902 0.5
319 29 0.890694 0.695859 0.5
254 33 0.918797 0.709426 0.5
678 30 0.896557 0.729399 0.5
675 27 0.925017 0.744784 0.5
612 27 0.947122 0.691953 0.5
64 31 0.979911 0.70521 0.5
276 35 0.951029 0.723835 0.5
271 30 0.980511 0.738531 0.5
842 28 0.0173354 0.762272 0.5
237 35 0.0475667 0.779432 0.5
922 36 0.0159101 0.795304 0.5
142 31 0.0451012 0.811446 0.5
93 42 0.077882 0.756018 0.5
134 34 0.0770509 0.793787 0.5
830 29 0.104916 0.778631 0.5
647 30 0.136381 0.788038 0.5
827 40 0.166194 0.767839 0.5
489 21 0.165179 0.799493 0.5
223 19 0.139136 0.814698 0.5
793 29 0.22408 0.765144 0.5
868 38 0.199437 0.788069 0.5
790 32 0.228554 0.805634 0.5
7 35 0.280946 0.759257 0.5
74 35 0.252746 0.782889 0.5
145 25 0.259173 0.814367 0.5
320 33 0.283522 0.795539 0.5
801 26 0.312427 0.81307 0.5
129 37 0.337835 0.760788 0.5
721 27 0.311954 0.782852 0.5
550 25 0.340752 0.793591 0.5
399 34 0.371718 0.773414 0.5
872 39 0.40315 0.752015 0.5
617 33 0.370036 0.809338 0.5
640 37 0.40224 0.790661 0.5
417 25 0.430737 0.770323 0.5
449 26 0.434349 0.799443 0.5
287 35 0.455992 0.747221 0.5
29 29 0.459949 0.780812 0.5
804 29 0.485998 0.761858 0.5
286 31 0.491621 0.794757 0.5
152 34 0.517389 0.776897 0.5
127 23 0.545364 0.793921 0.5
235 35 0.54633 0.758668 0.5
535 25 0.604921 0.748671 0.5
32 22 0.572107 0.770639 0.5
739 42 0.601431 0.783319 0.5
198 35 0.633519 0.767717 0.5
304 28 0.631951 0.803584 0.5
800 23 0.664097 0.784113 0.5
297 30 0.692284 0.762891 0.5
667 27 0.692179 0.794725 0.5
292 28 0.720867 0.77943 0.5
185 36 0.748919 0.757696 0.5
638 47 0.753966 0.796865 0.5
49 27 0.7853 0.76906 0.5
840 26 0.789395 0.797714 0.5
246 33 0.8123 0.746688 0.5
496 30 0.813884 0.77985 0.5
432 29 0.840668 0.75977 0.5
474 28 0.868216 0.773223 0.5
337 29 0.843897 0.794891 0.5
76 26 0.896929 0.760087 0.5
599 33 0.925162 0.775885 0.5
88 41 0.895004 0.79482 0.5
876 31 0.954117 0.756505 0.5
683 34 0.986552 0.772411 0.5
867 37 0.95794 0.790418 0.5
654 25 0.987721 0.808404 0.5
514 25 0.0125146 0.825704 0.5
354 34 0.0433786 0.844007 0.5
588 26 0.0135183 0.854595 0.5
98 35 0.110989 0.813039 0.5
308 26 0.0721541 0.860432 0.5
200 34 0.0729406 0.82609 0.5
501 34 0.100341 0.845787 0.5
757 39 0.134301 0.844378 0.5
724 40 0.172465 0.830876 0.5
224 30 0.163969 0.865099 0.5
515 29 0.122962 0.876777 0.5
435 23 0.202052 0.820566 0.5
149 27 0.197186 0.858715 0.5
726 29 0.227395 0.839112 0.5
146 25 0.225677 0.87101 0.5
714 29 0.258132 0.846666 0.5
342 39 0.257095 0.882439 0.5
684 25 0.283204 0.830423 0.5
207 31 0.287216 0.864919 0.5
240 29 0.312784 0.844734 0.5
204 34 0.340902 0.825366 0.5
131 27 0.346746 0.859958 0.5
194 31 0.373254 0.874617 0.5
552 30 0.37197 0.841426 0.5
86 30 0.400295 0.822426 0.5
460 34 0.402713 0.856894 0.5
722 33 0.430841 0.831033 0.5
567 29 0.436638 0.863964 0.5
386 36 0.462719 0.816347 0.5
909 27 0.464036 0.849415 0.5
903 31 0.493313 0.828763 0.5
391 25 0.491656 0.863347 0.5
13 31 0.521116 0.809658 0.5
627 33 0.520728 0.845627 0.5
53 35 0.550506 0.82577 0.5
954 24 0.549418 0.860407 0.5
48 25 0.574619 0.8045 0.5
220 30 0.604403 0.818997 0.5
825 36 0.581278 0.841044 0.5
844 33 0.611027 0.855402 0.5
547 33 0.664109 0.812868 0.5
735 27 0.629643 0.832819 0.5
15 33 0.660494 0.846451 0.5
932 27 0.719261 0.813151 0.5
890 33 0.693387 0.828247 0.5
69 35 0.690555 0.86293 0.5
782 28 0.721669 0.842557 0.5
758 22 0.748097 0.831046 0.5
30 32 0.756092 0.857825 0.5
373 35 0.784697 0.830406 0.5
321 31 0.787105 0.867662 0.5
527 28 0.815474 0.811993 0.5
915 27 0.868416 0.816484 0.5
335 34 0.816746 0.84607 0.5
681 24 0.841259 0.826748 0.5
50 32 0.8453 0.861579 0.5
746 24 0.869079 0.845298 0.5
839 27 0.925538 0.811211 0.5
945 35 0.899382 0.831599 0.5
546 32 0.931482 0.843087 0.5
463 26 0.906695 0.863188 0.5
878 32 0.986224 0.840168 0.5
605 24 0.961295 0.825679 0.5
975 27 0.959607 0.856 0.5
778 24 0.984496 0.87021 0.5
630 32 0.0430815 0.878135 0.5
697 36 0.0102826 0.892785 0.5
38 29 0.0372616 0.912003 0.5
759 36 0.0113501 0.929536 0.5
780 29 0.08713 0.88674 0.5
656 21 0.0637407 0.903117 0.5
969 29 0.0903621 0.91625 0.5
889 28 0.118615 0.909 0.5
258 38 0.06357 0.93478 0.5
472 27 0.116183 0.938928 0.5
477 31 0.15581 0.895228 0.5
747 24 0.141298 0.923941 0.5
992 37 0.173367 0.924882 0.5
236 41 0.195308 0.892608 0.5
160 29 0.231772 0.903925 0.5
350 16 0.207374 0.921309 0.5
613 27 0.232545 0.934855 0.5
510 35 0.260412 0.920287 0.5
351 31 0.287428 0.89748 0.5
673 27 0.290102 0.929127 0.5
459 36 0.316946 0.878498 0.5
907 27 0.31973 0.912627 0.5
433 25 0.344149 0.893307 0.5
401 25 0.351116 0.924563 0.5
505 33 0.375896 0.90599 0.5
811 26 0.403287 0.887654 0.5
387 29 0.43307 0.897539 0.5
419 33 0.4096 0.918732 0.5
316 38 0.441456 0.933329 0.5
989 34 0.464791 0.884604 0.5
189 13 0.456706 0.910032 0.5
10 29 0.483228 0.91221 0.5
634 18 0.497528 0.890163 0.5
247 24 0.523798 0.877483 0.5
451 33 0.520664 0.912903 0.5
979 35 0.549944 0.89507 0.5
291 27 0.557601 0.92851 0.5
61 32 0.581347 0.875139 0.5
284 35 0.582601 0.9084 0.5
860 30 0.611675 0.889276 0.5
255 29 0.613663 0.920621 0.5
639 22 0.641039 0.873154 0.5
937 32 0.665425 0.889196 0.5
657 25 0.637851 0.902926 0.5
366 29 0.674907 0.92005 0.5
5 34 0.724348 0.873437 0.5
150 38 0.698438 0.896362 0.5
537 27 0.728584 0.912669 0.5
395 28 0.70598 0.93184 0.5
482 29 0.758796 0.89192 0.5
3 33 0.759505 0.922823 0.5
362 32 0.788207 0.903511 0.5
817 36 0.816846 0.880994 0.5
816 32 0.821498 0.919496 0.5
314 31 0.848581 0.896661 0.5
570 34 0.878069 0.876227 0.5
484 34 0.882466 0.908499 0.5
302 26 0.907792 0.891003 0.5
919 24 0.917297 0.927097 0.5
502 25 0.934601 0.874986 0.5
221 23 0.936371 0.903021 0.5
56 27 0.984757 0.911954 0.5
843 34 0.962424 0.889321 0.5
635 23 0.958473 0.920356 0.5
828 29 0.0300693 0.983623 0.5
248 25 0.0349059 0.95238 0.5
583 24 0.00727684 0.962366 0.5
147 30 -0.0021949 0.99158 0.5
396 31 0.0613245 0.970653 0.5
466 43 0.0911175 0.995664 0.5
931 30 0.0916365 0.958877 0.5
328 23 0.126124 0.997586 0.5
219 28 0.120649 0.969771 0.5
436 31 0.14831 0.952417 0.5
987 35 0.157306 0.984894 0.5
299 25 0.17817 0.961866 0.5
624 24 0.232213 1.00085 0.5
710 37 0.205528 0.983382 0.5
539 31 0.205325 0.948507 0.5
238 25 0.230934 0.963061 0.5
718 20 0.261186 0.952863 0.5
518 30 0.256093 0.981859 0.5
261 38 0.290241 0.996411 0.5
846 34 0.293098 0.961655 0.5
213 32 0.322659 0.944896 0.5
891 33 0.323442 0.979998 0.5
439 28 0.354181 0.994161 0.5
873 32 0.354545 0.95931 0.5
1 26 0.382312 0.939308 0.5
462 29 0.382351 0.973061 0.5
490 32 0.411413 0.99021 0.5
610 30 0.409549 0.952389 0.5
218 23 0.498096 0.937764 0.5
380 38 0.440566 0.969404 0.5
222 33 0.47477 0.986318 0.5
554 29 0.472032 0.951946 0.5
717 30 0.501641 0.968386 0.5
884 36 0.52908 0.950656 0.5
315 28 0.528865 0.983098 0.5
256 33 0.559451 0.962382 0.5
731 35 0.587488 0.941183 0.5
982 32 0.588718 0.975951 0.5
31 23 0.619629 0.951042 0.5
993 30 0.645423 0.933138 0.5
523 22 0.669426 0.949414 0.5
339 36 0.624288 0.983402 0.5
122 30 0.657556 0.978153 0.5
494 23 0.734426 0.943937 0.5
453 25 0.688505 0.970665 0.5
978 23 0.709914 0.987309 0.5
230 31 0.741088 0.978205 0.5
773 21 0.713215 0.961997 0.5
159 34 0.790599 0.937758 0.5
481 30 0.762603 0.956529 0.5
59 23 0.790307 0.969484 0.5
268 44 0.854615 0.934064 0.5
415 24 0.812036 0.983322 0.5
520 31 0.821393 0.953363 0.5
561 32 0.846486 0.973028 0.5
183 28 0.89855 0.995524 0.5
75 21 0.888397 0.938736 0.5
558 31 0.878989 0.967312 0.5
52 37 0.910133 0.959834 0.5
858 33 0.933205 0.983597 0.5
669 40 0.942836 0.949474 0.5
158 35 0.97913 0.94711 0.5
719 23 0.969659 0.976984 0.5
