ITEM: TIMESTEP
2600000
ITEM: NUMBER OF ATOMS
1000
ITEM: BOX BOUNDS pp pp pp
-1.7509098000000002e+01 1.7509098000000002e+01
-1.7509098000000002e+01 1.7509098000000002e+01
-5.0000000000000000e-01 5.0000000000000000e-01
ITEM: ATOMS id type xs ys zs
486 33 0.0236413 0.00601302 0.5
220 30 0.00494831 0.986784 0.5
137 32 0.00791753 0.952318 0.5
823 30 0.0524579 0.0377618 0.5
843 32 0.0682216 0.982354 0.5
689 30 0.142175 0.99413 0.5
245 27 0.0992889 0.99021 0.5
976 27 0.107074 0.0350828 0.5
974 29 0.1687 0.992465 0.5
307 31 0.181934 0.0166147 0.5
328 27 0.157027 0.0197837 0.5
629 28 0.171499 0.94607 0.5
757 34 0.201427 0.940524 0.5
430 32 0.151919 0.96742 0.5
491 30 0.252877 0.0824924 0.5
510 32 0.192791 0.0606652 0.5
201 32 0.389127 0.0537844 0.5
321 31 0.211095 0.0186305 0.5
605 28 0.212907 0.991716 0.5
32 27 0.327184 0.00246352 0.5
305 30 0.360507 0.112568 0.5
349 35 0.358938 0.993382 0.5
792 31 0.413375 1.0037 0.5
744 32 0.357685 0.0861362 0.5
98 32 0.385884 0.148893 0.5
730 31 0.510098 0.0469051 0.5
393 34 0.38583 0.0918687 0.5
987 32 0.532769 0.0778317 0.5
252 32 0.462298 0.0496489 0.5
697 33 0.379649 0.014588 0.5
341 28 0.613962 0.0519872 0.5
989 32 0.634435 0.109168 0.5
496 30 0.458726 0.0221279 0.5
342 34 0.599232 0.0195042 0.5
456 31 0.661136 0.00607775 0.5
117 31 0.592811 0.116045 0.5
489 27 0.679657 0.0475392 0.5
424 27 0.58517 0.991238 0.5
9 29 0.650537 0.133274 0.5
449 29 0.637261 0.0132114 0.5
55 29 0.632321 0.963213 0.5
379 29 0.702025 0.0948037 0.5
391 28 0.688884 0.0741442 0.5
520 31 0.756086 0.0109465 0.5
909 29 0.769264 0.986179 0.5
547 32 0.848946 0.989845 0.5
199 33 0.837382 0.0173537 0.5
729 27 0.946664 0.97716 0.5
224 30 0.842474 0.057741 0.5
732 30 0.925123 0.0295237 0.5
944 30 0.982529 0.00966055 0.5
153 33 0.896434 0.0371513 0.5
871 30 0.952868 0.00890266 0.5
923 32 0.00277302 0.0270158 0.5
704 32 0.0166221 0.0849412 0.5
401 28 0.0585173 0.0048452 0.5
893 30 0.0503957 0.0706285 0.5
939 33 0.0678998 0.09759 0.5
507 30 0.085959 0.0123106 0.5
241 32 0.0902133 0.0568799 0.5
647 30 0.102141 0.088586 0.5
11 33 0.137781 0.0911801 0.5
453 28 0.15934 0.0476174 0.5
65 31 0.118693 0.00902595 0.5
354 32 0.135743 0.0363715 0.5
203 34 0.223216 0.0858403 0.5
591 29 0.169506 0.0722936 0.5
897 31 0.23093 0.0585577 0.5
728 32 0.184014 0.138587 0.5
582 30 0.265933 0.0476264 0.5
796 29 0.247011 0.0131825 0.5
696 29 0.332196 0.043438 0.5
181 31 0.436701 0.120888 0.5
316 34 0.417032 0.153678 0.5
204 32 0.455163 0.0773635 0.5
13 31 0.292139 0.0493419 0.5
188 31 0.482481 0.0991134 0.5
22 32 0.491171 0.0719316 0.5
135 30 0.433657 0.0534711 0.5
581 27 0.561853 0.0714791 0.5
484 32 0.589495 0.0653884 0.5
937 31 0.554116 0.104244 0.5
492 34 0.600025 0.145094 0.5
80 30 0.697804 0.170358 0.5
604 27 0.581203 0.0909957 0.5
784 29 0.689461 0.144032 0.5
149 29 0.652028 0.0777106 0.5
670 32 0.72224 0.0276887 0.5
579 29 0.673813 0.118131 0.5
325 31 0.789444 0.0850951 0.5
231 31 0.805024 0.00370041 0.5
532 30 0.693643 0.0249882 0.5
849 32 0.8074 0.0505771 0.5
457 33 0.823028 0.0797553 0.5
705 30 0.783109 0.116387 0.5
298 34 0.903209 0.0640108 0.5
371 30 0.874961 0.0768056 0.5
901 33 0.93779 0.0557316 0.5
129 33 0.965839 0.0748564 0.5
515 30 0.973647 0.108907 0.5
499 26 0.898889 0.108815 0.5
367 29 0.975053 0.135772 0.5
518 30 0.998293 0.148265 0.5
569 31 0.040112 0.109132 0.5
109 35 0.0258486 0.0523799 0.5
284 32 0.118749 0.0635512 0.5
303 30 0.0212934 0.132412 0.5
551 30 0.0442564 0.158366 0.5
554 30 0.121614 0.115499 0.5
108 32 0.0559306 0.129172 0.5
677 34 0.125367 0.145165 0.5
956 32 0.175276 0.0985516 0.5
850 28 0.0955633 0.153259 0.5
530 30 0.150419 0.116086 0.5
59 28 0.0938268 0.11546 0.5
498 30 0.258704 0.13918 0.5
411 31 0.209719 0.158247 0.5
369 32 0.234342 0.140644 0.5
934 28 0.210841 0.125711 0.5
365 29 0.330772 0.171064 0.5
772 31 0.277504 0.101287 0.5
655 30 0.322636 0.0681062 0.5
565 29 0.318844 0.137512 0.5
879 32 0.242617 0.114994 0.5
859 34 0.331564 0.104108 0.5
254 31 0.404255 0.12385 0.5
313 32 0.476211 0.235866 0.5
455 31 0.448999 0.179594 0.5
546 31 0.465036 0.126307 0.5
571 36 0.487826 0.179489 0.5
315 30 0.448407 0.153396 0.5
990 34 0.518987 0.168959 0.5
874 33 0.538981 0.0484068 0.5
621 29 0.562538 0.130302 0.5
281 28 0.585714 0.174606 0.5
435 28 0.518766 0.132761 0.5
34 31 0.509939 0.0968591 0.5
120 30 0.666715 0.171645 0.5
686 30 0.64083 0.0538995 0.5
35 33 0.720927 0.232142 0.5
79 33 0.642834 0.188215 0.5
223 26 0.630926 0.149076 0.5
488 29 0.727354 0.200814 0.5
534 32 0.710035 0.0540914 0.5
958 27 0.623822 0.0768822 0.5
493 28 0.754928 0.0691581 0.5
23 29 0.727657 0.0909469 0.5
29 30 0.849639 0.131859 0.5
90 34 0.74844 0.0407157 0.5
653 28 0.851972 0.095557 0.5
250 30 0.813416 0.132802 0.5
283 33 0.789321 0.0293449 0.5
894 29 0.869107 0.159352 0.5
632 30 0.918569 0.140415 0.5
679 35 0.937062 0.0879201 0.5
222 31 0.876613 0.186159 0.5
799 29 0.943354 0.138554 0.5
766 30 0.987034 0.176397 0.5
140 30 0.0184107 0.173792 0.5
995 28 0.917655 0.166512 0.5
834 31 0.960728 0.15763 0.5
742 31 0.948894 0.220724 0.5
949 32 0.997841 0.209274 0.5
400 32 0.115299 0.176788 0.5
425 31 0.062806 0.181173 0.5
259 26 0.125354 0.237182 0.5
172 26 0.116404 0.203637 0.5
471 28 0.140574 0.266192 0.5
887 31 0.29071 0.214759 0.5
620 29 0.140862 0.178637 0.5
610 30 0.223749 0.197581 0.5
880 34 0.245514 0.170221 0.5
311 29 0.260452 0.268945 0.5
31 27 0.305457 0.0258255 0.5
360 25 0.279191 0.173174 0.5
918 34 0.25932 0.202004 0.5
794 31 0.368255 0.229455 0.5
694 31 0.301001 0.0875234 0.5
87 30 0.34714 0.133096 0.5
644 30 0.358859 0.161963 0.5
205 29 0.394232 0.178243 0.5
191 33 0.391768 0.2455 0.5
721 29 0.416924 0.266223 0.5
504 34 0.450721 0.21436 0.5
57 31 0.443504 0.249406 0.5
450 28 0.459786 0.284069 0.5
291 29 0.500188 0.210455 0.5
410 34 0.488105 0.14175 0.5
197 30 0.525897 0.199553 0.5
665 35 0.62019 0.17801 0.5
771 28 0.541046 0.151164 0.5
589 28 0.685677 0.197485 0.5
126 31 0.57251 0.20661 0.5
18 35 0.754675 0.204854 0.5
225 32 0.752885 0.254107 0.5
885 28 0.664587 0.271345 0.5
808 29 0.712997 0.117803 0.5
946 30 0.761847 0.180107 0.5
175 36 0.755534 0.152858 0.5
682 33 0.726809 0.142834 0.5
207 31 0.75841 0.0947246 0.5
89 30 0.828439 0.109032 0.5
657 28 0.846721 0.17055 0.5
8 28 0.810059 0.26161 0.5
693 30 0.771601 0.227163 0.5
91 28 0.825847 0.189668 0.5
862 28 0.903351 0.201681 0.5
76 29 0.836474 0.21111 0.5
542 31 0.871858 0.116643 0.5
712 30 0.959317 0.245549 0.5
578 30 0.968423 0.194261 0.5
683 32 0.893569 0.149985 0.5
785 32 0.0849089 0.202263 0.5
917 34 0.0459674 0.285909 0.5
105 31 0.974893 0.27748 0.5
720 30 0.0383433 0.192104 0.5
685 30 0.12408 0.286688 0.5
370 33 0.157426 0.159042 0.5
674 29 0.17362 0.201327 0.5
672 31 0.146396 0.206314 0.5
727 33 0.0737539 0.305155 0.5
710 33 0.200682 0.218539 0.5
41 31 0.229801 0.225325 0.5
634 25 0.260877 0.237106 0.5
717 30 0.236026 0.29981 0.5
787 29 0.315317 0.231588 0.5
380 34 0.394069 0.208749 0.5
788 32 0.294698 0.14966 0.5
765 28 0.365712 0.18615 0.5
751 28 0.333584 0.212577 0.5
395 29 0.415082 0.230591 0.5
141 31 0.388616 0.335243 0.5
906 34 0.429513 0.29203 0.5
20 32 0.420485 0.185246 0.5
963 29 0.407638 0.314711 0.5
463 29 0.478462 0.267486 0.5
102 27 0.525334 0.227688 0.5
636 27 0.49175 0.288385 0.5
941 30 0.548713 0.218515 0.5
419 32 0.627426 0.222427 0.5
53 32 0.537569 0.250269 0.5
564 29 0.660324 0.211114 0.5
446 30 0.60072 0.201053 0.5
997 32 0.547038 0.176962 0.5
878 31 0.566904 0.249587 0.5
638 37 0.592359 0.229727 0.5
255 30 0.70182 0.272313 0.5
659 32 0.636576 0.254904 0.5
514 28 0.700377 0.3233 0.5
899 27 0.72231 0.259373 0.5
270 31 0.689665 0.346471 0.5
738 31 0.782366 0.192058 0.5
75 27 0.745026 0.12518 0.5
790 31 0.817091 0.165801 0.5
248 28 0.811195 0.233175 0.5
761 30 0.781349 0.144346 0.5
211 26 0.802259 0.207921 0.5
404 31 0.893986 0.318723 0.5
262 31 0.928594 0.191856 0.5
798 32 0.861158 0.231322 0.5
782 29 0.884496 0.245263 0.5
353 30 0.920391 0.226432 0.5
10 30 0.925147 0.252171 0.5
470 30 0.988351 0.248014 0.5
476 27 0.01319 0.240663 0.5
922 33 0.084759 0.330061 0.5
418 32 0.0705721 0.227419 0.5
309 32 0.0791229 0.271849 0.5
517 33 0.110031 0.261227 0.5
907 29 0.101112 0.224922 0.5
235 32 0.054185 0.254308 0.5
26 34 0.159725 0.236983 0.5
753 31 0.185618 0.17652 0.5
287 33 0.235401 0.254528 0.5
273 29 0.200472 0.330914 0.5
462 30 0.172272 0.26206 0.5
130 30 0.314467 0.272349 0.5
889 29 0.288106 0.281334 0.5
970 27 0.212104 0.287549 0.5
877 30 0.341037 0.245563 0.5
229 31 0.286629 0.251218 0.5
409 30 0.324419 0.325406 0.5
886 29 0.365664 0.260395 0.5
607 33 0.30763 0.183624 0.5
892 27 0.39583 0.281439 0.5
427 31 0.460364 0.319455 0.5
837 31 0.439989 0.346558 0.5
162 31 0.485897 0.312905 0.5
30 31 0.485355 0.370575 0.5
47 31 0.512183 0.364796 0.5
977 33 0.537463 0.336939 0.5
103 31 0.517551 0.287983 0.5
883 33 0.472798 0.397987 0.5
71 32 0.504395 0.33386 0.5
577 33 0.551235 0.284178 0.5
754 31 0.508998 0.255891 0.5
927 31 0.5978 0.261832 0.5
986 30 0.642012 0.282143 0.5
54 30 0.630007 0.383708 0.5
645 31 0.674176 0.307642 0.5
296 30 0.742686 0.306749 0.5
501 32 0.712323 0.298279 0.5
335 32 0.635262 0.315442 0.5
623 33 0.785216 0.267842 0.5
844 31 0.741991 0.279818 0.5
702 29 0.676918 0.235353 0.5
690 29 0.799261 0.329375 0.5
112 28 0.835226 0.243648 0.5
522 33 0.838652 0.26999 0.5
317 33 0.868223 0.304001 0.5
795 33 0.8973 0.288546 0.5
383 32 0.867488 0.267618 0.5
942 28 0.915346 0.342027 0.5
800 27 0.946343 0.275697 0.5
208 31 0.997285 0.294947 0.5
350 25 0.000649448 0.329234 0.5
572 32 0.0185499 0.270607 0.5
85 27 0.0274146 0.218411 0.5
68 31 0.0339791 0.360622 0.5
801 29 0.108538 0.344453 0.5
828 30 0.0506941 0.417424 0.5
521 31 0.0578974 0.34617 0.5
656 27 0.130179 0.331149 0.5
773 26 0.0864349 0.366436 0.5
675 29 0.109066 0.313061 0.5
500 35 0.17583 0.294964 0.5
454 31 0.20317 0.261672 0.5
429 29 0.168019 0.368157 0.5
3 32 0.228417 0.369237 0.5
343 32 0.293278 0.330017 0.5
635 27 0.307458 0.360823 0.5
362 31 0.268004 0.3106 0.5
233 29 0.329528 0.297331 0.5
786 34 0.369866 0.298746 0.5
641 30 0.337751 0.348729 0.5
185 33 0.357406 0.329404 0.5
775 32 0.440236 0.423615 0.5
556 30 0.481356 0.424247 0.5
913 30 0.540914 0.397301 0.5
49 29 0.508481 0.428831 0.5
890 32 0.605133 0.29265 0.5
957 33 0.576304 0.289233 0.5
163 28 0.560639 0.350083 0.5
814 31 0.538677 0.310655 0.5
931 30 0.587073 0.346161 0.5
159 32 0.624375 0.407343 0.5
993 30 0.613237 0.337015 0.5
5 32 0.666702 0.383572 0.5
924 28 0.687161 0.407916 0.5
780 30 0.716855 0.370944 0.5
538 32 0.660598 0.337497 0.5
69 32 0.695215 0.384122 0.5
968 33 0.750485 0.368435 0.5
408 29 0.727279 0.345227 0.5
731 32 0.838345 0.301857 0.5
975 29 0.784905 0.362852 0.5
432 30 0.771389 0.309259 0.5
1 29 0.809212 0.297193 0.5
122 30 0.846432 0.372935 0.5
528 32 0.873195 0.348787 0.5
27 32 0.0238389 0.300706 0.5
170 32 0.924056 0.303626 0.5
770 35 0.969335 0.314012 0.5
466 35 0.910978 0.427431 0.5
212 28 0.0463298 0.315055 0.5
144 32 0.979204 0.345678 0.5
247 28 0.000775961 0.368767 0.5
169 27 0.0908236 0.393869 0.5
39 29 0.0189451 0.408949 0.5
595 32 0.129011 0.367071 0.5
992 33 0.0566731 0.390199 0.5
865 27 0.0302407 0.386855 0.5
17 29 0.14713 0.309335 0.5
608 30 0.129961 0.46828 0.5
966 28 0.0820193 0.419004 0.5
292 30 0.124381 0.396049 0.5
925 27 0.175174 0.332558 0.5
314 31 0.179 0.411199 0.5
474 29 0.206034 0.357714 0.5
389 34 0.200792 0.38534 0.5
86 30 0.207926 0.414326 0.5
234 32 0.231156 0.400572 0.5
560 30 0.232533 0.331601 0.5
824 31 0.285067 0.377801 0.5
269 31 0.375491 0.359906 0.5
658 33 0.254096 0.349193 0.5
184 29 0.335503 0.375676 0.5
646 29 0.431658 0.375566 0.5
36 33 0.38396 0.389267 0.5
115 27 0.385494 0.417245 0.5
168 33 0.402775 0.369475 0.5
921 33 0.470747 0.34579 0.5
826 30 0.414673 0.39675 0.5
648 28 0.409183 0.432502 0.5
329 32 0.507302 0.403687 0.5
597 28 0.533837 0.429143 0.5
344 27 0.586024 0.322358 0.5
186 31 0.554091 0.376404 0.5
856 29 0.562595 0.320301 0.5
459 33 0.614539 0.364978 0.5
606 32 0.573479 0.426143 0.5
441 30 0.655899 0.411915 0.5
832 35 0.680263 0.435887 0.5
558 31 0.617063 0.491582 0.5
377 29 0.717918 0.421919 0.5
480 29 0.792751 0.390305 0.5
539 31 0.732281 0.398949 0.5
48 28 0.758993 0.400287 0.5
669 34 0.772147 0.339551 0.5
382 33 0.844108 0.326906 0.5
991 31 0.866191 0.406959 0.5
524 32 0.879597 0.377776 0.5
439 29 0.949831 0.409095 0.5
107 30 0.942302 0.452788 0.5
531 29 0.896719 0.402865 0.5
980 29 0.914391 0.376466 0.5
978 27 0.942331 0.379929 0.5
616 30 0.954967 0.348531 0.5
340 27 0.026373 0.331967 0.5
988 26 0.942204 0.321095 0.5
60 29 0.0661463 0.476661 0.5
94 28 0.130351 0.496048 0.5
219 29 0.0530307 0.444859 0.5
840 29 0.977692 0.396977 0.5
465 29 0.100563 0.458653 0.5
663 31 0.178736 0.511047 0.5
553 31 0.16681 0.480531 0.5
95 31 0.106268 0.418864 0.5
302 29 0.157257 0.393961 0.5
651 28 0.145109 0.417681 0.5
601 31 0.204856 0.534294 0.5
285 30 0.241458 0.427666 0.5
323 30 0.221154 0.480452 0.5
16 31 0.248958 0.460223 0.5
396 31 0.272213 0.476154 0.5
519 28 0.271377 0.396897 0.5
703 30 0.271252 0.442111 0.5
38 30 0.313538 0.392604 0.5
535 28 0.250262 0.494739 0.5
667 29 0.341394 0.455617 0.5
511 33 0.394871 0.58764 0.5
482 30 0.371249 0.45686 0.5
423 32 0.458587 0.441877 0.5
442 32 0.355441 0.503988 0.5
793 30 0.527143 0.452026 0.5
82 32 0.604431 0.389448 0.5
487 30 0.49391 0.46488 0.5
936 28 0.57534 0.395075 0.5
50 31 0.60443 0.427585 0.5
72 28 0.590283 0.46251 0.5
726 30 0.627136 0.462644 0.5
206 31 0.757912 0.433283 0.5
676 31 0.737352 0.5129 0.5
827 35 0.650967 0.44049 0.5
182 31 0.728323 0.459971 0.5
278 32 0.792677 0.440338 0.5
81 29 0.731435 0.485733 0.5
318 32 0.822281 0.379611 0.5
593 28 0.67133 0.462544 0.5
748 32 0.77984 0.415116 0.5
888 29 0.842354 0.426781 0.5
288 33 0.839886 0.397792 0.5
750 31 0.810932 0.421986 0.5
586 35 0.769602 0.473753 0.5
384 35 0.91709 0.456635 0.5
433 28 0.811454 0.354047 0.5
139 30 0.875829 0.455848 0.5
364 31 0.967495 0.372867 0.5
448 31 0.994363 0.461452 0.5
950 31 0.97319 0.435073 0.5
187 32 0.0245306 0.45935 0.5
385 31 0.00553936 0.434303 0.5
289 27 0.0789479 0.446996 0.5
869 31 0.0133755 0.497266 0.5
631 30 0.0105789 0.538144 0.5
40 34 0.0419107 0.533048 0.5
540 32 0.131503 0.521498 0.5
415 28 0.106738 0.507128 0.5
156 28 0.124264 0.437953 0.5
688 29 0.153545 0.447403 0.5
875 32 0.0980683 0.532258 0.5
811 29 0.0681915 0.600575 0.5
56 29 0.191045 0.471887 0.5
158 32 0.203149 0.503307 0.5
177 28 0.237858 0.56665 0.5
257 32 0.188879 0.438181 0.5
797 31 0.176021 0.545387 0.5
971 26 0.21771 0.451482 0.5
687 31 0.226706 0.514067 0.5
264 31 0.294591 0.416131 0.5
44 32 0.257754 0.602732 0.5
624 28 0.350798 0.396083 0.5
202 34 0.29188 0.506108 0.5
192 33 0.355721 0.427953 0.5
713 33 0.308743 0.481149 0.5
239 32 0.330554 0.412305 0.5
6 24 0.317266 0.51092 0.5
274 29 0.369486 0.48144 0.5
483 29 0.504525 0.514758 0.5
194 31 0.383943 0.515033 0.5
166 30 0.397522 0.464973 0.5
226 31 0.430866 0.44769 0.5
822 32 0.434637 0.474197 0.5
972 30 0.410714 0.514048 0.5
118 29 0.562549 0.461198 0.5
434 28 0.515651 0.478727 0.5
625 31 0.463133 0.475244 0.5
339 33 0.664532 0.526337 0.5
134 32 0.55316 0.488788 0.5
397 31 0.643007 0.359616 0.5
475 29 0.68579 0.492107 0.5
330 29 0.649435 0.504349 0.5
190 34 0.622597 0.525201 0.5
24 30 0.589985 0.523882 0.5
128 31 0.745359 0.586631 0.5
654 28 0.694145 0.465933 0.5
147 30 0.704945 0.513725 0.5
513 29 0.754285 0.540212 0.5
405 30 0.794566 0.506009 0.5
276 32 0.832697 0.451281 0.5
585 31 0.799394 0.471688 0.5
426 27 0.8295 0.48652 0.5
600 33 0.848579 0.472873 0.5
664 31 0.935989 0.478084 0.5
422 30 0.821734 0.513331 0.5
66 31 0.860146 0.52649 0.5
279 31 0.963108 0.469583 0.5
864 28 0.909698 0.491472 0.5
830 30 0.963207 0.527784 0.5
714 30 0.958536 0.495706 0.5
678 30 0.0793442 0.628786 0.5
903 31 0.986356 0.488826 0.5
110 30 0.046232 0.497178 0.5
583 28 0.0555577 0.573397 0.5
926 32 0.123621 0.551127 0.5
381 31 0.191094 0.651573 0.5
561 31 0.167759 0.58395 0.5
15 32 0.142802 0.571561 0.5
549 30 0.259292 0.62905 0.5
603 30 0.204601 0.575655 0.5
506 33 0.100373 0.572752 0.5
567 30 0.169178 0.615271 0.5
51 31 0.310086 0.566405 0.5
555 30 0.284138 0.554337 0.5
884 33 0.339629 0.526789 0.5
701 33 0.324108 0.587677 0.5
67 30 0.315348 0.438136 0.5
596 29 0.439895 0.52982 0.5
954 28 0.426125 0.568935 0.5
684 28 0.438708 0.501292 0.5
97 27 0.527198 0.503558 0.5
902 30 0.46493 0.606779 0.5
413 29 0.410686 0.54308 0.5
842 29 0.475716 0.530424 0.5
464 30 0.577129 0.545136 0.5
319 30 0.484157 0.494445 0.5
948 33 0.506813 0.540858 0.5
940 29 0.559199 0.52189 0.5
599 32 0.627957 0.579414 0.5
394 30 0.602193 0.554599 0.5
739 35 0.578606 0.496723 0.5
62 30 0.696541 0.566499 0.5
142 31 0.684398 0.543629 0.5
870 30 0.636065 0.55176 0.5
715 27 0.673445 0.63057 0.5
64 31 0.77191 0.567754 0.5
612 29 0.713147 0.610259 0.5
217 31 0.669894 0.566465 0.5
183 29 0.714537 0.542057 0.5
324 34 0.809511 0.537698 0.5
359 32 0.766286 0.515223 0.5
523 27 0.825291 0.557231 0.5
943 36 0.775492 0.598626 0.5
691 34 0.873224 0.49101 0.5
345 31 0.855826 0.565556 0.5
708 29 0.886452 0.555565 0.5
467 31 0.891678 0.520632 0.5
537 29 0.926779 0.510691 0.5
304 29 0.915308 0.536414 0.5
908 27 0.990472 0.520142 0.5
444 32 0.980444 0.548872 0.5
541 31 -0.00147542 0.653499 0.5
735 29 0.0277189 0.557898 0.5
99 28 0.0193844 0.618467 0.5
866 30 0.0781573 0.512419 0.5
628 31 0.114934 0.664631 0.5
860 30 0.0531407 0.633337 0.5
973 27 0.983842 0.718319 0.5
767 34 0.0716373 0.542814 0.5
300 33 0.0829817 0.669922 0.5
479 26 0.156287 0.5314 0.5
626 32 0.144654 0.602482 0.5
431 31 0.101778 0.606308 0.5
630 31 0.250361 0.537919 0.5
575 31 0.21662 0.673522 0.5
512 31 0.270686 0.575871 0.5
399 32 0.286268 0.604581 0.5
709 30 0.301362 0.66358 0.5
711 32 0.226224 0.59653 0.5
243 31 0.34048 0.555294 0.5
584 28 0.400987 0.613286 0.5
930 29 0.369009 0.640417 0.5
268 36 0.433926 0.598261 0.5
915 29 0.474323 0.578653 0.5
4 31 0.526979 0.590603 0.5
398 33 0.507951 0.650562 0.5
552 30 0.431251 0.64918 0.5
366 30 0.499402 0.58067 0.5
613 29 0.493036 0.696452 0.5
189 23 0.567276 0.687265 0.5
900 28 0.534752 0.528876 0.5
438 29 0.568835 0.571265 0.5
809 29 0.600933 0.586531 0.5
928 31 0.545528 0.638797 0.5
741 32 0.688049 0.590205 0.5
164 32 0.639976 0.605812 0.5
570 32 0.674921 0.659285 0.5
25 31 0.615224 0.654165 0.5
332 29 0.656643 0.69197 0.5
916 28 0.762743 0.632225 0.5
743 31 0.79618 0.690256 0.5
536 29 0.757223 0.689434 0.5
525 29 0.795465 0.655054 0.5
763 32 0.791608 0.627061 0.5
825 33 0.895139 0.579988 0.5
508 29 0.839164 0.585031 0.5
334 32 0.926389 0.567115 0.5
933 30 0.889598 0.607527 0.5
852 32 0.949311 0.644997 0.5
282 29 0.971944 0.622812 0.5
473 31 1.00065 0.597697 0.5
509 29 0.953328 0.570295 0.5
983 31 0.0309902 0.589232 0.5
402 33 0.0140254 0.677628 0.5
994 30 0.974364 0.656599 0.5
390 31 0.0548683 0.669171 0.5
573 30 0.0168004 0.80848 0.5
161 29 0.100411 0.703329 0.5
627 31 0.139709 0.629902 0.5
167 29 0.0257316 0.644165 0.5
386 33 0.222617 0.630067 0.5
945 32 0.240636 0.694932 0.5
127 27 0.345845 0.731499 0.5
724 34 0.104952 0.636348 0.5
602 28 0.306714 0.692609 0.5
2 30 0.264994 0.682386 0.5
699 27 0.314825 0.623476 0.5
228 29 0.351171 0.620875 0.5
124 29 0.354426 0.668804 0.5
747 28 0.374791 0.681408 0.5
964 32 0.284648 0.640388 0.5
756 30 0.455006 0.558373 0.5
445 32 0.44163 0.626833 0.5
503 33 0.402864 0.63855 0.5
78 26 0.33904 0.649164 0.5
111 30 0.493122 0.610006 0.5
734 31 0.536235 0.669779 0.5
119 30 0.482345 0.669114 0.5
406 30 0.545155 0.771338 0.5
83 31 0.552149 0.605751 0.5
740 32 0.474938 0.641779 0.5
947 32 0.573159 0.76372 0.5
326 36 0.51876 0.62297 0.5
376 34 0.604854 0.621013 0.5
835 31 0.590751 0.684715 0.5
37 30 0.572977 0.624401 0.5
215 29 0.541228 0.558221 0.5
312 34 0.620095 0.688866 0.5
952 32 0.735737 0.628962 0.5
661 30 0.648186 0.633596 0.5
851 31 0.734518 0.666592 0.5
861 32 0.702836 0.667318 0.5
346 30 0.831734 0.644785 0.5
308 29 0.77221 0.670191 0.5
855 31 0.810817 0.595324 0.5
77 26 0.800741 0.570527 0.5
529 30 0.805517 0.715633 0.5
725 34 0.929483 0.61296 0.5
286 31 0.873061 0.631933 0.5
388 29 0.84092 0.673108 0.5
338 30 0.864799 0.739882 0.5
736 28 0.828991 0.615065 0.5
146 28 0.862991 0.660518 0.5
132 31 0.859801 0.60814 0.5
333 30 0.950423 0.679747 0.5
253 30 0.972573 0.591791 0.5
929 32 0.920136 0.745414 0.5
768 31 0.952133 0.72193 0.5
451 31 0.978695 0.688884 0.5
461 31 0.0205899 0.705607 0.5
559 31 0.0717071 0.694715 0.5
19 30 0.125813 0.732566 0.5
820 30 0.141803 0.659365 0.5
96 30 0.242459 0.653741 0.5
490 31 0.161162 0.68399 0.5
548 33 0.0369087 0.744954 0.5
550 28 0.208807 0.700802 0.5
805 29 0.257691 0.717942 0.5
857 34 0.134907 0.689457 0.5
982 31 0.183094 0.754716 0.5
774 32 0.209567 0.772101 0.5
145 28 0.225506 0.734673 0.5
755 28 0.283917 0.717673 0.5
594 32 0.393518 0.744172 0.5
783 29 0.366894 0.574379 0.5
745 32 0.405235 0.71069 0.5
863 29 0.373443 0.605856 0.5
180 31 0.39247 0.775565 0.5
210 29 0.417855 0.686337 0.5
633 30 0.399993 0.664455 0.5
258 34 0.436271 0.709624 0.5
904 32 0.420862 0.734499 0.5
881 29 0.440351 0.677263 0.5
227 31 0.508303 0.7247 0.5
106 26 0.583111 0.84141 0.5
131 29 0.57368 0.662916 0.5
872 34 0.487092 0.774079 0.5
829 28 0.535103 0.734274 0.5
544 29 0.55896 0.710648 0.5
652 35 0.598805 0.712477 0.5
373 32 0.735321 0.744598 0.5
437 31 0.623857 0.786102 0.5
671 28 0.70948 0.73937 0.5
136 33 0.669812 0.723643 0.5
838 27 0.684244 0.689835 0.5
891 32 0.664871 0.757857 0.5
52 33 0.71327 0.695716 0.5
214 32 0.781356 0.716996 0.5
322 27 0.761861 0.738315 0.5
680 30 0.834956 0.697554 0.5
331 29 0.89392 0.697826 0.5
272 33 0.921352 0.695758 0.5
46 32 0.866538 0.711169 0.5
984 31 0.912921 0.669565 0.5
592 28 0.904064 0.722405 0.5
817 33 0.910255 0.644057 0.5
848 30 0.858606 0.797854 0.5
443 29 0.0574609 0.765976 0.5
113 32 0.981316 0.770147 0.5
791 29 0.00996055 0.748685 0.5
932 29 0.100408 0.775507 0.5
356 28 0.0728358 0.787925 0.5
361 31 0.0111246 0.845919 0.5
477 31 0.149167 0.71865 0.5
84 29 0.119737 0.75864 0.5
7 32 0.0478898 0.707626 0.5
833 31 0.155995 0.748521 0.5
260 30 0.0686896 0.729862 0.5
962 37 0.199603 0.72654 0.5
810 31 0.227457 0.805681 0.5
421 32 0.253192 0.800984 0.5
452 32 0.175457 0.711554 0.5
505 31 0.201954 0.815959 0.5
737 32 0.236124 0.76767 0.5
543 32 0.250522 0.745202 0.5
846 32 0.373457 0.70628 0.5
469 33 0.33352 0.705529 0.5
920 30 0.355388 0.782126 0.5
73 31 0.382501 0.814596 0.5
821 29 0.470432 0.796692 0.5
337 30 0.417211 0.789664 0.5
472 29 0.521326 0.691838 0.5
138 31 0.452316 0.733475 0.5
45 30 0.429938 0.764486 0.5
769 30 0.487332 0.741677 0.5
92 29 0.474778 0.719096 0.5
88 35 0.461332 0.693744 0.5
236 35 0.513828 0.757336 0.5
723 30 0.556442 0.825917 0.5
778 28 0.593491 0.783585 0.5
267 29 0.613575 0.823901 0.5
969 30 0.591732 0.810007 0.5
981 30 0.589387 0.738642 0.5
125 30 0.592472 0.894567 0.5
998 31 0.643857 0.720758 0.5
622 30 0.663604 0.797407 0.5
914 28 0.60738 0.761872 0.5
61 31 0.745158 0.715099 0.5
63 30 0.759324 0.775946 0.5
568 31 0.787493 0.76826 0.5
160 30 0.69713 0.765219 0.5
867 33 0.783774 0.823743 0.5
965 30 0.790739 0.797643 0.5
428 29 0.828518 0.791972 0.5
639 27 0.831025 0.731126 0.5
299 28 0.831323 0.763802 0.5
407 29 0.865509 0.769576 0.5
495 31 0.914289 0.809 0.5
905 30 0.932678 0.781998 0.5
104 28 0.953786 0.754073 0.5
960 34 0.946478 0.823219 0.5
706 31 0.901265 0.780904 0.5
853 26 0.0417594 0.836555 0.5
640 33 0.977274 0.828976 0.5
58 29 0.105152 0.827346 0.5
336 33 0.13233 0.823176 0.5
174 31 0.0830602 0.753401 0.5
150 34 0.185164 0.782096 0.5
662 31 0.162655 0.799765 0.5
497 31 0.132252 0.79039 0.5
293 33 0.268578 0.876581 0.5
873 31 0.0959577 0.803178 0.5
563 33 0.270499 0.776506 0.5
355 31 0.289419 0.861569 0.5
218 27 0.282302 0.829506 0.5
1000 33 0.291452 0.748535 0.5
21 31 0.323083 0.850992 0.5
719 27 0.282997 0.79969 0.5
176 31 0.310269 0.722818 0.5
179 31 0.364636 0.752404 0.5
246 32 0.323054 0.754621 0.5
681 28 0.30684 0.806298 0.5
545 34 0.353478 0.817658 0.5
414 32 0.327398 0.787262 0.5
372 29 0.456221 0.764029 0.5
953 30 0.469339 0.824651 0.5
251 31 0.441993 0.820169 0.5
752 29 0.445734 0.789619 0.5
749 29 0.476525 0.872249 0.5
200 32 0.480837 0.90225 0.5
562 33 0.563478 0.793682 0.5
33 30 0.530175 0.834889 0.5
242 33 0.532193 0.802357 0.5
196 31 0.549064 0.940109 0.5
460 32 0.636085 0.844809 0.5
806 29 0.691585 0.842394 0.5
154 30 0.607741 0.866789 0.5
617 32 0.645952 0.814538 0.5
816 31 0.698428 0.805723 0.5
485 32 0.671451 0.828183 0.5
692 29 0.639937 0.756028 0.5
116 27 0.615209 0.73996 0.5
294 30 0.730949 0.811885 0.5
277 29 0.746738 0.831093 0.5
876 31 0.73145 0.781246 0.5
351 31 0.741365 0.87013 0.5
392 30 0.840298 0.818018 0.5
819 30 0.779534 0.860552 0.5
815 30 0.828094 0.857552 0.5
896 30 0.871314 0.817774 0.5
347 36 0.917906 0.83957 0.5
14 30 0.0251325 0.772313 0.5
588 29 0.959713 0.799911 0.5
290 31 0.0161521 0.89394 0.5
707 37 0.0228624 0.92023 0.5
910 30 0.959106 0.882699 0.5
266 32 0.98596 0.895847 0.5
481 30 0.0405385 0.799811 0.5
171 32 0.0282305 0.867919 0.5
148 32 0.179176 0.832946 0.5
375 30 0.216859 0.846593 0.5
275 31 0.146659 0.849909 0.5
895 30 0.174249 0.861566 0.5
776 31 0.244555 0.83013 0.5
178 27 0.305389 0.878752 0.5
327 31 0.286116 0.899018 0.5
759 33 0.239346 0.867354 0.5
240 30 0.356162 0.943225 0.5
256 32 0.376761 0.875804 0.5
609 30 0.352345 0.900034 0.5
587 33 0.298528 0.932975 0.5
416 32 0.385015 0.840913 0.5
232 29 0.355407 0.84902 0.5
911 30 0.378392 0.920374 0.5
812 29 0.407995 0.81292 0.5
263 30 0.341059 0.873499 0.5
716 30 0.393469 0.894785 0.5
209 29 0.446731 0.874616 0.5
619 31 0.419155 0.885162 0.5
193 29 0.423294 0.844408 0.5
637 29 0.516211 0.936168 0.5
358 29 0.491377 0.842183 0.5
985 28 0.512456 0.900569 0.5
152 32 0.503501 0.813947 0.5
666 31 0.548519 0.857487 0.5
295 32 0.52966 0.879741 0.5
650 30 0.531345 0.989468 0.5
642 31 0.573211 0.872903 0.5
368 31 0.570772 0.904868 0.5
959 29 0.613247 0.912078 0.5
93 35 0.666351 0.893536 0.5
265 35 0.714417 0.880096 0.5
660 29 0.644399 0.918493 0.5
458 33 0.758132 0.803425 0.5
101 29 0.662423 0.861701 0.5
121 31 0.794386 0.910829 0.5
478 30 0.730499 0.925348 0.5
198 32 0.810121 0.817723 0.5
403 28 0.760433 0.918886 0.5
839 29 0.851532 0.844702 0.5
494 27 0.803744 0.879194 0.5
777 29 0.880711 0.842861 0.5
216 35 0.949328 0.853094 0.5
173 30 0.860515 0.87105 0.5
580 29 0.88415 0.906936 0.5
999 33 0.992047 0.867924 0.5
779 33 0.991104 0.796056 0.5
807 27 0.061838 0.890449 0.5
576 31 0.96832 0.945162 0.5
436 31 0.0780777 0.91723 0.5
803 31 0.0532323 0.86421 0.5
151 33 0.896756 0.867218 0.5
618 33 0.104871 0.93397 0.5
718 26 0.0596927 0.812822 0.5
961 30 0.270775 0.925266 0.5
527 30 0.166549 0.890014 0.5
746 28 0.23321 0.93616 0.5
598 32 0.216113 0.884116 0.5
280 34 0.239155 0.90886 0.5
440 34 0.321546 0.903004 0.5
695 27 0.313889 0.956008 0.5
237 32 0.282465 0.0054765 0.5
847 33 0.305741 0.987085 0.5
195 33 0.341725 0.968211 0.5
818 28 0.406273 0.921211 0.5
516 34 0.420889 0.944223 0.5
611 33 0.402999 0.861751 0.5
70 29 0.459006 0.915212 0.5
133 31 0.43273 0.909205 0.5
781 30 0.458665 0.850122 0.5
762 31 0.521979 0.963894 0.5
238 28 0.513108 0.859373 0.5
271 30 0.538311 0.908888 0.5
979 32 0.481391 0.967643 0.5
244 30 0.581432 0.935259 0.5
412 30 0.553099 0.968717 0.5
955 29 0.704048 0.902884 0.5
12 32 0.625814 0.88732 0.5
760 29 0.699954 0.962304 0.5
374 32 0.672587 0.943338 0.5
898 29 0.681698 0.917998 0.5
387 30 0.724917 0.845815 0.5
813 30 0.703895 0.933821 0.5
733 33 0.736295 0.896245 0.5
668 27 0.821046 0.920264 0.5
420 32 0.829229 0.887888 0.5
114 28 0.72581 0.951824 0.5
468 29 0.908653 0.972286 0.5
566 31 0.845931 0.945376 0.5
221 27 0.875019 0.930806 0.5
831 30 0.976313 0.97023 0.5
836 30 0.871031 0.974548 0.5
352 29 0.925549 1.0015 0.5
967 28 0.928561 0.929022 0.5
649 33 0.912519 0.896589 0.5
526 30 0.949003 0.908283 0.5
143 30 0.928222 0.869469 0.5
165 27 0.0386164 0.940183 0.5
378 31 0.0356619 0.97358 0.5
854 29 0.0523718 0.911048 0.5
417 28 0.092917 0.960069 0.5
213 31 0.136688 0.945741 0.5
938 27 0.123128 0.968998 0.5
868 34 0.0887249 0.878314 0.5
673 29 0.12981 0.914532 0.5
919 28 0.087656 0.847128 0.5
615 29 0.118782 0.865608 0.5
590 28 0.157993 0.918285 0.5
643 29 0.190318 0.904164 0.5
845 29 0.191304 0.971188 0.5
157 31 0.327464 0.931716 0.5
363 28 0.254652 0.95224 0.5
758 27 0.243932 0.981207 0.5
935 28 0.273516 0.975576 0.5
100 32 0.221319 0.959363 0.5
301 33 0.357067 0.0581528 0.5
698 27 0.386164 0.951869 0.5
614 30 0.395555 0.982173 0.5
230 31 0.423487 0.97312 0.5
722 32 0.447151 0.995311 0.5
841 31 0.411151 0.0385039 0.5
912 34 0.497969 0.0236579 0.5
764 33 0.426873 0.0927936 0.5
802 32 0.47751 1.00067 0.5
74 32 0.491153 0.926352 0.5
155 30 0.503473 0.98906 0.5
996 29 0.578292 0.0381871 0.5
858 31 0.460296 0.94974 0.5
306 29 0.533057 0.0154907 0.5
261 33 0.557053 0.999307 0.5
574 27 0.592882 0.962932 0.5
882 33 0.618853 0.936381 0.5
320 32 0.612362 0.991831 0.5
42 35 0.644655 0.984877 0.5
357 33 0.676178 0.981211 0.5
310 32 0.78485 0.951258 0.5
348 29 0.719786 -0.00176175 0.5
123 25 0.691879 0.000567823 0.5
533 32 0.796519 0.975516 0.5
700 29 0.871056 0.0152213 0.5
447 33 0.749513 0.96885 0.5
28 29 0.752385 0.941432 0.5
43 32 0.769469 0.892551 0.5
297 30 0.846921 0.91149 0.5
951 30 0.823207 0.965717 0.5
804 30 0.892583 0.996587 0.5
789 29 0.939452 0.950478 0.5
502 28 0.99105 0.924145 0.5
557 33 0.968818 0.0415861 0.5
249 32 0.902725 0.942193 0.5
