ITEM: TIMESTEP
250000
ITEM: NUMBER OF ATOMS
1000
ITEM: BOX BOUNDS pp pp pp
-1.7509098000000002e+01 1.7509098000000002e+01
-1.7509098000000002e+01 1.7509098000000002e+01
-5.0000000000000000e-01 5.0000000000000000e-01
ITEM: ATOMS id type xs ys zs
2 30 0.0336353 0.0269985 0.5
776 31 0.0108216 0.0483234 0.5
298 34 0.0654047 0.0363423 0.5
293 33 0.0864807 0.0128793 0.5
290 31 0.0984644 0.0462271 0.5
756 30 0.119105 0.021093 0.5
897 31 0.149728 0.0256588 0.5
848 30 0.131064 0.0523337 0.5
162 31 0.182503 0.030999 0.5
80 30 0.207416 0.0100126 0.5
555 30 0.171875 0.0024603 0.5
87 30 0.217432 0.039983 0.5
995 28 0.240664 0.0212128 0.5
216 35 0.271335 0.0274365 0.5
847 33 0.303691 0.0354307 0.5
400 32 0.295636 0.00377968 0.5
621 29 0.330119 0.0176858 0.5
403 28 0.357421 0.0271192 0.5
114 28 0.391823 0.0315249 0.5
493 28 0.420848 0.0081673 0.5
785 32 0.390188 1.00164 0.5
73 31 0.4276 0.0388166 0.5
372 29 0.450013 0.0149364 0.5
4 31 0.481349 0.020841 0.5
402 33 0.514678 0.028581 0.5
674 29 0.505887 -0.00516405 0.5
174 31 0.539098 0.00394579 0.5
176 31 0.547216 0.0362275 0.5
540 32 0.571377 0.0156928 0.5
580 29 0.603641 0.0219067 0.5
94 28 0.595411 0.989743 0.5
508 29 0.628728 0.000168092 0.5
571 36 0.639952 0.0314312 0.5
799 29 0.669999 0.00623713 0.5
265 35 0.676296 0.0455975 0.5
733 33 0.698863 0.020209 0.5
745 32 0.709691 0.0519858 0.5
521 31 0.739672 0.0321819 0.5
165 27 0.769883 0.0445292 0.5
270 31 0.767763 0.0135863 0.5
615 29 0.794338 0.995694 0.5
27 32 0.827313 0.00905409 0.5
264 31 0.800758 0.0258826 0.5
829 28 0.838628 0.0459517 0.5
456 31 0.861486 0.0216587 0.5
611 33 0.869685 0.058957 0.5
662 31 0.892284 0.0274676 0.5
762 31 0.928601 0.0327634 0.5
754 31 0.92195 0.999846 0.5
574 27 0.957469 0.0512568 0.5
881 29 0.951315 0.0126363 0.5
652 35 0.984033 0.0268181 0.5
672 31 0.0401071 0.058016 0.5
705 30 0.0188475 0.0794495 0.5
41 31 0.048911 0.0889154 0.5
597 28 0.0758187 0.0677146 0.5
936 28 0.0828396 0.096202 0.5
260 30 0.10757 0.0754251 0.5
124 29 0.160553 0.0634201 0.5
564 29 0.138063 0.0882004 0.5
54 30 0.169418 0.0940857 0.5
132 31 0.191721 0.065166 0.5
977 33 0.20247 0.100918 0.5
255 30 0.250755 0.0537618 0.5
376 34 0.223844 0.0757716 0.5
841 31 0.252499 0.0846036 0.5
671 28 0.280698 0.0644754 0.5
587 33 0.285373 0.0959222 0.5
665 35 0.31224 0.0702505 0.5
935 28 0.334356 0.0478268 0.5
834 31 0.342617 0.0786608 0.5
794 31 0.364617 0.0558447 0.5
949 32 0.384262 0.0848152 0.5
72 28 0.408226 0.0639269 0.5
144 32 0.417264 0.0955833 0.5
425 31 0.461421 0.0489401 0.5
950 31 0.438755 0.0711389 0.5
121 31 0.475309 0.0788877 0.5
531 29 0.490939 0.0536042 0.5
988 26 0.507659 0.0872554 0.5
90 34 0.526364 0.0628218 0.5
443 29 0.557823 0.0673872 0.5
666 31 0.538835 0.0928054 0.5
452 32 0.583396 0.0455374 0.5
166 30 0.616764 0.057606 0.5
874 33 0.588014 0.0796808 0.5
426 27 0.625898 0.0862528 0.5
980 29 0.649555 0.06769 0.5
101 29 0.653061 0.0978623 0.5
416 32 0.682667 0.080899 0.5
779 33 0.718011 0.0851521 0.5
859 34 0.743475 0.0650502 0.5
341 28 0.752516 0.0956496 0.5
544 29 0.777494 0.0746784 0.5
44 32 0.781922 0.108517 0.5
418 32 0.810311 0.0591086 0.5
141 31 0.815427 0.0907297 0.5
177 28 0.862589 0.105368 0.5
807 27 0.845665 0.0789019 0.5
971 26 0.887319 0.0831916 0.5
480 29 0.904351 0.0556483 0.5
736 28 0.9053 0.107178 0.5
575 31 0.921576 0.0793588 0.5
770 35 0.957583 0.0823354 0.5
729 27 0.985081 0.062508 0.5
686 30 0.0388448 0.144556 0.5
917 34 0.0267021 0.113246 0.5
787 29 0.999831 0.130521 0.5
171 32 0.0601983 0.11977 0.5
786 34 0.0912914 0.132372 0.5
84 29 0.112919 0.109391 0.5
750 31 0.127174 0.144759 0.5
815 30 0.146851 0.116368 0.5
687 31 0.178306 0.12766 0.5
458 33 0.21064 0.135894 0.5
753 31 0.235378 0.112027 0.5
273 29 0.244231 0.144082 0.5
888 29 0.265559 0.12083 0.5
651 28 0.297221 0.131031 0.5
626 32 0.277438 0.154875 0.5
740 32 0.3179 0.104496 0.5
40 34 0.334766 0.137955 0.5
383 32 0.351359 0.109799 0.5
925 27 0.367321 0.135933 0.5
424 27 0.391013 0.116949 0.5
497 31 0.425481 0.127492 0.5
500 35 0.449067 0.103339 0.5
765 28 0.454924 0.136438 0.5
476 27 0.47746 0.111166 0.5
206 31 0.488837 0.142077 0.5
91 28 0.510907 0.119324 0.5
324 34 0.569366 0.107249 0.5
363 28 0.541463 0.123449 0.5
805 29 0.573257 0.135726 0.5
911 30 0.602514 0.111481 0.5
821 29 0.609673 0.14431 0.5
784 29 0.632551 0.121602 0.5
136 33 0.667491 0.12629 0.5
879 32 0.694098 0.110355 0.5
269 31 0.698704 0.145122 0.5
658 33 0.72941 0.151226 0.5
85 27 0.724278 0.119654 0.5
892 27 0.756631 0.134443 0.5
679 35 0.760413 0.165284 0.5
217 31 0.79224 0.138293 0.5
545 34 0.823632 0.12672 0.5
277 29 0.797061 0.17523 0.5
191 33 0.856071 0.140088 0.5
233 29 0.88418 0.129917 0.5
512 31 0.916615 0.138563 0.5
781 30 0.93805 0.111494 0.5
196 31 0.944092 0.152553 0.5
130 30 0.98647 0.102236 0.5
628 31 0.963704 0.127997 0.5
723 30 0.0412688 0.176877 0.5
962 37 0.0145788 0.19696 0.5
826 30 0.0113356 0.158937 0.5
967 28 0.0694973 0.156248 0.5
26 34 0.0993315 0.16524 0.5
111 30 0.0710743 0.189399 0.5
532 30 0.158407 0.149667 0.5
641 30 0.105847 0.200101 0.5
326 36 0.131616 0.177354 0.5
851 31 0.13722 0.209884 0.5
36 33 0.169314 0.184096 0.5
429 29 0.187648 0.158881 0.5
116 27 0.200632 0.190092 0.5
709 30 0.221431 0.168435 0.5
120 30 0.230652 0.200786 0.5
690 29 0.25439 0.179655 0.5
333 30 0.309316 0.158889 0.5
296 30 0.284796 0.186378 0.5
175 36 0.318151 0.19648 0.5
728 32 0.338394 0.170651 0.5
783 29 0.350913 0.202166 0.5
225 32 0.397351 0.150335 0.5
11 33 0.372255 0.172673 0.5
692 29 0.409381 0.178237 0.5
434 28 0.436036 0.16028 0.5
581 27 0.439285 0.189876 0.5
563 33 0.46673 0.169038 0.5
771 28 0.470468 0.201768 0.5
251 31 0.524909 0.151273 0.5
637 29 0.500329 0.172345 0.5
471 28 0.534556 0.18136 0.5
311 29 0.557919 0.161418 0.5
478 30 0.563225 0.191271 0.5
9 29 0.589229 0.170716 0.5
21 31 0.619119 0.176778 0.5
529 30 0.594468 0.201677 0.5
42 35 0.642299 0.15367 0.5
566 31 0.671747 0.164829 0.5
578 30 0.648718 0.1864 0.5
999 33 0.681279 0.198578 0.5
974 29 0.705971 0.175026 0.5
778 28 0.712019 0.211884 0.5
137 32 0.737004 0.190649 0.5
553 31 0.768518 0.198922 0.5
438 29 0.743794 0.223418 0.5
343 32 0.798804 0.208184 0.5
983 31 0.827901 0.160171 0.5
751 28 0.830892 0.210003 0.5
606 32 0.88467 0.164633 0.5
791 29 0.850118 0.182518 0.5
542 31 0.877692 0.195141 0.5
244 30 0.915903 0.173636 0.5
288 33 0.921572 0.204354 0.5
259 26 0.946259 0.185232 0.5
336 33 0.979124 0.158375 0.5
902 30 0.977447 0.193569 0.5
777 29 0.955936 0.215213 0.5
548 33 0.0220255 0.233115 0.5
748 32 0.996851 0.255261 0.5
792 31 0.0464315 0.209733 0.5
405 30 0.0563712 0.243078 0.5
22 32 0.0793217 0.220637 0.5
636 27 0.0875615 0.257069 0.5
140 30 0.10833 0.23415 0.5
882 33 0.146789 0.239999 0.5
306 29 0.166692 0.215964 0.5
556 30 0.17721 0.249186 0.5
154 30 0.203681 0.221742 0.5
885 28 0.262579 0.209845 0.5
929 32 0.208632 0.254018 0.5
412 30 0.235754 0.23526 0.5
506 33 0.264626 0.24188 0.5
77 26 0.294495 0.219315 0.5
7 32 0.304568 0.246754 0.5
303 30 0.331432 0.227536 0.5
133 31 0.364356 0.231035 0.5
875 32 0.386386 0.202825 0.5
228 29 0.395108 0.239975 0.5
92 29 0.415798 0.215771 0.5
394 30 0.427893 0.251335 0.5
349 35 0.446858 0.22486 0.5
348 29 0.507095 0.20555 0.5
384 35 0.47812 0.233468 0.5
421 32 0.511379 0.247635 0.5
727 33 0.533299 0.22107 0.5
1000 33 0.544214 0.250326 0.5
125 30 0.566669 0.224819 0.5
267 29 0.624638 0.207785 0.5
157 31 0.603744 0.232252 0.5
866 30 0.577723 0.255779 0.5
910 30 0.63263 0.243035 0.5
625 31 0.654941 0.22174 0.5
968 33 0.687799 0.232608 0.5
822 32 0.720674 0.243185 0.5
156 28 0.778066 0.237841 0.5
6 24 0.751521 0.252245 0.5
906 34 0.810619 0.237082 0.5
39 29 0.791225 0.264363 0.5
503 33 0.821731 0.272031 0.5
585 31 0.841684 0.247174 0.5
973 27 0.860083 0.220303 0.5
428 29 0.873647 0.251069 0.5
283 33 0.897238 0.22571 0.5
557 33 0.932252 0.23685 0.5
586 35 0.903252 0.259079 0.5
698 27 0.987499 0.220464 0.5
60 29 0.965778 0.243354 0.5
716 30 0.0293054 0.264594 0.5
465 29 0.0380068 0.296942 0.5
600 33 0.0075781 0.291062 0.5
179 31 0.0597814 0.274451 0.5
8 28 0.098976 0.28346 0.5
13 31 0.124457 0.266645 0.5
550 28 0.132709 0.299508 0.5
972 30 0.155589 0.272156 0.5
702 29 0.162255 0.303663 0.5
616 30 0.190028 0.283818 0.5
634 25 0.201289 0.312229 0.5
361 31 0.242028 0.267366 0.5
62 30 0.221989 0.291567 0.5
883 33 0.255075 0.299035 0.5
410 34 0.277378 0.274364 0.5
620 29 0.292577 0.302405 0.5
693 30 0.316393 0.276477 0.5
593 28 0.342396 0.258996 0.5
928 31 0.343816 0.289271 0.5
105 31 0.37297 0.264627 0.5
79 33 0.376537 0.296369 0.5
65 31 0.403821 0.273727 0.5
595 32 0.409007 0.308388 0.5
368 31 0.456564 0.260224 0.5
309 32 0.438672 0.288673 0.5
17 29 0.469151 0.298634 0.5
887 31 0.491109 0.271491 0.5
491 30 0.498945 0.304676 0.5
112 28 0.520919 0.278376 0.5
357 33 0.531308 0.313117 0.5
23 29 0.552005 0.284231 0.5
281 28 0.582036 0.287315 0.5
364 31 0.607051 0.269062 0.5
952 32 0.611585 0.301819 0.5
519 28 0.667059 0.255649 0.5
590 28 0.639782 0.275142 0.5
295 32 0.643762 0.308392 0.5
289 27 0.668105 0.287122 0.5
294 30 0.696797 0.265126 0.5
110 30 0.705562 0.301599 0.5
867 33 0.730996 0.275001 0.5
713 33 0.765667 0.284333 0.5
135 30 0.740151 0.310234 0.5
632 30 0.77992 0.318141 0.5
818 28 0.799328 0.29467 0.5
533 32 0.838189 0.304893 0.5
188 31 0.854621 0.277334 0.5
951 30 0.889594 0.288313 0.5
764 33 0.86805 0.312084 0.5
680 30 0.92175 0.297975 0.5
872 34 0.935554 0.267824 0.5
234 32 0.953993 0.3036 0.5
959 29 0.970436 0.27342 0.5
812 29 0.0195202 0.323764 0.5
514 28 0.0293132 0.360253 0.5
790 31 0.997327 0.347997 0.5
524 32 0.0757826 0.311989 0.5
450 28 0.053287 0.333253 0.5
543 32 0.081584 0.34682 0.5
287 33 0.0599221 0.372663 0.5
300 33 0.1087 0.3208 0.5
804 30 0.117419 0.351328 0.5
186 31 0.14634 0.331244 0.5
51 31 0.151011 0.36199 0.5
602 28 0.178681 0.328943 0.5
965 30 0.209541 0.34174 0.5
284 32 0.237912 0.324588 0.5
126 31 0.27327 0.329114 0.5
371 30 0.251301 0.354276 0.5
128 31 0.278594 0.365939 0.5
470 30 0.302852 0.345656 0.5
29 30 0.321401 0.316255 0.5
758 27 0.333784 0.348321 0.5
956 32 0.353856 0.325666 0.5
388 29 0.363549 0.357641 0.5
406 30 0.383574 0.328398 0.5
814 31 0.416351 0.340984 0.5
504 34 0.441536 0.320568 0.5
549 30 0.449139 0.35271 0.5
893 30 0.472809 0.329183 0.5
767 34 0.504505 0.339758 0.5
870 30 0.47984 0.360787 0.5
688 29 0.563417 0.312508 0.5
730 31 0.536869 0.345179 0.5
816 31 0.569771 0.351519 0.5
431 31 0.592495 0.325843 0.5
282 29 0.603238 0.36121 0.5
381 31 0.623788 0.33623 0.5
47 31 0.658216 0.346559 0.5
760 29 0.68119 0.322725 0.5
271 30 0.690436 0.354826 0.5
862 28 0.720473 0.332791 0.5
695 27 0.730724 0.364045 0.5
338 30 0.756418 0.340046 0.5
793 30 0.789028 0.3495 0.5
960 34 0.811336 0.324546 0.5
95 31 0.821353 0.363044 0.5
579 29 0.846428 0.337308 0.5
726 30 0.877018 0.343282 0.5
631 30 0.851998 0.368456 0.5
830 30 0.901899 0.321836 0.5
534 32 0.908665 0.3539 0.5
212 28 0.932272 0.330449 0.5
495 31 0.938126 0.362249 0.5
447 33 0.986474 0.316362 0.5
541 31 0.962779 0.338077 0.5
789 29 0.0382771 0.39537 0.5
145 28 0.0135385 0.418022 0.5
594 32 0.00602325 0.387922 0.5
399 32 0.0454604 0.428274 0.5
10 30 0.0959995 0.374517 0.5
948 33 0.0756649 0.402577 0.5
286 31 0.10639 0.410516 0.5
475 29 0.126047 0.385132 0.5
32 27 0.15859 0.393981 0.5
937 31 0.1832 0.363891 0.5
825 33 0.192346 0.399189 0.5
20 32 0.218115 0.372225 0.5
117 31 0.226991 0.406932 0.5
99 28 0.25336 0.387322 0.5
796 29 0.309022 0.377182 0.5
722 32 0.283753 0.398661 0.5
446 30 0.314039 0.408497 0.5
266 32 0.340363 0.37963 0.5
479 26 0.347311 0.413684 0.5
820 30 0.372806 0.393608 0.5
347 36 0.393852 0.370782 0.5
275 31 0.404886 0.407603 0.5
619 31 0.426176 0.374446 0.5
915 29 0.4347 0.405778 0.5
560 30 0.4582 0.382705 0.5
185 33 0.465977 0.411948 0.5
691 34 0.517267 0.37211 0.5
864 28 0.489329 0.390704 0.5
297 30 0.517812 0.403299 0.5
43 32 0.549339 0.373754 0.5
404 31 0.552205 0.415556 0.5
522 33 0.57768 0.390451 0.5
46 32 0.608647 0.397232 0.5
997 32 0.586612 0.427335 0.5
35 33 0.635293 0.370143 0.5
868 34 0.667468 0.380477 0.5
318 32 0.641938 0.402969 0.5
633 30 0.678498 0.410105 0.5
861 32 0.701748 0.384804 0.5
969 30 0.709923 0.418741 0.5
88 35 0.736511 0.39793 0.5
630 31 0.760994 0.371238 0.5
489 27 0.766323 0.406221 0.5
231 31 0.791643 0.384348 0.5
601 31 0.821303 0.397168 0.5
696 29 0.795964 0.416824 0.5
854 29 0.838461 0.422157 0.5
187 32 0.88404 0.375038 0.5
876 31 0.861177 0.399499 0.5
134 32 0.893651 0.410088 0.5
833 31 0.916984 0.388941 0.5
204 32 0.950219 0.398885 0.5
918 34 0.972401 0.371842 0.5
19 30 0.980635 0.4096 0.5
624 28 0.0227372 0.447767 0.5
359 32 0.0334593 0.480348 0.5
865 27 0.0542004 0.458319 0.5
151 33 0.0780415 0.439293 0.5
486 33 0.0896633 0.469177 0.5
45 30 0.137642 0.414085 0.5
351 31 0.109312 0.443718 0.5
640 33 0.144124 0.447602 0.5
732 30 0.16776 0.427722 0.5
205 29 0.174373 0.456766 0.5
739 35 0.25734 0.419479 0.5
226 31 0.197878 0.436547 0.5
494 27 0.228158 0.44236 0.5
535 28 0.253787 0.456257 0.5
958 27 0.290782 0.428369 0.5
576 31 0.285861 0.45782 0.5
417 28 0.320094 0.437483 0.5
304 29 0.318815 0.468393 0.5
246 32 0.349774 0.44426 0.5
840 29 0.376978 0.423719 0.5
547 32 0.38319 0.455813 0.5
327 31 0.410153 0.438502 0.5
323 30 0.411016 0.4718 0.5
638 37 0.444632 0.441528 0.5
392 30 0.497954 0.427306 0.5
899 27 0.475613 0.447937 0.5
184 29 0.506216 0.463903 0.5
411 31 0.52672 0.438082 0.5
850 28 0.536407 0.469495 0.5
83 31 0.560466 0.447836 0.5
843 32 0.59639 0.45773 0.5
635 27 0.618368 0.428492 0.5
981 30 0.626922 0.458231 0.5
70 29 0.648192 0.434277 0.5
584 28 0.658952 0.467482 0.5
142 31 0.681643 0.443595 0.5
772 31 0.715076 0.448079 0.5
463 29 0.739032 0.429473 0.5
827 35 0.74756 0.459859 0.5
880 34 0.772104 0.437318 0.5
93 35 0.793296 0.468138 0.5
853 26 0.81829 0.443663 0.5
119 30 0.84617 0.463158 0.5
869 31 0.865679 0.438786 0.5
190 34 0.881391 0.473291 0.5
129 33 0.925785 0.419479 0.5
725 34 0.901875 0.442638 0.5
684 28 0.938166 0.453888 0.5
1 29 0.957201 0.429814 0.5
985 28 0.993653 0.441957 0.5
515 30 0.969591 0.460079 0.5
913 30 1.00174 0.471518 0.5
207 31 0.0381153 0.511071 0.5
109 35 0.00342806 0.504437 0.5
441 30 0.0662919 0.492547 0.5
422 30 0.0972483 0.502645 0.5
352 29 0.0745364 0.522706 0.5
152 32 0.12114 0.475609 0.5
220 30 0.152873 0.48012 0.5
423 32 0.13182 0.507118 0.5
942 28 0.110485 0.529876 0.5
498 30 0.161127 0.517033 0.5
127 27 0.182162 0.488849 0.5
344 27 0.203486 0.467984 0.5
86 30 0.21585 0.502051 0.5
48 28 0.232686 0.476 0.5
657 28 0.246746 0.507859 0.5
907 29 0.265206 0.485851 0.5
717 30 0.277119 0.515891 0.5
460 32 0.301631 0.495182 0.5
320 32 0.332465 0.497637 0.5
863 29 0.355243 0.47508 0.5
370 33 0.364184 0.512603 0.5
198 32 0.38693 0.489637 0.5
209 29 0.393788 0.523084 0.5
437 31 0.442664 0.474585 0.5
235 32 0.421873 0.505255 0.5
49 29 0.454747 0.503801 0.5
711 32 0.476633 0.478614 0.5
678 30 0.488762 0.51097 0.5
432 30 0.514389 0.491207 0.5
654 28 0.551522 0.503171 0.5
683 32 0.575031 0.482758 0.5
118 29 0.584115 0.517211 0.5
474 29 0.605258 0.487377 0.5
774 32 0.616856 0.523011 0.5
319 30 0.639368 0.493486 0.5
724 34 0.670513 0.500977 0.5
254 31 0.68937 0.47457 0.5
675 29 0.723856 0.481806 0.5
285 30 0.701968 0.505233 0.5
484 32 0.7368 0.511648 0.5
322 27 0.762489 0.494316 0.5
299 28 0.774549 0.530033 0.5
240 30 0.796255 0.506578 0.5
546 31 0.822841 0.489054 0.5
839 29 0.833173 0.517778 0.5
747 28 0.85824 0.497259 0.5
477 31 0.8866 0.507218 0.5
801 29 0.861306 0.529634 0.5
160 30 0.915445 0.479229 0.5
98 32 0.945582 0.484834 0.5
200 32 0.918463 0.51204 0.5
538 32 0.971127 0.503976 0.5
401 28 0.949032 0.526071 0.5
612 29 0.977998 0.53534 0.5
889 29 0.026579 0.56523 0.5
462 30 0.0464483 0.542203 0.5
236 35 0.013473 0.535362 0.5
472 29 0.0852211 0.552461 0.5
617 32 0.0590785 0.572631 0.5
433 28 0.115167 0.563825 0.5
468 29 0.139031 0.539681 0.5
82 32 0.146377 0.569865 0.5
909 29 0.19142 0.523185 0.5
627 31 0.171588 0.548944 0.5
552 30 0.203102 0.557309 0.5
947 32 0.223737 0.532541 0.5
989 32 0.233178 0.561845 0.5
604 27 0.257334 0.539208 0.5
890 32 0.265115 0.571175 0.5
222 31 0.308964 0.526293 0.5
667 29 0.288644 0.54905 0.5
291 29 0.318155 0.55838 0.5
526 30 0.339277 0.535926 0.5
639 27 0.346956 0.569427 0.5
386 33 0.369753 0.547338 0.5
5 32 0.37759 0.579145 0.5
25 31 0.399938 0.556153 0.5
908 27 0.42535 0.536101 0.5
362 31 0.435257 0.564624 0.5
481 30 0.46544 0.531593 0.5
108 32 0.469212 0.562922 0.5
354 32 0.497468 0.544071 0.5
454 31 0.523605 0.521953 0.5
496 30 0.553071 0.534816 0.5
302 29 0.528235 0.552616 0.5
570 32 0.557298 0.567368 0.5
64 31 0.582653 0.547598 0.5
932 29 0.591254 0.581665 0.5
573 30 0.647801 0.526004 0.5
904 32 0.614065 0.559171 0.5
123 25 0.660101 0.555594 0.5
415 28 0.681382 0.531757 0.5
195 33 0.693082 0.561463 0.5
599 32 0.714015 0.534342 0.5
878 31 0.723857 0.571356 0.5
50 31 0.748736 0.550489 0.5
56 29 0.779131 0.560126 0.5
759 33 0.807009 0.53895 0.5
810 31 0.814994 0.56996 0.5
237 32 0.838371 0.549076 0.5
946 30 0.891214 0.53728 0.5
149 29 0.867664 0.560038 0.5
238 28 0.844729 0.580835 0.5
916 28 0.901102 0.566403 0.5
689 30 0.923495 0.544652 0.5
396 31 0.932547 0.576137 0.5
643 29 0.957541 0.555667 0.5
647 30 0.993742 0.56338 0.5
328 27 0.97047 0.582161 0.5
510 32 0.033815 0.599214 0.5
775 32 0.00876124 0.630817 0.5
224 30 1.00202 0.593554 0.5
714 30 0.087948 0.584021 0.5
518 30 0.0636439 0.610403 0.5
398 33 0.0963019 0.618186 0.5
567 30 0.120397 0.593268 0.5
342 34 0.126415 0.627311 0.5
339 33 0.1508 0.60391 0.5
257 32 0.179418 0.580942 0.5
439 29 0.181149 0.616584 0.5
659 32 0.211358 0.586806 0.5
387 30 0.211808 0.621179 0.5
554 30 0.24211 0.599909 0.5
59 28 0.295093 0.58519 0.5
37 30 0.271963 0.60762 0.5
53 32 0.305818 0.618832 0.5
800 27 0.323528 0.591143 0.5
189 23 0.333946 0.626688 0.5
565 29 0.351696 0.605391 0.5
941 30 0.391477 0.614287 0.5
150 34 0.367717 0.635094 0.5
507 30 0.411225 0.58674 0.5
453 28 0.428009 0.620907 0.5
30 31 0.445081 0.594938 0.5
699 27 0.464194 0.627288 0.5
978 27 0.499099 0.57224 0.5
373 32 0.476873 0.598763 0.5
817 33 0.505832 0.611035 0.5
337 30 0.529006 0.584528 0.5
334 32 0.539961 0.618578 0.5
395 29 0.567366 0.602284 0.5
945 32 0.614799 0.601658 0.5
681 28 0.637471 0.579164 0.5
356 28 0.644082 0.61266 0.5
562 33 0.666313 0.589758 0.5
153 33 0.679085 0.622484 0.5
276 32 0.704884 0.598935 0.5
435 28 0.735243 0.608395 0.5
613 29 0.756758 0.587254 0.5
183 29 0.767205 0.615509 0.5
539 31 0.791373 0.592763 0.5
757 34 0.82443 0.605446 0.5
924 28 0.804655 0.628748 0.5
314 31 0.83476 0.638622 0.5
147 30 0.856612 0.613444 0.5
992 33 0.880023 0.591224 0.5
873 31 0.88698 0.623243 0.5
248 28 0.908669 0.603304 0.5
223 26 0.927376 0.629699 0.5
931 30 0.948479 0.603643 0.5
998 31 0.977834 0.61346 0.5
731 32 0.958731 0.638931 0.5
315 30 0.0415922 0.636626 0.5
970 27 0.0247188 0.662262 0.5
954 28 0.0597639 0.673481 0.5
146 28 0.0802316 0.64443 0.5
391 28 0.0884346 0.683843 0.5
718 26 0.105248 0.660124 0.5
15 32 0.140268 0.665728 0.5
131 29 0.117407 0.691391 0.5
891 32 0.157174 0.637413 0.5
610 30 0.170483 0.673385 0.5
316 34 0.193671 0.648137 0.5
490 31 0.207019 0.677305 0.5
884 33 0.25345 0.633051 0.5
650 30 0.226915 0.651359 0.5
203 34 0.258947 0.665923 0.5
366 30 0.285056 0.642814 0.5
419 32 0.297525 0.677621 0.5
3 32 0.315483 0.648248 0.5
78 26 0.347589 0.658307 0.5
122 30 0.32919 0.685381 0.5
330 29 0.3765 0.669348 0.5
537 29 0.401681 0.648672 0.5
877 30 0.416889 0.67784 0.5
268 36 0.440007 0.650197 0.5
609 30 0.471051 0.658196 0.5
755 28 0.497502 0.640835 0.5
773 26 0.511508 0.670295 0.5
993 30 0.52836 0.647978 0.5
708 29 0.54847 0.669445 0.5
107 30 0.56911 0.644881 0.5
76 29 0.57545 0.684054 0.5
159 32 0.591072 0.62175 0.5
858 31 0.622069 0.633161 0.5
482 30 0.597968 0.660953 0.5
926 32 0.631444 0.665278 0.5
321 31 0.654643 0.642884 0.5
746 28 0.691216 0.659784 0.5
163 28 0.712643 0.634274 0.5
703 30 0.722015 0.66969 0.5
527 30 0.743754 0.638332 0.5
605 28 0.75928 0.675667 0.5
990 34 0.78367 0.65186 0.5
669 34 0.788892 0.685893 0.5
483 29 0.814107 0.665511 0.5
975 29 0.844518 0.669996 0.5
501 32 0.866454 0.646431 0.5
964 32 0.875082 0.678165 0.5
459 33 0.897874 0.653958 0.5
38 30 0.928773 0.664528 0.5
905 30 0.98899 0.656114 0.5
242 33 0.961929 0.671817 0.5
710 33 0.000584753 0.685555 0.5
67 30 0.0366008 0.693066 0.5
261 33 0.03811 0.723702 0.5
74 32 0.0666508 0.70627 0.5
819 30 0.0964888 0.714435 0.5
721 29 0.072875 0.739329 0.5
380 34 0.149005 0.697879 0.5
987 32 0.126777 0.722906 0.5
148 32 0.159457 0.729925 0.5
449 29 0.180355 0.703042 0.5
903 31 0.190113 0.734434 0.5
852 32 0.211889 0.70906 0.5
592 28 0.235389 0.690074 0.5
511 33 0.247819 0.718651 0.5
374 32 0.269957 0.697017 0.5
473 31 0.281575 0.727554 0.5
572 32 0.307038 0.708554 0.5
808 29 0.35868 0.694636 0.5
61 31 0.338894 0.717729 0.5
451 31 0.312112 0.7393 0.5
551 30 0.371813 0.726071 0.5
979 32 0.391229 0.701886 0.5
752 29 0.400099 0.733206 0.5
835 31 0.447855 0.685162 0.5
509 29 0.426156 0.706996 0.5
735 29 0.461211 0.714639 0.5
69 32 0.480926 0.687816 0.5
173 30 0.493827 0.719119 0.5
335 32 0.521214 0.699144 0.5
243 31 0.52427 0.730156 0.5
741 32 0.552142 0.707079 0.5
558 31 0.58583 0.715597 0.5
250 30 0.606778 0.689954 0.5
520 31 0.623785 0.720464 0.5
591 29 0.666112 0.677517 0.5
499 26 0.639943 0.694976 0.5
340 27 0.673819 0.707901 0.5
292 30 0.697438 0.690781 0.5
782 29 0.709242 0.718504 0.5
655 30 0.73697 0.697923 0.5
308 29 0.741121 0.730348 0.5
588 29 0.767028 0.710591 0.5
583 28 0.799543 0.719724 0.5
221 27 0.826404 0.69414 0.5
697 33 0.831818 0.730064 0.5
436 31 0.853794 0.706388 0.5
922 33 0.88454 0.723324 0.5
656 27 0.86044 0.742197 0.5
249 32 0.905553 0.688798 0.5
505 31 0.940178 0.69828 0.5
828 30 0.916259 0.722942 0.5
466 35 0.949528 0.728911 0.5
194 31 0.00581649 0.716082 0.5
113 32 0.975912 0.706657 0.5
213 31 0.979266 0.738862 0.5
161 29 0.0462834 0.754468 0.5
350 25 0.0151757 0.74794 0.5
193 29 0.0196904 0.778282 0.5
170 32 0.0545357 0.785519 0.5
894 29 0.106464 0.745958 0.5
172 26 0.083811 0.766269 0.5
743 31 0.112747 0.775607 0.5
247 28 0.138898 0.754429 0.5
809 29 0.144354 0.784967 0.5
461 31 0.168541 0.759288 0.5
646 29 0.200204 0.7703 0.5
670 32 0.174867 0.793138 0.5
180 31 0.221784 0.741831 0.5
701 33 0.232267 0.774302 0.5
71 32 0.255752 0.751043 0.5
896 30 0.28592 0.765864 0.5
414 32 0.263857 0.78856 0.5
525 29 0.32564 0.773011 0.5
230 31 0.347226 0.75059 0.5
623 33 0.357974 0.77997 0.5
467 31 0.382256 0.758032 0.5
523 27 0.412814 0.764133 0.5
102 27 0.438436 0.733493 0.5
769 30 0.467413 0.74691 0.5
104 28 0.441227 0.771368 0.5
253 30 0.47765 0.78217 0.5
930 29 0.504457 0.754844 0.5
420 32 0.534387 0.762377 0.5
445 32 0.562123 0.738184 0.5
139 30 0.564773 0.767884 0.5
492 34 0.598581 0.747394 0.5
836 30 0.594959 0.78232 0.5
258 34 0.63161 0.75653 0.5
115 27 0.652702 0.73055 0.5
75 27 0.688308 0.740935 0.5
182 31 0.664019 0.762879 0.5
68 31 0.693289 0.775616 0.5
895 30 0.716968 0.749472 0.5
211 26 0.721217 0.789184 0.5
955 29 0.747014 0.759412 0.5
719 27 0.773204 0.74082 0.5
780 30 0.777244 0.772535 0.5
219 29 0.802938 0.750897 0.5
502 28 0.831852 0.762321 0.5
660 29 0.810197 0.781621 0.5
842 29 0.842674 0.794614 0.5
97 27 0.888858 0.753598 0.5
622 30 0.86538 0.774811 0.5
89 30 0.894997 0.783524 0.5
642 31 0.92188 0.755654 0.5
34 31 0.930402 0.789365 0.5
143 30 0.953708 0.760052 0.5
28 29 0.989519 0.770532 0.5
262 31 0.0316306 0.80692 0.5
227 31 0.0609536 0.8237 0.5
197 30 0.0850396 0.797991 0.5
811 29 0.0957589 0.832506 0.5
953 30 0.117002 0.808673 0.5
81 29 0.147811 0.815326 0.5
181 31 0.124541 0.842402 0.5
488 29 0.181501 0.823887 0.5
608 30 0.205651 0.801522 0.5
517 33 0.211796 0.832822 0.5
927 31 0.23715 0.808229 0.5
934 28 0.241386 0.84098 0.5
536 29 0.26412 0.820682 0.5
831 30 0.296017 0.795739 0.5
389 34 0.30844 0.832311 0.5
14 30 0.326633 0.804227 0.5
682 33 0.359864 0.817679 0.5
178 27 0.340111 0.841929 0.5
738 31 0.390018 0.789472 0.5
649 33 0.397973 0.826035 0.5
982 31 0.420811 0.797116 0.5
256 32 0.431503 0.828122 0.5
898 29 0.451169 0.80259 0.5
444 32 0.50935 0.783487 0.5
598 32 0.486446 0.814289 0.5
16 31 0.520438 0.814401 0.5
485 32 0.542356 0.79465 0.5
31 27 0.551635 0.82428 0.5
63 30 0.571278 0.801111 0.5
569 31 0.632733 0.789761 0.5
919 28 0.609244 0.810364 0.5
408 29 0.638857 0.822065 0.5
214 32 0.667313 0.795526 0.5
397 31 0.674021 0.828425 0.5
938 27 0.699216 0.809463 0.5
528 32 0.728914 0.817527 0.5
229 31 0.703723 0.839041 0.5
379 29 0.757519 0.795483 0.5
663 31 0.786738 0.802512 0.5
589 28 0.760458 0.825945 0.5
933 30 0.795065 0.836432 0.5
52 33 0.817577 0.814339 0.5
393 34 0.826273 0.848735 0.5
210 29 0.847817 0.824895 0.5
846 32 0.873902 0.807177 0.5
849 32 0.875781 0.839542 0.5
939 33 0.903947 0.815011 0.5
943 36 0.941265 0.82104 0.5
378 31 0.909687 0.846996 0.5
516 34 0.963322 0.794929 0.5
614 30 0.998223 0.804726 0.5
33 30 0.97882 0.829093 0.5
448 31 0.0121716 0.832837 0.5
58 29 0.0371279 0.849945 0.5
168 33 0.0426736 0.881275 0.5
886 29 0.0121971 0.869125 0.5
920 30 0.016505 0.903615 0.5
385 31 0.0707836 0.8529 0.5
279 31 0.0742984 0.88894 0.5
577 33 0.10183 0.866744 0.5
442 32 0.135316 0.875301 0.5
252 32 0.110524 0.896323 0.5
280 34 0.159003 0.848269 0.5
218 27 0.166345 0.87927 0.5
961 30 0.191024 0.859138 0.5
455 31 0.199923 0.889348 0.5
559 31 0.220305 0.865222 0.5
707 37 0.254249 0.870984 0.5
844 31 0.279373 0.848677 0.5
860 30 0.28945 0.881884 0.5
629 28 0.314949 0.862941 0.5
464 30 0.346608 0.871422 0.5
96 30 0.323636 0.893415 0.5
921 33 0.372171 0.849699 0.5
871 30 0.388351 0.878537 0.5
430 32 0.410255 0.855211 0.5
845 29 0.41764 0.888505 0.5
763 32 0.464275 0.839005 0.5
390 31 0.442747 0.862728 0.5
788 32 0.471912 0.86876 0.5
798 32 0.49895 0.846038 0.5
305 30 0.501765 0.879812 0.5
795 33 0.530802 0.846454 0.5
715 27 0.561291 0.856667 0.5
355 31 0.580096 0.831717 0.5
704 32 0.594483 0.869546 0.5
241 32 0.61356 0.845051 0.5
838 27 0.624351 0.875418 0.5
365 29 0.644536 0.855722 0.5
644 30 0.652056 0.88637 0.5
57 31 0.680791 0.860633 0.5
272 33 0.713144 0.869404 0.5
768 31 0.740981 0.848515 0.5
677 34 0.744093 0.886971 0.5
208 31 0.77153 0.859037 0.5
106 26 0.774469 0.896614 0.5
382 33 0.803034 0.87197 0.5
55 29 0.830409 0.888176 0.5
803 31 0.854691 0.8671 0.5
346 30 0.891594 0.872017 0.5
561 31 0.863782 0.89814 0.5
685 30 0.94271 0.856038 0.5
923 32 0.922136 0.880397 0.5
24 30 0.955265 0.886533 0.5
648 28 0.974309 0.858939 0.5
487 30 0.985976 0.890277 0.5
720 30 0.0263648 0.938371 0.5
837 31 0.0514243 0.913356 0.5
407 29 0.0824906 0.922036 0.5
802 32 0.0608122 0.94561 0.5
813 30 0.0930695 0.951216 0.5
596 29 0.11631 0.925541 0.5
274 29 0.142925 0.904052 0.5
976 27 0.15247 0.932352 0.5
984 31 0.176184 0.912279 0.5
232 29 0.184026 0.942947 0.5
367 29 0.204276 0.920968 0.5
469 33 0.231775 0.8971 0.5
991 31 0.236177 0.930678 0.5
427 31 0.264913 0.911642 0.5
996 29 0.274971 0.94316 0.5
325 31 0.29644 0.913339 0.5
440 34 0.360534 0.90129 0.5
900 28 0.328766 0.926242 0.5
914 28 0.360825 0.935972 0.5
568 31 0.395566 0.910422 0.5
201 32 0.404543 0.941987 0.5
856 29 0.427102 0.920317 0.5
582 30 0.447943 0.893713 0.5
409 30 0.455864 0.928357 0.5
607 33 0.479848 0.90393 0.5
734 31 0.492247 0.93325 0.5
744 32 0.517099 0.905641 0.5
307 31 0.539399 0.87782 0.5
358 29 0.567966 0.888468 0.5
742 31 0.547842 0.916501 0.5
192 33 0.581112 0.926882 0.5
312 34 0.603208 0.901609 0.5
824 31 0.613545 0.934919 0.5
138 31 0.637787 0.913436 0.5
100 32 0.672657 0.921948 0.5
164 32 0.689624 0.892413 0.5
737 32 0.710574 0.935134 0.5
797 31 0.719621 0.905325 0.5
653 28 0.750969 0.919266 0.5
994 30 0.745969 0.949177 0.5
940 29 0.778444 0.932111 0.5
661 30 0.802929 0.907623 0.5
12 32 0.839241 0.918677 0.5
310 32 0.87759 0.927916 0.5
901 33 0.850989 0.95229 0.5
766 30 0.90101 0.904178 0.5
700 29 0.910287 0.935887 0.5
377 29 0.934511 0.918432 0.5
313 32 0.942441 0.948203 0.5
618 33 0.968076 0.925158 0.5
245 27 0.998284 0.928886 0.5
712 30 0.976733 0.955349 0.5
155 30 0.0548462 0.00459527 0.5
513 29 0.0159134 0.996456 0.5
199 33 0.0389218 0.972571 0.5
345 31 0.00528837 0.963854 0.5
66 31 0.0751472 0.978334 0.5
706 31 0.108476 0.988645 0.5
215 29 0.137884 0.997138 0.5
694 31 0.125336 0.956469 0.5
18 35 0.157587 0.965274 0.5
239 32 0.196062 0.981406 0.5
673 29 0.215759 0.953933 0.5
668 27 0.22711 0.984083 0.5
169 27 0.250267 0.96588 0.5
278 32 0.265416 0.993911 0.5
957 33 0.310261 0.952006 0.5
966 28 0.286776 0.971669 0.5
823 30 0.320727 0.984456 0.5
167 29 0.345279 0.962095 0.5
664 31 0.358007 0.995424 0.5
331 29 0.37552 0.964199 0.5
457 33 0.407953 0.974895 0.5
645 31 0.435846 0.95216 0.5
263 30 0.467778 0.956883 0.5
761 30 0.4412 0.986658 0.5
413 29 0.474827 0.990408 0.5
603 30 0.49546 0.965432 0.5
317 33 0.524804 0.939945 0.5
944 30 0.531314 0.973243 0.5
963 29 0.558908 0.950104 0.5
329 32 0.566435 0.981435 0.5
832 35 0.590864 0.958072 0.5
360 25 0.618904 0.968646 0.5
530 30 0.6493 0.977524 0.5
912 34 0.680451 0.953713 0.5
301 33 0.648968 0.946073 0.5
103 31 0.692583 0.98777 0.5
158 32 0.717742 0.967025 0.5
857 34 0.735833 -0.00423213 0.5
855 31 0.766584 0.97202 0.5
986 30 0.799604 0.964654 0.5
749 29 0.815634 0.937984 0.5
353 30 0.828747 0.978387 0.5
332 29 0.862175 0.9868 0.5
676 31 0.885441 0.958551 0.5
375 30 0.890959 0.993223 0.5
369 32 0.916545 0.968266 0.5
806 29 0.947361 0.981458 0.5
202 34 0.979291 0.989845 0.5
