ITEM: TIMESTEP
2500000
ITEM: NUMBER OF ATOMS
1000
ITEM: BOX BOUNDS pp pp pp
-1.7509098000000002e+01 1.7509098000000002e+01
-1.7509098000000002e+01 1.7509098000000002e+01
-5.0000000000000000e-01 5.0000000000000000e-01
ITEM: ATOMS id type xs ys zs
30 31 0.997735 0.982277 0.5
973 27 0.0118417 0.0526646 0.5
185 33 0.973023 0.0444797 0.5
699 27 0.0506017 0.0954537 0.5
17 29 0.00714431 0.00648061 0.5
160 30 0.101595 0.0480902 0.5
960 34 0.0341021 0.985967 0.5
178 27 0.11159 0.0713774 0.5
351 31 0.135325 0.977056 0.5
794 31 0.12457 0.0201625 0.5
16 31 0.203689 -0.000467678 0.5
330 29 0.318666 0.0111027 0.5
738 31 0.299234 0.0296671 0.5
932 29 0.188017 0.978695 0.5
938 27 0.320557 0.982476 0.5
212 28 0.350011 0.0497248 0.5
110 30 0.327566 0.0395915 0.5
784 29 0.375711 0.0438265 0.5
873 31 0.34949 0.0216825 0.5
98 32 0.322732 0.0718933 0.5
498 30 0.451887 0.0516251 0.5
361 31 0.413221 0.0520615 0.5
251 31 0.397116 0.0246621 0.5
395 29 0.507066 0.0431378 0.5
470 30 0.474339 0.0254497 0.5
308 29 0.47914 0.0588529 0.5
718 26 0.539848 1.0115 0.5
48 28 0.564459 0.044892 0.5
613 29 0.507871 0.0698612 0.5
919 28 0.533307 0.0477143 0.5
826 30 0.588883 0.0419177 0.5
136 33 0.60591 0.0195491 0.5
411 31 0.620063 0.0530632 0.5
741 32 0.702012 0.0774954 0.5
712 30 0.681163 0.0298686 0.5
958 27 0.708612 0.0109713 0.5
677 34 0.735842 0.0262907 0.5
522 33 0.712536 0.11079 0.5
63 30 0.769623 0.06877 0.5
952 32 0.70593 0.0433747 0.5
459 33 0.71374 0.979357 0.5
626 32 0.760369 0.0410371 0.5
76 29 0.822429 0.0305793 0.5
44 32 0.787469 0.0295423 0.5
837 31 0.90943 0.0513611 0.5
722 32 0.914771 -0.00756162 0.5
598 32 0.884972 0.0217705 0.5
158 32 0.851807 0.963742 0.5
124 29 0.964635 0.0744375 0.5
402 33 0.969297 0.109666 0.5
41 31 0.994175 0.072759 0.5
994 30 0.944706 0.988843 0.5
362 31 0.881352 0.981229 0.5
13 31 0.0352113 0.0755107 0.5
586 35 0.91784 0.150003 0.5
344 27 0.0178621 0.14152 0.5
558 31 0.0178715 0.107798 0.5
423 32 0.0776638 0.122226 0.5
807 27 0.0247888 0.0278606 0.5
788 32 0.0674645 0.0394327 0.5
959 29 0.0644994 0.0721167 0.5
581 27 0.157214 0.0310741 0.5
315 30 0.167466 0.082931 0.5
149 29 0.137011 0.0557004 0.5
886 29 0.13038 0.0891335 0.5
391 28 0.152156 0.112551 0.5
732 30 0.267073 0.00634148 0.5
820 30 0.185282 0.0271723 0.5
898 29 0.214981 0.0240436 0.5
963 29 0.297913 0.990026 0.5
824 31 0.259702 0.0351881 0.5
552 30 0.339581 0.101512 0.5
791 29 0.244463 0.0745039 0.5
365 29 0.282092 0.0550946 0.5
57 31 0.324591 0.125541 0.5
685 30 0.361143 0.0790593 0.5
566 31 0.408188 0.109578 0.5
313 32 0.406048 0.167726 0.5
442 32 0.438016 0.107817 0.5
236 35 0.407408 0.0817089 0.5
39 29 0.442876 0.0798672 0.5
852 32 0.46837 0.117776 0.5
513 29 0.492833 0.105756 0.5
150 34 0.565368 0.0848496 0.5
479 26 0.522385 0.102111 0.5
279 31 0.653159 0.0127131 0.5
400 32 0.624802 0.087098 0.5
49 29 0.596555 0.0682379 0.5
194 31 0.661482 0.135975 0.5
860 30 0.683237 0.0562891 0.5
632 30 0.647534 0.061053 0.5
863 29 0.660105 0.0858968 0.5
775 32 0.683032 0.106008 0.5
72 28 0.726668 0.060255 0.5
527 30 0.767317 0.0984907 0.5
253 30 0.803317 0.0503771 0.5
503 33 0.736818 0.139495 0.5
106 26 0.846241 0.0523635 0.5
872 34 0.816293 -0.00756937 0.5
472 29 0.874924 0.0449809 0.5
670 32 0.849857 0.0217926 0.5
460 32 0.887469 0.0695373 0.5
196 31 0.879113 0.103488 0.5
749 29 0.909116 0.102227 0.5
925 27 0.943071 0.09739 0.5
635 27 0.943964 0.0490359 0.5
704 32 0.846703 0.115159 0.5
697 33 0.987431 0.141009 0.5
659 32 0.063936 0.147803 0.5
363 28 0.0202881 0.188643 0.5
848 30 0.00450345 0.167859 0.5
510 32 0.0458827 0.125488 0.5
694 31 0.0324217 0.165601 0.5
787 29 0.131055 0.164429 0.5
721 29 0.130223 0.191974 0.5
73 31 0.100981 0.0999011 0.5
630 31 0.230661 0.0502154 0.5
647 30 0.137442 0.140231 0.5
669 34 0.23602 0.0989396 0.5
511 33 0.187657 0.0531778 0.5
12 32 0.265686 0.123277 0.5
696 29 0.207285 0.0733371 0.5
702 29 0.247961 0.182639 0.5
967 28 0.298335 0.123602 0.5
325 31 0.285949 0.14752 0.5
637 29 0.248185 0.14282 0.5
778 28 0.276893 0.0861651 0.5
388 29 0.412115 0.137685 0.5
587 33 0.379122 0.100341 0.5
152 32 0.419875 0.224393 0.5
291 29 0.383312 0.137878 0.5
559 31 0.431379 0.159154 0.5
186 31 0.476625 0.0838597 0.5
969 30 0.477996 0.173311 0.5
744 32 0.508291 0.132974 0.5
60 29 0.454685 0.145161 0.5
84 29 0.478796 0.146207 0.5
687 31 0.554446 0.113727 0.5
974 29 0.535141 0.14168 0.5
573 30 0.583393 0.110659 0.5
107 30 0.622279 0.12348 0.5
372 29 0.598383 0.144566 0.5
806 29 0.649377 0.112975 0.5
272 33 0.698359 0.137412 0.5
401 28 0.715216 0.205465 0.5
486 33 0.69677 0.184026 0.5
948 33 0.744696 0.0803476 0.5
100 32 0.741487 0.107361 0.5
640 33 0.766156 0.136162 0.5
293 33 0.802647 0.0916536 0.5
222 31 0.825196 0.0724026 0.5
708 29 0.821243 0.117352 0.5
367 29 0.818999 0.174283 0.5
19 30 0.84909 0.08637 0.5
644 30 0.788251 0.118078 0.5
575 31 0.904642 0.209696 0.5
329 32 0.83008 0.148904 0.5
743 31 0.9443 0.169164 0.5
412 30 0.936074 0.128804 0.5
398 33 0.892033 0.132508 0.5
793 30 0.0265324 0.233762 0.5
905 30 0.106985 0.155525 0.5
199 33 0.104093 0.188671 0.5
614 30 0.111912 0.126112 0.5
851 31 0.123835 0.243679 0.5
371 30 0.220257 0.127785 0.5
695 27 0.120898 0.27266 0.5
795 33 0.199076 0.108355 0.5
85 27 0.176976 0.125421 0.5
280 34 0.195582 0.145347 0.5
92 29 0.164213 0.150766 0.5
47 31 0.231716 0.222985 0.5
263 30 0.220475 0.158824 0.5
555 30 0.270283 0.168347 0.5
276 32 0.26324 0.20688 0.5
327 31 0.292435 0.179111 0.5
430 32 0.318212 0.189838 0.5
422 30 0.303678 0.0923478 0.5
933 30 0.349618 0.15806 0.5
646 29 0.448817 0.215663 0.5
838 27 0.353037 0.128629 0.5
680 30 0.401176 0.19632 0.5
432 30 0.429392 0.249763 0.5
796 29 0.431274 0.188367 0.5
143 30 0.497424 0.191735 0.5
159 32 0.528956 0.181785 0.5
947 32 0.510303 0.163551 0.5
314 31 0.561791 0.190655 0.5
345 31 0.566526 0.157387 0.5
140 30 0.61246 0.16932 0.5
246 32 0.612404 0.20022 0.5
538 32 0.510113 0.235956 0.5
501 32 0.637392 0.155074 0.5
461 31 0.717491 0.239387 0.5
496 30 0.649167 0.186315 0.5
771 28 0.692833 0.22715 0.5
656 27 0.789337 0.212873 0.5
930 29 0.761697 0.212851 0.5
306 29 0.716438 0.159648 0.5
682 33 0.736313 0.188183 0.5
570 32 0.793135 0.24154 0.5
572 32 0.755065 0.163214 0.5
130 30 0.801579 0.153036 0.5
920 30 0.784923 0.177397 0.5
815 30 0.814336 0.201211 0.5
976 27 0.859851 0.231948 0.5
604 27 0.929848 0.070486 0.5
899 27 0.849888 0.17182 0.5
627 31 0.915074 0.180329 0.5
652 35 0.878736 0.192391 0.5
591 29 0.859952 0.147988 0.5
177 28 0.960255 0.13844 0.5
333 30 0.0599001 0.214826 0.5
853 26 0.0726173 0.235761 0.5
983 31 0.0912972 0.215057 0.5
600 33 0.157843 0.176966 0.5
666 31 0.0797901 0.172772 0.5
404 31 0.147233 0.26995 0.5
480 29 0.171982 0.203991 0.5
311 29 0.0666135 0.275276 0.5
322 27 0.14686 0.226735 0.5
201 32 0.187237 0.182813 0.5
982 31 0.194613 0.287237 0.5
651 28 0.224672 0.197035 0.5
233 29 0.303679 0.258741 0.5
631 30 0.202142 0.222682 0.5
633 30 0.253564 0.246555 0.5
877 30 0.2826 0.237454 0.5
10 30 0.355579 0.242915 0.5
811 29 0.339576 0.221985 0.5
977 33 0.435698 0.27762 0.5
145 28 0.31868 0.156362 0.5
378 31 0.38574 0.22117 0.5
908 27 0.358094 0.198767 0.5
303 30 0.379728 0.174421 0.5
827 35 0.343601 0.26886 0.5
210 29 0.471336 0.1996 0.5
681 28 0.45638 0.242056 0.5
595 32 0.490407 0.2882 0.5
241 32 0.517178 0.271526 0.5
883 33 0.544754 0.295098 0.5
26 34 0.53903 0.251708 0.5
336 33 0.526219 0.211484 0.5
80 30 0.549259 0.222515 0.5
825 33 0.597505 0.280664 0.5
2 30 0.587202 0.180235 0.5
119 30 0.604103 0.230069 0.5
923 32 0.671568 0.203386 0.5
580 29 0.635832 0.223466 0.5
867 33 0.726796 0.268233 0.5
373 32 0.630274 0.25013 0.5
716 30 0.666584 0.236274 0.5
343 32 0.701103 0.320833 0.5
971 26 0.71661 0.295376 0.5
528 32 0.786799 0.28035 0.5
247 28 0.746147 0.242029 0.5
846 32 0.8323 0.232781 0.5
307 31 0.756911 0.276241 0.5
526 30 0.820013 0.270806 0.5
748 32 0.745179 0.303332 0.5
408 29 0.852133 0.345181 0.5
707 37 0.842689 0.203907 0.5
731 32 0.858244 0.260851 0.5
187 32 0.892913 0.260275 0.5
277 29 0.910984 0.234848 0.5
638 37 0.906882 0.285 0.5
563 33 0.943302 0.204805 0.5
154 30 0.976649 0.17348 0.5
761 30 0.955994 0.245677 0.5
946 30 -0.0119426 0.198233 0.5
420 32 0.970304 0.221186 0.5
508 29 0.0118821 0.253162 0.5
36 33 0.992311 0.271776 0.5
396 31 0.0377095 0.273611 0.5
593 28 0.0500267 0.249758 0.5
53 32 0.09536 0.258625 0.5
97 27 0.135584 0.301115 0.5
965 30 0.176453 0.255072 0.5
172 26 0.158957 0.311823 0.5
939 33 0.21145 0.253504 0.5
230 31 0.167386 0.287722 0.5
287 33 0.222864 0.301039 0.5
366 30 0.2352 0.268498 0.5
309 32 0.312475 0.232102 0.5
532 30 0.282564 0.276726 0.5
79 33 0.309349 0.285262 0.5
481 30 0.379027 0.2582 0.5
786 34 0.49181 0.257232 0.5
500 35 0.363684 0.300495 0.5
499 26 0.390139 0.315048 0.5
131 29 0.465366 0.266002 0.5
1 29 0.419181 0.299865 0.5
774 32 0.512714 0.303535 0.5
683 32 0.484433 0.222187 0.5
384 35 0.481016 0.316309 0.5
808 29 0.540334 0.336385 0.5
857 34 0.583278 0.246648 0.5
719 27 0.56287 0.273588 0.5
643 29 0.59948 0.308461 0.5
50 31 0.585323 0.209583 0.5
299 28 0.626893 0.283807 0.5
907 29 0.67026 0.33794 0.5
153 33 0.603697 0.339412 0.5
324 34 0.65829 0.278492 0.5
984 31 0.685941 0.294575 0.5
27 32 0.691408 0.263473 0.5
427 31 0.658832 0.3096 0.5
597 28 0.727435 0.356322 0.5
490 31 0.738366 0.3798 0.5
878 31 0.737772 0.330047 0.5
780 30 0.765296 0.321753 0.5
289 27 0.806448 0.295727 0.5
269 31 0.844732 0.311927 0.5
439 29 0.760879 0.397832 0.5
618 33 0.845411 0.283462 0.5
166 30 0.879502 0.365192 0.5
484 32 0.874521 0.322649 0.5
524 32 0.823079 0.348713 0.5
516 34 0.877288 0.291576 0.5
476 27 0.93621 0.284504 0.5
473 31 0.962927 0.273644 0.5
482 30 0.930854 0.258615 0.5
881 29 0.982267 0.246901 0.5
466 35 0.049386 0.29891 0.5
431 31 0.0138704 0.294405 0.5
93 35 0.0566478 0.411078 0.5
77 26 0.0964237 0.289897 0.5
6 24 0.0813007 0.377841 0.5
523 27 0.111824 0.312768 0.5
755 28 0.161651 0.342944 0.5
128 31 0.149665 0.376158 0.5
488 29 0.133784 0.343088 0.5
99 28 0.18288 0.312574 0.5
596 29 0.203578 0.368826 0.5
232 29 0.205663 0.397423 0.5
671 28 0.230236 0.402745 0.5
754 31 0.215126 0.338337 0.5
332 29 0.239134 0.328925 0.5
167 29 0.294386 0.308769 0.5
549 30 0.25956 0.291313 0.5
758 27 0.288042 0.341096 0.5
310 32 0.331138 0.320409 0.5
629 28 0.262579 0.354123 0.5
832 35 0.455007 0.333637 0.5
121 31 0.404295 0.267059 0.5
165 27 0.419413 0.342993 0.5
360 25 0.454607 0.30387 0.5
337 30 0.510491 0.438809 0.5
653 28 0.512774 0.330492 0.5
444 32 0.527987 0.361709 0.5
915 29 0.563183 0.317569 0.5
918 34 0.573619 0.342294 0.5
335 32 0.618997 0.375402 0.5
568 31 0.630003 0.317894 0.5
278 32 0.68429 0.399037 0.5
102 27 0.69428 0.346353 0.5
86 30 0.711025 0.3856 0.5
537 29 0.738602 0.416756 0.5
849 32 0.775182 0.444488 0.5
304 29 0.711132 0.437556 0.5
785 32 0.795661 0.352236 0.5
909 29 0.821567 0.395987 0.5
927 31 0.800746 0.321968 0.5
740 32 0.897304 0.424676 0.5
833 31 0.782643 0.379528 0.5
935 28 0.851965 0.378579 0.5
477 31 0.928417 0.310885 0.5
37 30 0.918913 0.366264 0.5
334 32 0.932234 0.337754 0.5
171 32 0.981034 0.297483 0.5
902 30 0.924188 0.412443 0.5
525 29 0.993061 0.359879 0.5
414 32 -0.00688604 0.323372 0.5
288 33 0.0308653 0.319937 0.5
255 30 0.0467791 0.378738 0.5
54 30 0.120017 0.393564 0.5
636 27 1.00963 0.378175 0.5
33 30 0.0590263 0.34074 0.5
979 32 0.0958756 0.346696 0.5
192 33 0.0442777 0.44034 0.5
534 32 0.189333 0.33806 0.5
663 31 0.177648 0.381164 0.5
264 31 0.172921 0.439579 0.5
679 35 0.159542 0.465426 0.5
999 33 0.233594 0.361916 0.5
213 31 0.202401 0.435622 0.5
654 28 0.227561 0.445513 0.5
891 32 0.337662 0.363678 0.5
173 30 0.258832 0.379202 0.5
148 32 0.3567 0.339042 0.5
120 30 0.314243 0.343952 0.5
714 30 0.267524 0.318971 0.5
781 30 0.384378 0.339362 0.5
434 28 0.399673 0.361152 0.5
78 26 0.408977 0.389586 0.5
842 29 0.432631 0.367195 0.5
996 29 0.468647 0.403213 0.5
3 32 0.505439 0.409326 0.5
514 28 0.465837 0.372933 0.5
96 30 0.466036 0.453327 0.5
132 31 0.506517 0.378098 0.5
295 32 0.488006 0.350155 0.5
954 28 0.596854 0.407166 0.5
817 33 0.631978 0.485566 0.5
839 29 0.533133 0.388803 0.5
953 30 0.57917 0.387774 0.5
970 27 0.633429 0.344373 0.5
759 33 0.683278 0.427002 0.5
207 31 0.655987 0.366596 0.5
668 27 0.680026 0.373193 0.5
779 33 0.656424 0.414815 0.5
541 31 0.779168 0.414993 0.5
296 30 0.711007 0.411518 0.5
655 30 0.759309 0.351076 0.5
688 29 0.739225 0.450693 0.5
733 33 0.851038 0.412058 0.5
274 29 0.804608 0.422119 0.5
658 33 0.944056 0.433047 0.5
814 31 0.881501 0.396155 0.5
585 31 0.981299 0.438184 0.5
870 30 0.901254 0.320804 0.5
560 30 0.951008 0.403393 0.5
65 31 0.960716 0.353219 0.5
711 32 0.957771 0.322175 0.5
900 28 0.0191628 0.353379 0.5
467 31 0.970717 0.381135 0.5
836 30 0.0297846 0.462355 0.5
751 28 0.105573 0.496812 0.5
58 29 0.0748332 0.472451 0.5
290 31 0.0480345 0.481813 0.5
497 31 0.147345 0.401937 0.5
164 32 0.090761 0.407814 0.5
228 29 0.120251 0.367105 0.5
377 29 0.106341 0.4621 0.5
163 28 0.113555 0.427947 0.5
562 33 0.0769986 0.437084 0.5
221 27 0.182751 0.409519 0.5
997 32 0.219125 0.477128 0.5
162 31 0.142248 0.437599 0.5
492 34 0.248547 0.492946 0.5
916 28 0.246724 0.425125 0.5
847 33 0.252237 0.458263 0.5
271 30 0.308299 0.403172 0.5
83 31 0.290417 0.370857 0.5
594 32 0.342333 0.435697 0.5
571 36 0.349636 0.401139 0.5
542 31 0.364241 0.366283 0.5
622 30 0.445309 0.39439 0.5
917 34 0.381117 0.409927 0.5
262 31 0.405485 0.449296 0.5
1000 33 0.448398 0.422839 0.5
312 34 0.481835 0.428423 0.5
252 32 0.496654 0.465126 0.5
601 31 0.475219 0.487661 0.5
710 33 0.531019 0.461846 0.5
583 28 0.543735 0.429147 0.5
624 28 0.596971 0.433349 0.5
768 31 0.636817 0.39641 0.5
418 32 0.596281 0.461058 0.5
355 31 0.624006 0.424239 0.5
426 27 0.598815 0.512498 0.5
457 33 0.630619 0.458963 0.5
941 30 0.657271 0.472466 0.5
821 29 0.659418 0.442787 0.5
535 28 0.659815 0.53759 0.5
507 30 0.684155 0.46072 0.5
734 31 0.713807 0.465716 0.5
436 31 0.764391 0.473442 0.5
776 31 0.829326 0.44077 0.5
993 30 0.79602 0.465918 0.5
798 32 0.905231 0.466264 0.5
195 33 0.884926 0.5088 0.5
972 30 0.956796 0.458209 0.5
715 27 0.917651 0.496254 0.5
258 34 0.99399 0.411327 0.5
354 32 0.0253788 0.406213 0.5
962 37 0.909507 0.540731 0.5
399 32 0.980287 0.468402 0.5
504 34 0.950767 0.489758 0.5
146 28 0.0438911 0.520283 0.5
726 30 0.0102092 0.436162 0.5
20 32 0.0159672 0.510314 0.5
144 32 0.0783191 0.501062 0.5
317 33 0.951843 0.539352 0.5
819 30 0.125317 0.528395 0.5
799 29 0.12412 0.562351 0.5
282 29 0.0744241 0.539834 0.5
485 32 0.131873 0.465014 0.5
686 30 0.192641 0.47148 0.5
855 31 0.279058 0.450958 0.5
208 31 0.205467 0.503447 0.5
728 32 0.179738 0.534342 0.5
413 29 0.273042 0.40428 0.5
174 31 0.207276 0.540869 0.5
985 28 0.307806 0.515612 0.5
505 31 0.315357 0.428941 0.5
302 29 0.286222 0.425266 0.5
844 31 0.309353 0.46278 0.5
70 29 0.376531 0.440397 0.5
266 32 0.347485 0.46454 0.5
285 30 0.356633 0.491591 0.5
543 32 0.37888 0.472037 0.5
931 30 0.365074 0.535155 0.5
319 30 0.409101 0.416982 0.5
700 29 0.405389 0.486602 0.5
782 29 0.454671 0.506646 0.5
4 31 0.440826 0.455549 0.5
831 30 0.468371 0.530527 0.5
227 31 0.433217 0.482997 0.5
871 30 0.487914 0.514139 0.5
88 35 0.51478 0.491623 0.5
379 29 0.549219 0.479484 0.5
650 30 0.558192 0.407093 0.5
305 30 0.547978 0.508897 0.5
823 30 0.622289 0.525095 0.5
888 29 0.57979 0.489407 0.5
813 30 0.571358 0.438879 0.5
385 31 0.700398 0.48946 0.5
995 28 0.661953 0.501413 0.5
109 35 0.570667 0.548351 0.5
55 29 0.706263 0.527105 0.5
189 23 0.685033 0.541978 0.5
443 29 0.731511 0.515648 0.5
184 29 0.710942 0.55381 0.5
297 30 0.822911 0.475595 0.5
220 30 0.793746 0.493011 0.5
843 32 0.732681 0.487556 0.5
112 28 0.849084 0.46193 0.5
104 28 0.930793 0.463737 0.5
116 27 0.877272 0.444351 0.5
661 30 0.935238 0.571491 0.5
990 34 0.87112 0.480322 0.5
23 29 0.973862 0.504891 0.5
359 32 0.934863 0.517488 0.5
190 34 0.00481045 0.485012 0.5
665 35 0.024447 0.57536 0.5
924 28 0.0602117 0.585159 0.5
464 30 0.096846 0.526352 0.5
667 29 0.153646 0.52967 0.5
386 33 0.112796 0.637295 0.5
940 29 0.175 0.503177 0.5
926 32 0.145796 0.494822 0.5
944 30 0.178744 0.59089 0.5
242 33 0.161379 0.568807 0.5
18 35 0.250194 0.551219 0.5
183 29 0.202813 0.566057 0.5
225 32 0.233118 0.576057 0.5
410 34 0.284422 0.487448 0.5
352 29 0.268879 0.576423 0.5
894 29 0.278478 0.55175 0.5
797 31 0.324121 0.485703 0.5
502 28 0.231937 0.521716 0.5
693 30 0.267235 0.524754 0.5
452 32 0.351573 0.562225 0.5
690 29 0.341617 0.518472 0.5
544 29 0.396297 0.541522 0.5
24 30 0.431148 0.571411 0.5
446 30 0.440791 0.543641 0.5
858 31 0.47003 0.557407 0.5
301 33 0.39777 0.513562 0.5
747 28 0.427124 0.516443 0.5
182 31 0.518764 0.518752 0.5
239 32 0.498923 0.555249 0.5
864 28 0.573389 0.516608 0.5
564 29 0.616648 0.578587 0.5
139 30 0.54169 0.537274 0.5
125 30 0.597263 0.55826 0.5
493 28 0.706925 0.614553 0.5
783 29 0.642652 0.5837 0.5
829 28 0.627499 0.552325 0.5
530 30 0.661907 0.56615 0.5
487 30 0.744546 0.645989 0.5
105 31 0.758487 0.502415 0.5
425 31 0.828876 0.501529 0.5
557 33 0.774235 0.542342 0.5
992 33 0.805135 0.521307 0.5
840 29 0.85489 0.51397 0.5
254 31 0.836531 0.535226 0.5
449 29 0.866071 0.566931 0.5
338 30 0.868392 0.540881 0.5
625 31 0.891723 0.563372 0.5
876 31 0.876304 0.590234 0.5
103 31 0.908052 0.585538 0.5
577 33 0.0241743 0.539598 0.5
805 29 0.967705 0.563636 0.5
904 32 1.01013 0.678147 0.5
649 33 0.0941874 0.567945 0.5
67 30 0.0501624 0.55489 0.5
818 28 0.0330908 0.601251 0.5
991 31 0.0853647 0.641168 0.5
226 31 0.110996 0.664684 0.5
556 30 0.110744 0.591105 0.5
89 30 0.136388 0.599983 0.5
231 31 0.145164 0.649794 0.5
433 28 0.287558 0.592757 0.5
724 34 0.210667 0.596873 0.5
448 31 0.204998 0.649759 0.5
209 29 0.160096 0.620458 0.5
179 31 0.308505 0.558074 0.5
518 30 0.221384 0.626001 0.5
565 29 0.188074 0.615191 0.5
584 28 0.322658 0.583924 0.5
108 32 0.329479 0.541975 0.5
816 31 0.371723 0.585885 0.5
911 30 0.404874 0.570476 0.5
475 29 0.340666 0.608767 0.5
281 28 0.385947 0.609784 0.5
861 32 0.370708 0.632296 0.5
981 30 0.414648 0.59935 0.5
318 32 0.479626 0.592551 0.5
339 33 0.432897 0.618695 0.5
592 28 0.500982 0.618754 0.5
349 35 0.453557 0.648461 0.5
358 29 0.525899 0.557192 0.5
678 30 0.521753 0.586023 0.5
912 34 0.579619 0.580274 0.5
610 30 0.720897 0.583317 0.5
155 30 0.583225 0.644532 0.5
975 29 0.685051 0.578798 0.5
517 33 0.753991 0.569492 0.5
928 31 0.668431 0.602562 0.5
447 33 0.74163 0.613035 0.5
803 31 0.685896 0.657092 0.5
961 30 0.773822 0.619645 0.5
606 32 0.739135 0.54521 0.5
267 29 0.766157 0.593745 0.5
957 33 0.810052 0.554391 0.5
921 33 0.792276 0.578359 0.5
320 32 0.796091 0.637154 0.5
240 30 0.835567 0.565556 0.5
674 29 0.804155 0.607734 0.5
380 34 0.902872 0.614441 0.5
879 32 0.961986 0.597226 0.5
956 32 0.830263 0.594039 0.5
765 28 0.988711 0.610056 0.5
243 31 0.991396 0.524782 0.5
910 30 0.995803 0.583459 0.5
809 29 0.0761565 0.667079 0.5
689 30 0.0261927 0.628687 0.5
828 30 0.0544492 0.620267 0.5
742 31 0.0881649 0.693238 0.5
463 29 0.0521753 0.648174 0.5
215 29 0.144301 0.708674 0.5
249 32 0.172396 0.709346 0.5
284 32 0.0823981 0.61179 0.5
675 29 0.155435 0.676052 0.5
660 29 0.120685 0.693524 0.5
368 31 0.181999 0.68135 0.5
416 32 0.173091 0.64545 0.5
729 27 0.295028 0.696461 0.5
615 29 0.316608 0.725455 0.5
874 33 0.237343 0.657815 0.5
40 34 0.244688 0.600888 0.5
648 28 0.309043 0.613072 0.5
913 30 0.255411 0.628099 0.5
533 32 0.279214 0.64932 0.5
602 28 0.346462 0.647271 0.5
261 33 0.31772 0.639857 0.5
756 30 0.336855 0.681514 0.5
966 28 0.415766 0.645488 0.5
540 32 0.470597 0.621979 0.5
348 29 0.376863 0.660963 0.5
943 36 0.547727 0.620292 0.5
441 30 0.583072 0.613984 0.5
621 29 0.555489 0.665234 0.5
133 31 0.595053 0.677749 0.5
15 32 0.550451 0.57684 0.5
218 27 0.607118 0.703083 0.5
550 28 0.718562 0.640074 0.5
137 32 0.638656 0.617816 0.5
607 33 0.682537 0.711407 0.5
561 31 0.643 0.649771 0.5
340 27 0.663054 0.670401 0.5
727 33 0.736486 0.674144 0.5
850 28 0.709145 0.669116 0.5
292 30 0.725188 0.706545 0.5
257 32 0.76889 0.65401 0.5
68 31 0.817892 0.691057 0.5
364 31 0.745613 0.724144 0.5
156 28 0.796201 0.669279 0.5
62 30 0.84821 0.700868 0.5
802 32 0.834171 0.668885 0.5
462 30 0.850421 0.618453 0.5
438 29 0.82437 0.640898 0.5
547 32 0.86291 0.650021 0.5
224 30 0.931564 0.597993 0.5
376 34 0.968037 0.625696 0.5
746 28 0.99917 0.633065 0.5
641 30 0.0257327 0.654318 0.5
286 31 0.966194 0.656393 0.5
265 35 0.0330625 0.738731 0.5
403 28 0.0267267 0.706704 0.5
202 34 0.0566948 0.708781 0.5
394 30 1.00559 0.738093 0.5
429 29 0.154533 0.742115 0.5
709 30 0.0144444 0.768964 0.5
875 32 0.0628434 0.748956 0.5
81 29 0.205985 0.712269 0.5
424 27 0.10241 0.716285 0.5
845 29 0.243472 0.69848 0.5
489 27 0.0888937 0.759241 0.5
375 30 0.186317 0.740602 0.5
603 30 0.211843 0.683695 0.5
804 30 0.222367 0.755416 0.5
869 31 0.273861 0.676619 0.5
914 28 0.274236 0.711021 0.5
692 29 0.31263 0.755842 0.5
955 29 0.340185 0.747342 0.5
536 29 0.307223 0.671692 0.5
370 33 0.344044 0.710037 0.5
321 31 0.381584 0.771198 0.5
316 34 0.365336 0.688351 0.5
868 34 0.435123 0.672864 0.5
214 32 0.462724 0.691341 0.5
893 30 0.436432 0.707398 0.5
421 32 0.402473 0.67203 0.5
841 31 0.478193 0.666373 0.5
579 29 0.495162 0.71143 0.5
810 31 0.507874 0.761691 0.5
406 30 0.609674 0.602707 0.5
519 28 0.530876 0.68408 0.5
703 30 0.490207 0.643274 0.5
437 31 0.526407 0.655095 0.5
766 30 0.504934 0.686153 0.5
381 31 0.557222 0.695233 0.5
135 30 0.605386 0.77972 0.5
206 31 0.667975 0.637136 0.5
419 32 0.582896 0.715329 0.5
515 30 0.653232 0.701804 0.5
114 28 0.711812 0.763861 0.5
790 31 0.783127 0.735733 0.5
950 31 0.738518 0.755371 0.5
250 30 0.720395 0.789764 0.5
357 33 0.799866 0.76876 0.5
409 30 0.795104 0.709759 0.5
346 30 0.776161 0.686251 0.5
582 30 0.822358 0.720975 0.5
611 33 0.939707 0.664203 0.5
382 33 0.8703 0.67491 0.5
390 31 0.900617 0.647698 0.5
237 32 0.930691 0.632344 0.5
469 33 0.942606 0.700273 0.5
890 32 0.998815 0.704638 0.5
147 30 0.0391957 0.679672 0.5
605 28 0.982733 0.680462 0.5
773 26 0.985765 0.776145 0.5
642 31 0.0276956 0.825748 0.5
494 27 0.045369 0.846968 0.5
456 31 0.103995 0.788632 0.5
986 30 0.0539834 0.819836 0.5
764 33 0.0684919 0.794328 0.5
22 32 0.0300298 0.798374 0.5
769 30 0.174223 0.773288 0.5
392 30 0.260726 0.734986 0.5
101 29 0.291558 0.732838 0.5
350 25 0.202331 0.77804 0.5
197 30 0.22725 0.728249 0.5
235 32 0.272537 0.794845 0.5
46 32 0.345793 0.784107 0.5
770 35 0.299693 0.784212 0.5
757 34 0.370233 0.743505 0.5
117 31 0.419552 0.789301 0.5
407 29 0.403185 0.736626 0.5
205 29 0.417573 0.761574 0.5
887 31 0.351447 0.876946 0.5
589 28 0.382763 0.717082 0.5
730 31 0.535776 0.711516 0.5
25 31 0.484524 0.737896 0.5
82 32 0.517837 0.735839 0.5
672 31 0.536441 0.75584 0.5
90 34 0.444547 0.735312 0.5
835 31 0.479655 0.813274 0.5
701 33 0.556159 0.734577 0.5
127 27 0.544961 0.822416 0.5
122 30 0.535095 0.786683 0.5
767 34 0.63424 0.681004 0.5
268 36 0.648266 0.744012 0.5
353 30 0.640146 0.770232 0.5
157 31 0.628075 0.716969 0.5
115 27 0.676549 0.739866 0.5
389 34 0.707133 0.732504 0.5
684 28 0.637945 0.820229 0.5
567 30 0.712851 0.82861 0.5
14 30 0.668161 0.765199 0.5
91 28 0.783321 0.803198 0.5
882 33 0.678308 0.848277 0.5
191 33 0.836799 0.750677 0.5
298 34 0.854788 0.731362 0.5
95 31 0.768129 0.781744 0.5
9 29 0.906152 0.685138 0.5
188 31 0.831184 0.775587 0.5
52 33 0.884288 0.701399 0.5
217 31 0.975255 0.745568 0.5
331 29 0.916877 0.732566 0.5
383 32 0.942297 0.746526 0.5
11 33 0.943002 0.772789 0.5
531 29 0.912798 0.759678 0.5
588 29 0.967289 0.829022 0.5
662 31 0.969618 0.795576 0.5
929 32 0.995587 0.805455 0.5
509 29 0.0373144 0.875982 0.5
951 30 0.0654363 0.868523 0.5
151 33 -0.0098695 0.854514 0.5
880 34 0.0797161 0.837446 0.5
856 29 0.164069 0.884327 0.5
180 31 0.0423461 0.770992 0.5
113 32 0.160338 0.855118 0.5
834 31 0.1884 0.859306 0.5
854 29 0.119155 0.814019 0.5
458 33 0.136831 0.789801 0.5
238 28 0.196736 0.805328 0.5
59 28 0.248132 0.764526 0.5
34 31 0.327324 0.823896 0.5
934 28 0.229401 0.815456 0.5
830 30 0.241696 0.79283 0.5
454 31 0.359433 0.824531 0.5
574 27 0.372393 0.796245 0.5
998 31 0.387823 0.831861 0.5
763 32 0.399007 0.807749 0.5
639 27 0.342691 0.844582 0.5
752 29 0.445292 0.810387 0.5
21 31 0.445987 0.77578 0.5
491 30 0.42708 0.839585 0.5
617 32 0.492009 0.788786 0.5
885 28 0.457076 0.835244 0.5
616 30 0.47142 0.763254 0.5
942 28 0.461478 0.865535 0.5
859 34 0.503378 0.845392 0.5
922 33 0.514909 0.806935 0.5
964 32 0.567866 0.796336 0.5
259 26 0.581609 0.747446 0.5
29 30 0.641563 0.848231 0.5
903 31 0.608001 0.738103 0.5
987 32 0.735866 0.848215 0.5
822 32 0.691279 0.790667 0.5
529 30 0.809817 0.793779 0.5
892 27 0.741891 0.811771 0.5
435 28 0.746491 0.88985 0.5
440 34 0.867624 0.758499 0.5
620 29 0.890428 0.775612 0.5
43 32 0.796189 0.863667 0.5
889 29 0.888904 0.732125 0.5
347 36 0.813982 0.819604 0.5
866 30 0.89969 0.802083 0.5
736 28 0.925739 0.799316 0.5
554 30 0.859816 0.814727 0.5
245 27 0.919612 0.825111 0.5
483 29 0.948176 0.812312 0.5
789 29 0.923127 0.850129 0.5
326 36 0.96465 0.868379 0.5
229 31 0.00448391 0.880277 0.5
705 30 0.111259 0.844067 0.5
800 27 0.208191 0.894444 0.5
138 31 0.105368 0.92878 0.5
455 31 0.264161 0.854697 0.5
369 32 0.172488 0.913168 0.5
495 31 0.236329 0.848594 0.5
812 29 0.206945 0.828341 0.5
450 28 0.149334 0.831195 0.5
198 32 0.296039 0.855451 0.5
256 32 0.258974 0.821004 0.5
134 32 0.307899 0.889474 0.5
723 30 0.333801 0.914434 0.5
520 31 0.360112 0.90848 0.5
634 25 0.378067 0.88506 0.5
725 34 0.391417 0.913877 0.5
884 33 0.455059 0.955674 0.5
551 30 0.394785 0.862151 0.5
356 28 0.440965 0.894109 0.5
219 29 0.491618 0.90042 0.5
170 32 0.424412 0.86819 0.5
750 31 0.488139 0.870429 0.5
657 28 0.522962 0.879689 0.5
468 29 0.564582 0.870946 0.5
478 30 0.574703 0.831539 0.5
897 31 0.600321 0.93201 0.5
328 27 0.59069 0.885046 0.5
735 29 0.611246 0.818414 0.5
64 31 0.627935 0.795255 0.5
980 29 0.547685 0.849034 0.5
676 31 0.622109 0.875598 0.5
896 30 0.678406 0.820304 0.5
223 26 0.640387 0.899434 0.5
69 32 0.656915 0.872863 0.5
645 31 0.616615 0.909527 0.5
203 34 0.776244 0.834435 0.5
753 31 0.723001 0.877229 0.5
32 27 0.762883 0.943871 0.5
777 29 0.780609 0.891932 0.5
901 33 0.762875 0.864759 0.5
465 29 0.800319 0.964017 0.5
612 29 0.859786 0.868457 0.5
623 33 0.8161 0.887761 0.5
906 34 0.845699 0.839655 0.5
608 30 0.89091 0.83059 0.5
471 28 0.856859 0.785648 0.5
341 28 0.887251 0.878188 0.5
397 31 0.931227 0.913856 0.5
609 30 0.926374 0.883701 0.5
545 34 0.0423715 0.946935 0.5
445 32 0.0125133 0.925077 0.5
56 29 0.0666533 0.926976 0.5
553 31 0.961577 0.901491 0.5
42 35 0.0386621 0.911844 0.5
273 29 0.0939106 0.866024 0.5
772 31 0.130391 0.879386 0.5
506 33 0.0903837 0.952554 0.5
248 28 0.0808917 0.893252 0.5
71 32 0.136049 0.914351 0.5
294 30 0.241942 0.884704 0.5
74 32 0.211515 0.958861 0.5
989 32 0.234619 0.928345 0.5
45 30 0.205478 0.922518 0.5
7 32 0.261475 0.917516 0.5
216 35 0.294136 0.816993 0.5
111 30 0.323037 0.866928 0.5
792 31 0.330372 0.941383 0.5
200 32 0.275461 0.942663 0.5
141 31 0.411156 0.891653 0.5
123 25 0.358096 0.936101 0.5
168 33 0.372366 0.958532 0.5
895 30 0.489951 0.926873 0.5
175 36 0.465662 0.982126 0.5
193 29 0.459783 0.914688 0.5
949 32 0.514566 0.916156 0.5
619 31 0.544696 0.928202 0.5
451 31 0.554459 0.960602 0.5
801 29 0.525171 0.947621 0.5
161 29 0.544412 0.89596 0.5
717 30 0.603174 0.990453 0.5
664 31 0.637589 0.929498 0.5
937 31 0.601247 0.848611 0.5
428 29 0.5716 0.932583 0.5
453 28 0.694539 0.871633 0.5
118 29 0.668573 0.898 0.5
760 29 0.703483 0.896478 0.5
234 32 0.760832 0.915383 0.5
968 33 0.735606 0.946893 0.5
176 31 0.830088 0.913724 0.5
539 31 0.881034 0.953245 0.5
31 27 0.788897 0.93826 0.5
51 31 0.931493 0.96596 0.5
142 31 0.902852 0.904007 0.5
415 28 0.817532 0.848671 0.5
126 31 0.961924 0.938694 0.5
548 33 0.860656 0.896842 0.5
417 28 0.988637 0.913471 0.5
978 27 0.0531103 0.0124346 0.5
244 30 0.0604488 0.968156 0.5
521 31 0.97007 0.00495986 0.5
204 32 0.107472 0.894559 0.5
66 31 0.0882759 0.983671 0.5
211 26 0.0427106 0.0521583 0.5
75 27 0.114488 0.960283 0.5
283 33 0.148562 0.940105 0.5
865 27 0.0861864 0.0130193 0.5
387 30 0.11528 0.993165 0.5
181 31 0.157633 1.00169 0.5
260 30 0.239763 0.98598 0.5
5 32 0.161454 0.9676 0.5
673 29 0.183298 0.940935 0.5
28 29 0.269786 0.88646 0.5
691 34 0.26242 0.971072 0.5
61 31 0.381849 1.00086 0.5
628 31 0.300428 0.959371 0.5
342 34 0.30148 0.927827 0.5
474 29 0.342381 0.966931 0.5
576 31 0.35201 0.994387 0.5
936 28 0.428708 0.0284955 0.5
300 33 0.426359 0.951346 0.5
706 31 0.42184 0.984249 0.5
590 28 0.399914 0.968138 0.5
745 32 0.400034 0.938934 0.5
862 28 0.452525 0.011786 0.5
94 28 0.517755 0.0222666 0.5
512 31 0.541636 0.0722583 0.5
739 35 0.486608 0.958279 0.5
129 33 0.490777 1.00223 0.5
578 30 0.576986 0.978101 0.5
599 32 0.568604 0.0136784 0.5
698 27 0.511747 0.984649 0.5
713 33 0.605063 0.962406 0.5
270 31 0.629729 0.981859 0.5
35 33 0.662372 0.980098 0.5
546 31 0.664199 0.940327 0.5
945 32 0.68581 0.921643 0.5
87 30 0.683309 1.00137 0.5
762 31 0.710554 0.932143 0.5
720 30 0.731541 0.91227 0.5
393 34 0.687297 0.964207 0.5
275 31 0.763517 0.010452 0.5
323 30 0.74592 0.978733 0.5
988 26 0.851221 -0.00662411 0.5
569 31 0.786875 0.996904 0.5
169 27 0.813382 0.941194 0.5
8 28 0.848658 0.937334 0.5
374 32 0.968685 0.968046 0.5
38 30 0.877353 0.925667 0.5
405 30 0.00353609 0.953912 0.5
737 32 0.931754 0.021116 0.5
