ITEM: TIMESTEP
2250000
ITEM: NUMBER OF ATOMS
1000
ITEM: BOX BOUNDS pp pp pp
-1.7509098000000002e+01 1.7509098000000002e+01
-1.7509098000000002e+01 1.7509098000000002e+01
-5.0000000000000000e-01 5.0000000000000000e-01
ITEM: ATOMS id type xs ys zs
393 34 0.0253115 0.0292975 0.5
975 29 0.0484956 0.00531768 0.5
262 31 0.996843 0.0127259 0.5
502 28 0.0194737 0.992202 0.5
18 35 0.0863355 0.013823 0.5
663 31 0.0572429 0.0381284 0.5
33 30 0.126161 0.0220414 0.5
922 33 0.145557 0.996687 0.5
34 31 0.158193 0.032182 0.5
172 26 0.175599 0.0018638 0.5
232 29 0.187238 0.0386962 0.5
391 28 0.209344 0.0149899 0.5
811 29 0.242298 0.0225893 0.5
886 29 0.217924 0.0447496 0.5
453 28 0.273223 0.0310928 0.5
81 29 0.296181 0.00216982 0.5
414 32 0.304006 0.0395128 0.5
178 27 0.262067 0.997368 0.5
201 32 0.326249 0.0139681 0.5
455 31 0.362355 0.0279351 0.5
932 29 0.389285 0.00934164 0.5
921 33 0.396618 0.0398841 0.5
280 34 0.423145 0.0175225 0.5
741 32 0.456669 0.0275733 0.5
469 33 0.427418 0.0513006 0.5
668 27 0.488535 0.0366837 0.5
370 33 0.510658 0.0106857 0.5
576 31 0.524071 0.0437985 0.5
558 31 0.479192 0.00280212 0.5
102 27 0.544863 0.0195516 0.5
275 31 0.576355 0.0247915 0.5
800 27 0.557381 0.0473819 0.5
329 32 0.605521 0.0361 0.5
963 29 0.563861 0.992202 0.5
61 31 0.624628 0.0101102 0.5
996 29 0.635644 0.0419544 0.5
523 27 0.660249 0.0223062 0.5
930 29 0.716497 0.00744344 0.5
253 30 0.695004 0.0295576 0.5
285 30 0.723485 0.0398368 0.5
919 28 0.74997 0.0195556 0.5
57 31 0.754515 0.0497992 0.5
68 31 0.781934 0.0294857 0.5
939 33 0.812196 0.0369302 0.5
941 30 0.805258 0.00311092 0.5
214 32 0.838205 0.00950286 0.5
835 31 0.870434 0.0133431 0.5
241 32 0.844065 0.0437214 0.5
24 30 0.90358 0.0243088 0.5
482 30 0.934607 0.0341132 0.5
873 31 0.926889 1.00336 0.5
660 29 0.957119 0.0140519 0.5
210 29 0.969048 0.0411527 0.5
483 29 -0.00192373 0.0501865 0.5
193 29 0.0346875 0.0604427 0.5
147 30 0.00665765 0.082556 0.5
770 35 0.0373006 0.0922038 0.5
466 35 0.0952353 0.0479165 0.5
161 29 0.0642474 0.0691126 0.5
242 33 0.129883 0.0529909 0.5
806 29 0.0970723 0.0792109 0.5
743 31 0.133998 0.0872059 0.5
227 31 0.160391 0.0629915 0.5
279 31 0.191882 0.0694082 0.5
709 30 0.171122 0.0942633 0.5
710 33 0.202005 0.0989127 0.5
897 31 0.249565 0.0548989 0.5
957 33 0.2257 0.0755973 0.5
738 31 0.257687 0.0881287 0.5
837 31 0.280215 0.0654388 0.5
809 29 0.291705 0.0990373 0.5
577 33 0.337058 0.0505372 0.5
568 31 0.314814 0.0729241 0.5
976 27 0.345994 0.0832399 0.5
831 30 0.371738 0.0657829 0.5
218 27 0.40212 0.0767752 0.5
331 29 0.374488 0.0952508 0.5
844 31 0.464792 0.0577409 0.5
795 33 0.439764 0.0809004 0.5
511 33 0.473295 0.0893691 0.5
63 30 0.499847 0.0711869 0.5
896 30 0.52896 0.0835826 0.5
623 33 0.559776 0.0781947 0.5
536 29 0.541053 0.110699 0.5
840 29 0.587206 0.0628944 0.5
808 29 0.617103 0.068079 0.5
980 29 0.592954 0.0950117 0.5
563 33 0.624866 0.102411 0.5
335 32 0.672671 0.0518127 0.5
402 33 0.649012 0.0753754 0.5
121 31 0.678123 0.0874861 0.5
609 30 0.701695 0.0621271 0.5
499 26 0.709446 0.0929381 0.5
76 29 0.732565 0.0700101 0.5
615 29 0.761424 0.0839188 0.5
497 31 0.741627 0.108474 0.5
780 30 0.789671 0.0592546 0.5
752 29 0.821348 0.0677171 0.5
31 27 0.795289 0.0912133 0.5
782 29 0.824462 0.100395 0.5
733 33 0.875044 0.052342 0.5
192 33 0.852985 0.0776788 0.5
143 30 0.906598 0.0589164 0.5
926 32 0.887808 0.08257 0.5
894 29 0.927379 0.0858075 0.5
379 29 0.946757 0.0623686 0.5
375 30 0.977476 0.0744433 0.5
487 30 0.959799 0.0984573 0.5
148 32 0.0222383 0.120396 0.5
718 26 0.0282201 0.149371 0.5
642 31 0.997579 0.145913 0.5
828 30 0.0743712 0.10092 0.5
197 30 0.0513287 0.130888 0.5
28 29 0.0827986 0.131726 0.5
903 31 0.146979 0.114598 0.5
449 29 0.107532 0.108909 0.5
223 26 0.126696 0.140941 0.5
252 32 0.158561 0.147993 0.5
12 32 0.182813 0.125492 0.5
596 29 0.188424 0.161641 0.5
213 31 0.215188 0.135332 0.5
706 31 0.233901 0.107673 0.5
555 30 0.246244 0.142672 0.5
170 32 0.266189 0.117189 0.5
694 31 0.299366 0.134316 0.5
991 31 0.322172 0.109932 0.5
860 30 0.354691 0.119792 0.5
66 31 0.330066 0.140712 0.5
14 30 0.368719 0.156034 0.5
982 31 0.418122 0.105566 0.5
376 34 0.387814 0.12979 0.5
621 29 0.449503 0.112348 0.5
427 31 0.423524 0.137859 0.5
935 28 0.454067 0.143389 0.5
824 31 0.506865 0.104587 0.5
871 30 0.480101 0.121375 0.5
440 34 0.51604 0.141653 0.5
900 28 0.484493 0.152221 0.5
925 27 0.550252 0.145605 0.5
898 29 0.569704 0.11743 0.5
305 30 0.580146 0.155599 0.5
358 29 0.603553 0.129571 0.5
355 31 0.612799 0.15936 0.5
317 33 0.654973 0.111971 0.5
59 28 0.634101 0.13504 0.5
138 31 0.666553 0.145783 0.5
211 26 0.685112 0.123774 0.5
703 30 0.715396 0.126889 0.5
9 29 0.698828 0.153274 0.5
836 30 0.774203 0.113915 0.5
264 31 0.744799 0.140557 0.5
312 34 0.779961 0.146366 0.5
115 27 0.80588 0.128512 0.5
589 28 0.871073 0.107235 0.5
528 32 0.842883 0.12786 0.5
202 34 0.875261 0.138749 0.5
895 30 0.901604 0.113978 0.5
313 32 0.933547 0.122057 0.5
397 31 0.909211 0.15077 0.5
346 30 0.990281 0.107173 0.5
310 32 0.967898 0.129315 0.5
700 29 0.00866686 0.175161 0.5
943 36 0.0436031 0.185207 0.5
697 33 0.016867 0.205866 0.5
274 29 0.0621422 0.160175 0.5
516 34 0.102026 0.165816 0.5
448 31 0.0751338 0.190769 0.5
561 31 0.133028 0.175913 0.5
685 30 0.11027 0.198274 0.5
720 30 0.146118 0.208797 0.5
380 34 0.166919 0.183999 0.5
966 28 0.198038 0.191298 0.5
513 29 0.219897 0.168253 0.5
260 30 0.250771 0.172881 0.5
813 30 0.230278 0.19594 0.5
712 30 0.276649 0.157111 0.5
756 30 0.282897 0.187844 0.5
116 27 0.309077 0.16385 0.5
614 30 0.317588 0.199236 0.5
671 28 0.340721 0.17897 0.5
122 30 0.399659 0.162223 0.5
626 32 0.370424 0.187927 0.5
914 28 0.409643 0.194426 0.5
367 29 0.430947 0.170419 0.5
307 31 0.461198 0.176915 0.5
823 30 0.44658 0.20348 0.5
400 32 0.494052 0.184804 0.5
785 32 0.522301 0.172275 0.5
674 29 0.529233 0.203722 0.5
644 30 0.553906 0.18023 0.5
413 29 0.564774 0.211774 0.5
582 30 0.587745 0.188599 0.5
94 28 0.618046 0.191222 0.5
944 30 0.645219 0.169737 0.5
73 31 0.646141 0.203612 0.5
176 31 0.677381 0.177325 0.5
243 31 0.70828 0.190642 0.5
581 27 0.730771 0.168874 0.5
196 31 0.745311 0.200677 0.5
139 30 0.760577 0.171009 0.5
492 34 0.77664 0.203032 0.5
580 29 0.821607 0.152171 0.5
569 31 0.79765 0.175122 0.5
653 28 0.827882 0.180634 0.5
308 29 0.850776 0.159654 0.5
677 34 0.884062 0.171295 0.5
164 32 0.858116 0.194118 0.5
762 31 0.941288 0.154128 0.5
55 29 0.918459 0.182367 0.5
933 30 0.976643 0.169747 0.5
369 32 0.950138 0.18552 0.5
905 30 0.984865 0.198444 0.5
336 33 0.0246219 0.2369 0.5
777 29 -0.00387688 0.262017 0.5
729 27 0.0540578 0.218087 0.5
332 29 0.0857742 0.22025 0.5
648 28 0.058406 0.248389 0.5
662 31 0.0877583 0.255546 0.5
803 31 0.115025 0.23569 0.5
298 34 0.150448 0.240444 0.5
574 27 0.174982 0.216063 0.5
27 32 0.204067 0.221991 0.5
2 30 0.182782 0.246736 0.5
532 30 0.237066 0.233431 0.5
132 31 0.215811 0.257934 0.5
920 30 0.2584 0.209541 0.5
216 35 0.288964 0.220106 0.5
636 27 0.269455 0.244435 0.5
215 29 0.302526 0.253077 0.5
673 29 0.346866 0.211069 0.5
54 30 0.32212 0.229048 0.5
977 33 0.363479 0.240661 0.5
564 29 0.338318 0.262156 0.5
848 30 0.388614 0.218026 0.5
40 34 0.395586 0.25046 0.5
988 26 0.423791 0.225819 0.5
587 33 0.428008 0.259238 0.5
357 33 0.453482 0.237576 0.5
734 31 0.478063 0.212968 0.5
409 30 0.511005 0.227922 0.5
256 32 0.485991 0.246362 0.5
85 27 0.514683 0.262231 0.5
971 26 0.543326 0.231864 0.5
100 32 0.571594 0.242596 0.5
251 31 0.546989 0.263447 0.5
452 32 0.59535 0.218864 0.5
91 28 0.605052 0.254537 0.5
754 31 0.626344 0.228664 0.5
103 31 0.6365 0.259167 0.5
363 28 0.659393 0.232431 0.5
182 31 0.682961 0.210156 0.5
994 30 0.694524 0.245482 0.5
311 29 0.71519 0.222526 0.5
443 29 0.726353 0.255336 0.5
165 27 0.748526 0.232975 0.5
324 34 0.778376 0.238252 0.5
912 34 0.808731 0.212038 0.5
408 29 0.813821 0.244068 0.5
480 29 0.839741 0.219272 0.5
838 27 0.890458 0.203129 0.5
832 35 0.84375 0.253531 0.5
842 29 0.869994 0.225188 0.5
208 31 0.926892 0.216329 0.5
768 31 0.900685 0.23522 0.5
938 27 0.931522 0.246276 0.5
721 29 0.992423 0.232498 0.5
923 32 0.959478 0.218486 0.5
416 32 0.965799 0.252337 0.5
802 32 0.0332646 0.267614 0.5
345 31 0.0107012 0.289169 0.5
672 31 0.0431174 0.301718 0.5
686 30 0.0662947 0.278748 0.5
168 33 0.0740863 0.310618 0.5
661 30 0.0964519 0.286947 0.5
155 30 0.119576 0.266352 0.5
60 29 0.129906 0.296343 0.5
447 33 0.155693 0.277412 0.5
278 32 0.192234 0.279995 0.5
629 28 0.170533 0.307071 0.5
84 29 0.201064 0.310716 0.5
542 31 0.246854 0.26793 0.5
438 29 0.223739 0.288817 0.5
199 33 0.25947 0.298206 0.5
167 29 0.282177 0.276307 0.5
405 30 0.288676 0.307696 0.5
902 30 0.313108 0.286736 0.5
255 30 0.345398 0.297033 0.5
239 32 0.367572 0.275698 0.5
424 27 0.397449 0.284095 0.5
325 31 0.376551 0.308783 0.5
965 30 0.406906 0.316008 0.5
517 33 0.459045 0.271164 0.5
306 29 0.427696 0.29393 0.5
841 31 0.464027 0.302726 0.5
144 32 0.488792 0.280106 0.5
412 30 0.500986 0.307892 0.5
763 32 0.526852 0.291041 0.5
794 31 0.555855 0.300711 0.5
995 28 0.528378 0.323009 0.5
225 32 0.576148 0.276321 0.5
797 31 0.608616 0.285965 0.5
476 27 0.585421 0.306259 0.5
999 33 0.620059 0.321146 0.5
887 31 0.66802 0.266131 0.5
571 36 0.640715 0.29455 0.5
682 33 0.674982 0.305546 0.5
383 32 0.700879 0.277311 0.5
874 33 0.708909 0.31018 0.5
365 29 0.761208 0.266294 0.5
704 32 0.732721 0.285577 0.5
866 30 0.765338 0.29665 0.5
444 32 0.793551 0.267768 0.5
349 35 0.821668 0.284661 0.5
259 26 0.794805 0.303097 0.5
849 32 0.832495 0.315355 0.5
465 29 0.878784 0.259277 0.5
544 29 0.85786 0.285155 0.5
533 32 0.890433 0.295569 0.5
229 31 0.909293 0.269682 0.5
233 29 0.925639 0.305139 0.5
901 33 0.943059 0.276224 0.5
776 31 0.975356 0.286986 0.5
618 33 0.95566 0.31326 0.5
791 29 0.0211558 0.324646 0.5
879 32 0.0312568 0.360303 0.5
881 29 0.0556894 0.342618 0.5
191 33 0.0866894 0.343835 0.5
936 28 0.107673 0.31514 0.5
548 33 0.14438 0.325911 0.5
244 30 0.119407 0.344818 0.5
245 27 0.14919 0.35537 0.5
967 28 0.18151 0.336058 0.5
984 31 0.211121 0.346212 0.5
26 34 0.23215 0.321916 0.5
293 33 0.242095 0.356588 0.5
114 28 0.263334 0.331832 0.5
377 29 0.297759 0.339078 0.5
80 30 0.274143 0.361867 0.5
597 28 0.322841 0.317827 0.5
429 29 0.355647 0.330959 0.5
506 33 0.330147 0.349875 0.5
13 31 0.35976 0.362955 0.5
834 31 0.388207 0.341416 0.5
72 28 0.419751 0.353482 0.5
430 32 0.437461 0.322728 0.5
651 28 0.451179 0.357803 0.5
372 29 0.477666 0.333702 0.5
950 31 0.50703 0.345276 0.5
8 28 0.483671 0.362896 0.5
425 31 0.559038 0.331506 0.5
847 33 0.540113 0.356752 0.5
174 31 0.57296 0.363986 0.5
348 29 0.597517 0.342302 0.5
508 29 0.628646 0.351717 0.5
106 26 0.650005 0.328058 0.5
875 32 0.661501 0.357569 0.5
799 29 0.685309 0.334875 0.5
456 31 0.717866 0.344354 0.5
737 32 0.693834 0.367599 0.5
301 33 0.741688 0.319712 0.5
666 31 0.773556 0.327579 0.5
428 29 0.751117 0.350075 0.5
171 32 0.780374 0.362007 0.5
766 30 0.804981 0.333416 0.5
818 28 0.867653 0.316635 0.5
471 28 0.839704 0.345152 0.5
368 31 0.871713 0.348924 0.5
545 34 0.898634 0.328993 0.5
130 30 0.931401 0.336705 0.5
333 30 0.904338 0.360595 0.5
158 32 0.988416 0.315217 0.5
698 27 1.0003 0.346023 0.5
716 30 0.968115 0.342756 0.5
611 33 0.0400574 0.409974 0.5
867 33 0.979604 0.409053 0.5
906 34 0.0118639 0.388837 0.5
846 32 0.0598161 0.381621 0.5
892 27 0.0971386 0.377181 0.5
862 28 0.0765466 0.411235 0.5
553 31 0.107815 0.406428 0.5
826 30 0.128688 0.378378 0.5
290 31 0.160682 0.388004 0.5
917 34 0.185978 0.367276 0.5
1 29 0.189593 0.399425 0.5
748 32 0.221726 0.381469 0.5
815 30 0.254659 0.38834 0.5
786 34 0.218781 0.413659 0.5
687 31 0.303907 0.371333 0.5
550 28 0.284676 0.397827 0.5
792 31 0.250624 0.422335 0.5
87 30 0.313472 0.408566 0.5
882 33 0.333878 0.385706 0.5
856 29 0.393993 0.372066 0.5
690 29 0.364255 0.397697 0.5
79 33 0.39856 0.405902 0.5
607 33 0.42388 0.385308 0.5
36 33 0.45619 0.394254 0.5
602 28 0.435047 0.419529 0.5
458 33 0.510909 0.376817 0.5
361 31 0.48901 0.404302 0.5
326 36 0.523905 0.41084 0.5
855 31 0.550019 0.387467 0.5
728 32 0.559521 0.419262 0.5
200 32 0.606566 0.374084 0.5
540 32 0.583226 0.395586 0.5
32 27 0.615384 0.407462 0.5
177 28 0.636341 0.38299 0.5
42 35 0.66904 0.390563 0.5
457 33 0.644836 0.414621 0.5
41 31 0.700711 0.402458 0.5
277 29 0.725909 0.375856 0.5
949 32 0.75692 0.384569 0.5
353 30 0.734898 0.408739 0.5
676 31 0.817051 0.367697 0.5
521 31 0.787579 0.392985 0.5
1000 33 0.821502 0.401371 0.5
822 32 0.847281 0.374168 0.5
765 28 0.856809 0.403671 0.5
4 31 0.878888 0.382183 0.5
747 28 0.886334 0.418256 0.5
188 31 0.910865 0.3906 0.5
745 32 0.936503 0.367839 0.5
270 31 0.974794 0.377624 0.5
141 31 0.94716 0.400161 0.5
853 26 0.00866345 0.419117 0.5
156 28 0.984365 0.440519 0.5
959 29 0.0268238 0.441673 0.5
217 31 0.0579065 0.43852 0.5
530 30 0.0673859 0.469113 0.5
585 31 0.137852 0.413148 0.5
503 33 0.10054 0.439928 0.5
586 35 0.132843 0.446677 0.5
807 27 0.165056 0.424578 0.5
918 34 0.167251 0.454945 0.5
234 32 0.192711 0.4352 0.5
514 28 0.224932 0.445841 0.5
789 29 0.202183 0.46551 0.5
51 31 0.263979 0.452706 0.5
186 31 0.286214 0.431361 0.5
723 30 0.296416 0.461132 0.5
323 30 0.347045 0.423902 0.5
111 30 0.321712 0.441217 0.5
105 31 0.352262 0.456908 0.5
556 30 0.375676 0.435712 0.5
740 32 0.408554 0.438601 0.5
620 29 0.388204 0.46329 0.5
522 33 0.466745 0.429242 0.5
491 30 0.440475 0.449447 0.5
25 31 0.483095 0.459267 0.5
753 31 0.501375 0.434939 0.5
641 30 0.513881 0.468247 0.5
318 32 0.537846 0.443155 0.5
289 27 0.570953 0.451789 0.5
296 30 0.590107 0.430637 0.5
493 28 0.596559 0.466673 0.5
390 31 0.619575 0.443343 0.5
21 31 0.652359 0.448673 0.5
749 29 0.678235 0.424289 0.5
406 30 0.684166 0.454412 0.5
779 33 0.711989 0.437097 0.5
637 29 0.718352 0.468094 0.5
39 29 0.769875 0.418282 0.5
767 34 0.7466 0.439396 0.5
434 28 0.777303 0.448646 0.5
986 30 0.800181 0.424903 0.5
529 30 0.80965 0.454082 0.5
341 28 0.831424 0.432692 0.5
125 30 0.863769 0.439779 0.5
816 31 0.842058 0.464713 0.5
93 35 0.897841 0.449606 0.5
872 34 0.920522 0.422347 0.5
566 31 0.952966 0.434164 0.5
628 31 0.959722 0.467417 0.5
463 29 0.928054 0.461428 0.5
652 35 -0.00639904 0.470475 0.5
283 33 0.0133218 0.498752 0.5
44 32 0.0355582 0.472123 0.5
204 32 0.0805882 0.502753 0.5
557 33 0.10834 0.471963 0.5
207 31 0.121331 0.504796 0.5
594 32 0.141482 0.478688 0.5
486 33 0.175653 0.486314 0.5
579 29 0.154753 0.513836 0.5
48 28 0.207537 0.494479 0.5
787 29 0.240838 0.473486 0.5
985 28 0.244885 0.506268 0.5
22 32 0.269278 0.484579 0.5
287 33 0.300069 0.503835 0.5
273 29 0.274363 0.520121 0.5
929 32 0.32576 0.475889 0.5
657 28 0.334031 0.510746 0.5
680 30 0.361296 0.487792 0.5
92 29 0.396816 0.494537 0.5
750 31 0.367995 0.519161 0.5
804 30 0.417308 0.471789 0.5
783 29 0.451068 0.484696 0.5
185 33 0.429419 0.505671 0.5
320 32 0.460396 0.517396 0.5
593 28 0.482662 0.490404 0.5
500 35 0.515955 0.499418 0.5
524 32 0.492966 0.52481 0.5
384 35 0.546021 0.475251 0.5
861 32 0.549524 0.511006 0.5
664 31 0.574666 0.488144 0.5
11 33 0.607235 0.496096 0.5
864 28 0.580916 0.519456 0.5
829 28 0.629443 0.473242 0.5
727 33 0.661166 0.481132 0.5
297 30 0.641118 0.506131 0.5
269 31 0.671802 0.516907 0.5
691 34 0.693419 0.490742 0.5
665 35 0.703602 0.525045 0.5
478 30 0.751157 0.474099 0.5
603 30 0.728521 0.49907 0.5
519 28 0.762754 0.507696 0.5
968 33 0.783725 0.481288 0.5
821 29 0.818415 0.484692 0.5
531 29 0.79425 0.51621 0.5
135 30 0.825077 0.52308 0.5
658 33 0.873247 0.472632 0.5
23 29 0.850841 0.500138 0.5
880 34 0.90429 0.481999 0.5
512 31 0.883319 0.505091 0.5
403 28 0.914903 0.513843 0.5
983 31 0.981167 0.506526 0.5
679 35 0.947562 0.523535 0.5
705 30 0.935888 0.491809 0.5
136 33 0.017204 0.531389 0.5
288 33 0.0492183 0.540936 0.5
859 34 0.0481305 0.506018 0.5
134 32 0.0791932 0.553382 0.5
359 32 0.100194 0.529723 0.5
534 32 0.11188 0.566654 0.5
265 35 0.137803 0.54166 0.5
575 31 0.142975 0.573208 0.5
600 33 0.188144 0.517364 0.5
489 27 0.169326 0.541909 0.5
567 30 0.196411 0.556754 0.5
851 31 0.217206 0.531087 0.5
468 29 0.227289 0.565397 0.5
179 31 0.252348 0.542881 0.5
45 30 0.287851 0.55597 0.5
151 33 0.312021 0.534381 0.5
410 34 0.343882 0.543429 0.5
972 30 0.319876 0.56725 0.5
300 33 0.358796 0.579682 0.5
29 30 0.400078 0.526707 0.5
120 30 0.38787 0.555125 0.5
909 29 0.419506 0.566967 0.5
814 31 0.431359 0.538492 0.5
140 30 0.451643 0.568429 0.5
688 29 0.474376 0.548717 0.5
309 32 0.505811 0.557799 0.5
843 32 0.52721 0.534308 0.5
761 30 0.559892 0.540519 0.5
281 28 0.539177 0.563628 0.5
282 29 0.566872 0.572108 0.5
7 32 0.613308 0.52887 0.5
446 30 0.591081 0.551331 0.5
421 32 0.620179 0.561244 0.5
6 24 0.647956 0.545445 0.5
759 33 0.65021 0.576472 0.5
47 31 0.676704 0.550459 0.5
805 29 0.71508 0.557627 0.5
888 29 0.739522 0.532024 0.5
263 30 0.747358 0.565478 0.5
65 31 0.782194 0.576305 0.5
418 32 0.773309 0.539652 0.5
431 31 0.805127 0.549329 0.5
166 30 0.812902 0.579028 0.5
928 31 0.864051 0.529877 0.5
128 31 0.837406 0.552943 0.5
381 31 0.872996 0.560393 0.5
736 28 0.896654 0.537299 0.5
240 30 0.900354 0.576115 0.5
876 31 0.9274 0.548921 0.5
784 29 0.960594 0.553774 0.5
477 31 0.991157 0.552458 0.5
543 32 0.0235616 0.564686 0.5
95 31 0.0314863 0.598606 0.5
830 30 0.995655 0.592059 0.5
790 31 0.0566942 0.578538 0.5
606 32 0.065947 0.618935 0.5
351 31 0.0860306 0.586436 0.5
962 37 0.123932 0.598121 0.5
684 28 0.154194 0.609923 0.5
450 28 0.174087 0.577629 0.5
624 28 0.184189 0.611143 0.5
284 32 0.203778 0.587377 0.5
145 28 0.241845 0.59875 0.5
231 31 0.218363 0.617722 0.5
423 32 0.263172 0.576051 0.5
554 30 0.295557 0.587565 0.5
394 30 0.271184 0.610878 0.5
863 29 0.30173 0.624845 0.5
947 32 0.327718 0.598264 0.5
475 29 0.360942 0.614049 0.5
228 29 0.391307 0.587652 0.5
226 31 0.396745 0.618678 0.5
825 33 0.423721 0.598782 0.5
547 32 0.459576 0.604972 0.5
820 30 0.428018 0.631133 0.5
772 31 0.481245 0.580351 0.5
551 30 0.51298 0.589753 0.5
266 32 0.490495 0.61384 0.5
470 30 0.523928 0.621438 0.5
64 31 0.545068 0.593727 0.5
952 32 0.595931 0.58799 0.5
870 30 0.576644 0.613267 0.5
993 30 0.605972 0.620473 0.5
702 29 0.626896 0.598342 0.5
133 31 0.667918 0.60354 0.5
911 30 0.641775 0.628257 0.5
857 34 0.691919 0.579771 0.5
343 32 0.703257 0.611677 0.5
304 29 0.724467 0.587126 0.5
46 32 0.73752 0.617063 0.5
426 27 0.757695 0.594753 0.5
460 32 0.770548 0.626923 0.5
157 31 0.794521 0.608241 0.5
692 29 0.824176 0.61535 0.5
175 36 0.844846 0.588381 0.5
801 29 0.877795 0.59829 0.5
364 31 0.855659 0.624207 0.5
631 30 0.933162 0.580155 0.5
107 30 0.885965 0.631595 0.5
632 30 0.910128 0.607415 0.5
793 30 0.94232 0.611865 0.5
206 31 0.964951 0.587925 0.5
248 28 0.977383 0.615663 0.5
696 29 0.00792574 0.623478 0.5
951 30 0.017368 0.665492 0.5
399 32 0.037517 0.636247 0.5
812 29 0.0513061 0.66572 0.5
352 29 0.0821713 0.64755 0.5
973 27 0.0970303 0.621687 0.5
441 30 0.134075 0.63382 0.5
781 30 0.109469 0.66231 0.5
286 31 0.140209 0.668741 0.5
10 30 0.196136 0.643226 0.5
462 30 0.165741 0.645376 0.5
433 28 0.17982 0.676276 0.5
327 31 0.20984 0.683292 0.5
693 30 0.224324 0.651947 0.5
604 27 0.248301 0.633919 0.5
883 33 0.256948 0.669621 0.5
366 30 0.280654 0.649065 0.5
198 32 0.293638 0.680576 0.5
108 32 0.33571 0.635131 0.5
205 29 0.314607 0.657075 0.5
371 30 0.343807 0.668417 0.5
937 31 0.36895 0.643206 0.5
62 30 0.402643 0.650323 0.5
479 26 0.382875 0.672834 0.5
388 29 0.467998 0.637629 0.5
638 37 0.41425 0.682533 0.5
404 31 0.444529 0.657913 0.5
979 32 0.475201 0.66922 0.5
956 32 0.500943 0.645465 0.5
507 30 0.508144 0.678894 0.5
560 30 0.554166 0.634169 0.5
112 28 0.532084 0.656473 0.5
35 33 0.561049 0.66652 0.5
771 28 0.582429 0.645065 0.5
360 25 0.612865 0.648635 0.5
340 27 0.591215 0.676591 0.5
173 30 0.621198 0.677144 0.5
159 32 0.647865 0.661071 0.5
160 30 0.676934 0.633888 0.5
88 35 0.683567 0.665306 0.5
83 31 0.709328 0.64405 0.5
90 34 0.718341 0.67566 0.5
730 31 0.744256 0.648701 0.5
760 29 0.773558 0.668278 0.5
101 29 0.79963 0.639958 0.5
751 28 0.80933 0.674245 0.5
546 31 0.83253 0.649875 0.5
633 30 0.841799 0.683743 0.5
338 30 0.864246 0.655603 0.5
974 29 0.896444 0.661201 0.5
725 34 0.920974 0.639794 0.5
869 31 0.93255 0.670877 0.5
238 28 0.991709 0.649968 0.5
810 31 0.956209 0.642553 0.5
294 30 0.961612 0.67667 0.5
643 29 0.0310144 0.695196 0.5
541 31 0.00207468 0.718712 0.5
190 34 0.0332872 0.730438 0.5
617 32 0.0828579 0.679807 0.5
964 32 0.0612383 0.704877 0.5
422 30 0.0965837 0.713278 0.5
19 30 0.122487 0.695094 0.5
82 32 0.126582 0.725943 0.5
154 30 0.15555 0.698404 0.5
640 33 0.187237 0.707427 0.5
472 29 0.216881 0.720248 0.5
344 27 0.238329 0.695849 0.5
187 32 0.24679 0.732395 0.5
890 32 0.267706 0.707561 0.5
989 32 0.278578 0.743375 0.5
117 31 0.32458 0.692699 0.5
549 30 0.302282 0.71661 0.5
885 28 0.336921 0.72512 0.5
373 32 0.355501 0.700527 0.5
235 32 0.366697 0.734409 0.5
184 29 0.38764 0.709743 0.5
619 31 0.419887 0.715854 0.5
267 29 0.444225 0.694793 0.5
978 27 0.447991 0.727866 0.5
654 28 0.47389 0.701643 0.5
30 31 0.508075 0.710654 0.5
595 32 0.535551 0.692062 0.5
635 27 0.567523 0.697246 0.5
302 29 0.548477 0.724399 0.5
915 29 0.579439 0.726857 0.5
504 34 0.602782 0.705393 0.5
868 34 0.635311 0.710237 0.5
590 28 0.659989 0.69062 0.5
713 33 0.672364 0.722337 0.5
778 28 0.697898 0.698359 0.5
17 29 0.726249 0.712288 0.5
683 32 0.701248 0.73664 0.5
997 32 0.749415 0.687222 0.5
110 30 0.785877 0.696928 0.5
827 35 0.75785 0.720445 0.5
625 31 0.793196 0.728779 0.5
295 32 0.818065 0.703923 0.5
948 33 0.829602 0.734387 0.5
839 29 0.873053 0.685618 0.5
401 28 0.855201 0.714026 0.5
249 32 0.887029 0.716678 0.5
969 30 0.907114 0.692 0.5
459 33 0.937474 0.703354 0.5
328 27 0.916014 0.733453 0.5
50 31 0.990958 0.68756 0.5
137 32 0.970111 0.712166 0.5
731 32 0.950156 0.737602 0.5
38 30 0.0163999 0.756832 0.5
505 31 0.0471914 0.760689 0.5
212 28 0.0647856 0.735435 0.5
627 31 0.0791201 0.77006 0.5
854 29 0.103178 0.746329 0.5
510 32 0.135493 0.756583 0.5
889 29 0.109051 0.778204 0.5
20 32 0.158629 0.730738 0.5
616 30 0.193733 0.741413 0.5
339 33 0.167543 0.76702 0.5
387 30 0.198658 0.771254 0.5
758 27 0.225317 0.754057 0.5
494 27 0.228945 0.783105 0.5
907 29 0.257431 0.76608 0.5
942 28 0.290227 0.772986 0.5
220 30 0.271816 0.799484 0.5
437 31 0.312403 0.747759 0.5
303 30 0.342547 0.755631 0.5
552 30 0.323109 0.786453 0.5
16 31 0.353718 0.798302 0.5
958 27 0.396507 0.74084 0.5
481 30 0.370613 0.770724 0.5
877 30 0.405172 0.772336 0.5
535 28 0.427893 0.751626 0.5
150 34 0.438517 0.787424 0.5
695 27 0.462983 0.757555 0.5
572 32 0.480848 0.73358 0.5
773 26 0.492752 0.761731 0.5
43 32 0.520402 0.745652 0.5
904 32 0.554395 0.754557 0.5
49 29 0.560565 0.787613 0.5
420 32 0.525826 0.780113 0.5
70 29 0.616366 0.73822 0.5
910 30 0.586347 0.758841 0.5
142 31 0.621774 0.769772 0.5
319 30 0.645202 0.748731 0.5
250 30 0.655732 0.779737 0.5
588 29 0.676845 0.755465 0.5
584 28 0.713662 0.767261 0.5
578 30 0.732874 0.742638 0.5
395 29 0.742623 0.772253 0.5
356 28 0.769086 0.753549 0.5
746 28 0.776295 0.782202 0.5
299 28 0.802926 0.759227 0.5
992 33 0.835543 0.766459 0.5
562 33 0.807996 0.78987 0.5
436 31 0.862056 0.744709 0.5
271 30 0.869295 0.774748 0.5
719 27 0.892237 0.75442 0.5
601 31 0.925948 0.762674 0.5
515 30 0.901069 0.7828 0.5
775 32 0.985098 0.74517 0.5
129 33 0.957089 0.768406 0.5
98 32 0.991413 0.777517 0.5
109 35 0.0216563 0.789004 0.5
960 34 0.0256192 0.821629 0.5
592 28 0.0557364 0.790243 0.5
127 27 0.0839606 0.804083 0.5
630 31 0.057704 0.824319 0.5
891 32 0.0925108 0.834812 0.5
419 32 0.13964 0.789814 0.5
316 34 0.115815 0.810623 0.5
342 34 0.150441 0.821769 0.5
865 27 0.175699 0.795987 0.5
852 32 0.18403 0.826356 0.5
473 31 0.210454 0.809223 0.5
203 34 0.241461 0.815771 0.5
845 29 0.218228 0.839775 0.5
927 31 0.301849 0.813072 0.5
495 31 0.27437 0.831504 0.5
526 30 0.306787 0.846349 0.5
612 29 0.331033 0.821016 0.5
247 28 0.366041 0.827622 0.5
559 31 0.384839 0.802246 0.5
5 32 0.397429 0.834444 0.5
899 27 0.41733 0.812233 0.5
347 36 0.448632 0.82034 0.5
496 30 0.474306 0.786915 0.5
744 32 0.506088 0.805666 0.5
322 27 0.516847 0.833324 0.5
670 32 0.484253 0.829537 0.5
655 30 0.536717 0.810854 0.5
461 31 0.549701 0.839349 0.5
104 28 0.575598 0.81544 0.5
757 34 0.595695 0.791018 0.5
291 29 0.602683 0.827127 0.5
276 32 0.631514 0.800123 0.5
484 32 0.663149 0.810885 0.5
454 31 0.633005 0.834641 0.5
599 32 0.685857 0.786069 0.5
715 27 0.724331 0.79643 0.5
467 31 0.699556 0.815075 0.5
149 29 0.730878 0.826349 0.5
334 32 0.755472 0.804999 0.5
570 32 0.7624 0.836074 0.5
858 31 0.785744 0.813471 0.5
878 31 0.818404 0.820857 0.5
539 31 0.843479 0.79741 0.5
153 33 0.875138 0.806991 0.5
850 28 0.851843 0.835052 0.5
764 33 0.931492 0.795089 0.5
194 31 0.905711 0.816464 0.5
583 28 0.938661 0.82429 0.5
97 27 0.994364 0.809305 0.5
913 30 0.964992 0.799053 0.5
946 30 0.96722 0.831829 0.5
916 28 0.000410126 0.842547 0.5
15 32 0.037325 0.851632 0.5
537 29 0.0126274 0.871428 0.5
350 25 0.0416858 0.882787 0.5
315 30 0.0691774 0.859156 0.5
650 30 0.124793 0.84462 0.5
501 32 0.100474 0.866329 0.5
701 33 0.13819 0.879394 0.5
931 30 0.164904 0.8505 0.5
659 32 0.193917 0.859692 0.5
89 30 0.170066 0.882741 0.5
488 29 0.201116 0.890562 0.5
474 29 0.251206 0.8524 0.5
439 29 0.226149 0.870479 0.5
392 30 0.254602 0.884033 0.5
639 27 0.280745 0.865581 0.5
714 30 0.293269 0.904422 0.5
717 30 0.311306 0.879981 0.5
224 30 0.33748 0.853212 0.5
417 28 0.37476 0.894404 0.5
608 30 0.372 0.862378 0.5
739 35 0.404319 0.867048 0.5
163 28 0.426436 0.844909 0.5
699 27 0.440423 0.876718 0.5
389 34 0.46067 0.85258 0.5
711 32 0.473899 0.883808 0.5
411 31 0.496998 0.858366 0.5
742 31 0.52881 0.863893 0.5
605 28 0.560815 0.871774 0.5
893 30 0.579309 0.847508 0.5
209 29 0.611537 0.856981 0.5
735 29 0.591562 0.880446 0.5
246 32 0.622578 0.889408 0.5
678 30 0.67023 0.847053 0.5
649 33 0.644556 0.866111 0.5
681 28 0.687606 0.875022 0.5
272 33 0.700243 0.84767 0.5
337 30 0.716314 0.883984 0.5
254 31 0.739468 0.863273 0.5
675 29 0.772958 0.866891 0.5
485 32 0.796132 0.84445 0.5
573 30 0.831738 0.855919 0.5
195 33 0.803624 0.879466 0.5
314 31 0.836421 0.885934 0.5
123 25 0.880121 0.836332 0.5
396 31 0.863098 0.86559 0.5
954 28 0.915296 0.845673 0.5
237 32 0.894424 0.869687 0.5
970 27 0.921228 0.884407 0.5
726 30 0.945541 0.853628 0.5
236 35 0.978043 0.862661 0.5
67 30 0.0171712 0.901234 0.5
646 29 0.998249 0.925036 0.5
656 27 0.024775 0.937125 0.5
990 34 0.0740102 0.890242 0.5
385 31 0.0494917 0.913115 0.5
490 31 0.0836697 0.921566 0.5
261 33 0.113045 0.901499 0.5
222 31 0.147028 0.912717 0.5
998 31 0.124995 0.934366 0.5
647 30 0.157255 0.942531 0.5
71 32 0.178882 0.913382 0.5
667 29 0.207939 0.926853 0.5
126 31 0.228354 0.904262 0.5
934 28 0.239537 0.933872 0.5
498 30 0.263032 0.914022 0.5
99 28 0.324577 0.910851 0.5
37 30 0.343825 0.886022 0.5
77 26 0.357117 0.92281 0.5
908 27 0.393063 0.92452 0.5
374 32 0.415675 0.89851 0.5
961 30 0.452534 0.910457 0.5
78 26 0.368177 0.951269 0.5
445 32 0.404568 0.953614 0.5
152 32 0.425989 0.929987 0.5
354 32 0.461047 0.942326 0.5
330 29 0.485436 0.917781 0.5
442 32 0.507094 0.892165 0.5
118 29 0.5155 0.922712 0.5
769 30 0.540893 0.896146 0.5
3 32 0.556498 0.960588 0.5
86 30 0.571143 0.906349 0.5
189 23 0.583558 0.936325 0.5
565 29 0.602076 0.914705 0.5
221 27 0.665843 0.896847 0.5
724 34 0.636333 0.920685 0.5
268 36 0.670867 0.929767 0.5
509 29 0.694192 0.906038 0.5
981 30 0.703146 0.938201 0.5
415 28 0.726922 0.915501 0.5
669 34 0.74917 0.894872 0.5
945 32 0.779748 0.905137 0.5
520 31 0.753265 0.929769 0.5
527 30 0.786637 0.937131 0.5
52 33 0.811622 0.911407 0.5
119 30 0.870714 0.896439 0.5
219 29 0.847253 0.921411 0.5
321 31 0.878466 0.927838 0.5
613 29 0.901293 0.906795 0.5
113 32 0.932886 0.913244 0.5
435 28 0.910411 0.937608 0.5
74 32 0.952618 0.886478 0.5
833 31 0.986566 0.895996 0.5
518 30 0.964114 0.917126 0.5
884 33 0.0386687 0.965333 0.5
538 32 0.005765 0.961038 0.5
146 28 0.0594765 0.942012 0.5
398 33 0.0766144 0.982668 0.5
953 30 0.0919922 0.954966 0.5
378 31 0.109973 0.987767 0.5
96 30 0.13367 0.964986 0.5
796 29 0.188605 0.952078 0.5
819 30 0.165893 0.972321 0.5
180 31 0.199398 0.981861 0.5
407 29 0.229477 0.994476 0.5
181 31 0.219449 0.956765 0.5
464 30 0.249163 0.968177 0.5
432 30 0.273847 0.944297 0.5
53 32 0.305689 0.936278 0.5
124 29 0.284971 0.973049 0.5
987 32 0.350024 0.993584 0.5
707 37 0.319443 0.978263 0.5
169 27 0.339318 0.946649 0.5
162 31 0.383901 0.977894 0.5
755 28 0.411766 0.988543 0.5
645 31 0.434525 0.9632 0.5
722 32 0.446193 0.995272 0.5
386 33 0.470769 0.972639 0.5
230 31 0.49452 0.949347 0.5
708 29 0.5006 0.980021 0.5
69 32 0.548189 0.927937 0.5
362 31 0.589532 0.96646 0.5
732 30 0.53166 0.982977 0.5
634 25 0.596463 -0.00109118 0.5
798 32 0.612586 0.946132 0.5
525 29 0.618112 0.97736 0.5
817 33 0.653052 0.989915 0.5
451 31 0.642836 0.956487 0.5
591 29 0.673731 0.965204 0.5
788 32 0.685321 0.997722 0.5
75 27 0.734317 0.955542 0.5
598 32 0.705227 0.970004 0.5
940 29 0.769638 0.995865 0.5
183 29 0.740567 0.984286 0.5
258 34 0.765071 0.963438 0.5
955 29 0.818487 0.947549 0.5
58 29 0.830127 0.977195 0.5
689 30 0.799592 0.972357 0.5
924 28 0.855999 0.950896 0.5
774 32 0.862409 0.983201 0.5
292 30 0.885185 0.957729 0.5
382 33 0.895406 0.991655 0.5
56 29 0.914969 0.966318 0.5
257 32 0.940896 0.944274 0.5
610 30 0.973443 0.951427 0.5
131 29 0.977511 0.984044 0.5
622 30 0.94671 0.980001 0.5
